# HZ S RI R 50
! BoneWave AI live acquisition
1500000000.000000 0 0 0.0272238229712 -0.0350007327894 0 0 0 0
1503722084.367246 0 0 0.0198236499583 -0.0390054328017 0 0 0 0
1507444168.734491 0 0 0.0122076070223 -0.0409401999686 0 0 0 0
1511166253.101737 0 0 0.00502376949894 -0.041290705261 0 0 0 0
1514888337.468983 0 0 -0.00232102507548 -0.0407073683636 0 0 0 0
1518610421.836228 0 0 -0.00923870334508 -0.0387575290019 0 0 0 0
1522332506.203474 0 0 -0.0155349836082 -0.036051605094 0 0 0 0
1526054590.570720 0 0 -0.0215449475154 -0.0318264080423 0 0 0 0
1529776674.937965 0 0 -0.0264918700206 -0.0264552164518 0 0 0 0
1533498759.305211 0 0 -0.0300858754563 -0.0201511536166 0 0 0 0
1537220843.672457 0 0 -0.0319264898534 -0.0131789500416 0 0 0 0
1540942928.039702 0 0 -0.0319318505585 -0.00644188802273 0 0 0 0
1544665012.406948 0 0 -0.0308759527095 -9.27960839065e-05 0 0 0 0
1548387096.774194 0 0 -0.027920862119 0.00553652044306 0 0 0 0
1552109181.141439 0 0 -0.0236171868601 0.00958620250992 0 0 0 0
1555831265.508685 0 0 -0.0194868775527 0.0115231292174 0 0 0 0
1559553349.875931 0 0 -0.0161435990159 0.0126015643071 0 0 0 0
1563275434.243176 0 0 -0.0129116485111 0.0132818091561 0 0 0 0
1566997518.610422 0 0 -0.0101659335843 0.0133688590775 0 0 0 0
1570719602.977668 0 0 -0.00788019988855 0.0127660767795 0 0 0 0
1574441687.344913 0 0 -0.00650993181736 0.0122536950952 0 0 0 0
1578163771.712159 0 0 -0.00557970070042 0.0121060979535 0 0 0 0
1581885856.079404 0 0 -0.00462285577296 0.012336868906 0 0 0 0
1585607940.446650 0 0 -0.00335621638447 0.0128149207661 0 0 0 0
1589330024.813896 0 0 -0.00179684789955 0.0131598230077 0 0 0 0
1593052109.181141 0 0 -2.15053814098e-05 0.0133318254968 0 0 0 0
1596774193.548387 0 0 0.00195114319563 0.0131337137152 0 0 0 0
1600496277.915633 0 0 0.00394707347434 0.0124715000585 0 0 0 0
1604218362.282878 0 0 0.00564916920752 0.0115529405804 0 0 0 0
1607940446.650124 0 0 0.00720267667843 0.0104327882109 0 0 0 0
1611662531.017370 0 0 0.00868787963985 0.00909957810512 0 0 0 0
1615384615.384615 0 0 0.00995248950158 0.00738869753117 0 0 0 0
1619106699.751861 0 0 0.0107000101168 0.00538857260255 0 0 0 0
1622828784.119107 0 0 0.0111124597642 0.00348495872579 0 0 0 0
1626550868.486352 0 0 0.0113222447314 0.00159009066591 0 0 0 0
1630272952.853598 0 0 0.010987256632 -0.000275951017517 0 0 0 0
1633995037.220844 0 0 0.0106067010113 -0.0018272418575 0 0 0 0
1637717121.588089 0 0 0.0100316870411 -0.00350060728991 0 0 0 0
1641439205.955335 0 0 0.00910713529096 -0.00505838691541 0 0 0 0
1645161290.322581 0 0 0.00796035385781 -0.00635417819183 0 0 0 0
1648883374.689826 0 0 0.00669338613844 -0.00746906147168 0 0 0 0
1652605459.057072 0 0 0.00526926204226 -0.00828264395085 0 0 0 0
1656327543.424318 0 0 0.00373176356271 -0.00886184293268 0 0 0 0
1660049627.791563 0 0 0.00224129532944 -0.00913078423414 0 0 0 0
1663771712.158809 0 0 0.000859423846351 -0.00932796292216 0 0 0 0
1667493796.526055 0 0 -0.000777245723358 -0.00939752223899 0 0 0 0
1671215880.893300 0 0 -0.00245486316791 -0.00917151082551 0 0 0 0
1674937965.260546 0 0 -0.00428559698127 -0.0086985329525 0 0 0 0
1678660049.627792 0 0 -0.00623909847054 -0.00755445522582 0 0 0 0
1682382133.995037 0 0 -0.007798930788 -0.0054336173731 0 0 0 0
1686104218.362283 0 0 -0.00809579616377 -0.00304191255198 0 0 0 0
1689826302.729528 0 0 -0.00758190076364 -0.0012177377269 0 0 0 0
1693548387.096774 0 0 -0.00695177764502 -2.4578504024e-05 0 0 0 0
1697270471.464020 0 0 -0.00633377958986 0.000921739957074 0 0 0 0
1700992555.831265 0 0 -0.00577865795188 0.00177641352138 0 0 0 0
1704714640.198511 0 0 -0.00521409631583 0.00254270752293 0 0 0 0
1708436724.565757 0 0 -0.00452354282366 0.00328429777335 0 0 0 0
1712158808.933002 0 0 -0.00370302800755 0.00396931761871 0 0 0 0
1715880893.300248 0 0 -0.00250681188663 0.0044807111413 0 0 0 0
1719602977.667494 0 0 -0.00123468902027 0.00439080722226 0 0 0 0
1723325062.034739 0 0 -0.000294659328335 0.00380204352831 0 0 0 0
1727047146.401985 0 0 7.16695736098e-05 0.00317321215333 0 0 0 0
1730769230.769231 0 0 0.000103047428032 0.00287530857783 0 0 0 0
1734491315.136477 0 0 0.000290126071409 0.00301610354282 0 0 0 0
1738213399.503722 0 0 0.000878065308391 0.00322996426337 0 0 0 0
1741935483.870968 0 0 0.00184396528188 0.00323221188599 0 0 0 0
1745657568.238213 0 0 0.00309539843517 0.00291719542611 0 0 0 0
1749379652.605459 0 0 0.00444853775792 0.001647309575 0 0 0 0
1753101736.972705 0 0 0.00488605412652 -0.000563716762403 0 0 0 0
1756823821.339950 0 0 0.00426450558007 -0.00281368104034 0 0 0 0
1760545905.707196 0 0 0.00281319700527 -0.00452421996065 0 0 0 0
1764267990.074442 0 0 0.000699946362559 -0.0052665229232 0 0 0 0
1767990074.441687 0 0 -0.00121520248352 -0.00515574064781 0 0 0 0
1771712158.808933 0 0 -0.0028256513032 -0.00485292906704 0 0 0 0
1775434243.176179 0 0 -0.00453902381673 -0.00443290389698 0 0 0 0
1779156327.543424 0 0 -0.00660932607135 -0.00313800482297 0 0 0 0
1782878411.910670 0 0 -0.00817454988992 -0.00080060443361 0 0 0 0
1786600496.277915 0 0 -0.00860128499031 0.00209657976063 0 0 0 0
1790322580.645161 0 0 -0.00800306809646 0.0049616065357 0 0 0 0
1794044665.012407 0 0 -0.00641641830771 0.00711207823463 0 0 0 0
1797766749.379653 0 0 -0.00455536238304 0.00867476141985 0 0 0 0
1801488833.746898 0 0 -0.00269158356234 0.0100041244532 0 0 0 0
1805210918.114144 0 0 -0.000290070328402 0.0111049381258 0 0 0 0
1808933002.481390 0 0 0.00277078092388 0.0113926289628 0 0 0 0
1812655086.848635 0 0 0.00583706094403 0.010667749176 0 0 0 0
1816377171.215881 0 0 0.00827888608121 0.00873753578056 0 0 0 0
1820099255.583127 0 0 0.0097719943459 0.00664130014323 0 0 0 0
1823821339.950372 0 0 0.0108217540551 0.00480792732683 0 0 0 0
1827543424.317618 0 0 0.0118120534398 0.00294185646812 0 0 0 0
1831265508.684864 0 0 0.0122957004348 0.000532304463682 0 0 0 0
1834987593.052109 0 0 0.0124756545537 -0.00170974439816 0 0 0 0
1838709677.419355 0 0 0.0122300812834 -0.00431609563329 0 0 0 0
1842431761.786601 0 0 0.0110791960124 -0.00643506805768 0 0 0 0
1846153846.153846 0 0 0.0101122099858 -0.00789539621044 0 0 0 0
1849875930.521092 0 0 0.00956360174526 -0.00995883290526 0 0 0 0
1853598014.888337 0 0 0.00803568817573 -0.0122423244631 0 0 0 0
1857320099.255583 0 0 0.00561263852093 -0.0142988932347 0 0 0 0
1861042183.622829 0 0 0.00280493503241 -0.0155371064936 0 0 0 0
1864764267.990074 0 0 -0.000179866815681 -0.0160973097827 0 0 0 0
1868486352.357320 0 0 -0.0035375296327 -0.0162213789815 0 0 0 0
1872208436.724566 0 0 -0.00646518915969 -0.0155948085142 0 0 0 0
1875930521.091811 0 0 -0.00842679245513 -0.0149293575048 0 0 0 0
1879652605.459057 0 0 -0.011203149262 -0.0136374724548 0 0 0 0
1883374689.826303 0 0 -0.0137589850954 -0.011890642509 0 0 0 0
1887096774.193548 0 0 -0.0163698771828 -0.00936134585169 0 0 0 0
1890818858.560794 0 0 -0.0181213017535 -0.00599489063163 0 0 0 0
1894540942.928040 0 0 -0.018731953889 -0.00223328201894 0 0 0 0
1898263027.295285 0 0 -0.0188513256523 0.000951188303703 0 0 0 0
1901985111.662531 0 0 -0.0187321768471 0.00427501532885 0 0 0 0
1905707196.029777 0 0 -0.0179457307321 0.0075300776271 0 0 0 0
1909429280.397022 0 0 -0.0166067057478 0.0109632972549 0 0 0 0
1913151364.764268 0 0 -0.014256545723 0.0136360225404 0 0 0 0
1916873449.131514 0 0 -0.0118806211546 0.0161413523939 0 0 0 0
1920595533.498759 0 0 -0.00930947037082 0.018663463296 0 0 0 0
1924317617.866005 0 0 -0.00504645728333 0.0209412480095 0 0 0 0
1928039702.233251 0 0 -0.000461275019892 0.0216028648756 0 0 0 0
1931761786.600496 0 0 0.00399786361545 0.0211793145132 0 0 0 0
1935483870.967742 0 0 0.00854727991366 0.0200180014575 0 0 0 0
1939205955.334988 0 0 0.0129418244656 0.0173801477972 0 0 0 0
1942928039.702233 0 0 0.0158035853335 0.0131179823327 0 0 0 0
1946650124.069479 0 0 0.0173442544057 0.00878858408984 0 0 0 0
1950372208.436725 0 0 0.0169598101165 0.00507004242128 0 0 0 0
1954094292.803970 0 0 0.0163741725951 0.00238232927072 0 0 0 0
1957816377.171216 0 0 0.0160721734342 0.000387151266477 0 0 0 0
1961538461.538461 0 0 0.0162007643913 -0.00175192250082 0 0 0 0
1965260545.905707 0 0 0.0162840572573 -0.00448751860168 0 0 0 0
1968982630.272953 0 0 0.015089367135 -0.00793324849153 0 0 0 0
1972704714.640198 0 0 0.0139059700377 -0.0105143822984 0 0 0 0
1976426799.007444 0 0 0.0117479350789 -0.0137139410027 0 0 0 0
1980148883.374690 0 0 0.00876474990821 -0.0161972974109 0 0 0 0
1983870967.741935 0 0 0.00473486388763 -0.0180163820104 0 0 0 0
1987593052.109181 0 0 0.000128868935711 -0.0184722740859 0 0 0 0
1991315136.476427 0 0 -0.00371693712532 -0.0174344574426 0 0 0 0
1995037220.843673 0 0 -0.00734882592551 -0.0157604062178 0 0 0 0
1998759305.210918 0 0 -0.00967445592122 -0.0137583082989 0 0 0 0
2002481389.578164 0 0 -0.0126506947967 -0.0119662131841 0 0 0 0
2006203473.945409 0 0 -0.0151986027579 -0.00911046037292 0 0 0 0
2009925558.312655 0 0 -0.0170300778655 -0.00559273097476 0 0 0 0
2013647642.679901 0 0 -0.0179261289602 -0.00123267516346 0 0 0 0
2017369727.047146 0 0 -0.0166038353138 0.00322760632331 0 0 0 0
2021091811.414392 0 0 -0.0143453851542 0.00596534896633 0 0 0 0
2024813895.781638 0 0 -0.0124934130927 0.00744516452631 0 0 0 0
2028535980.148883 0 0 -0.0104842227572 0.00877889485397 0 0 0 0
2032258064.516129 0 0 -0.00910615595558 0.00879303258794 0 0 0 0
2035980148.883375 0 0 -0.00882748478132 0.00981456591117 0 0 0 0
2039702233.250620 0 0 -0.00778846598074 0.0117799536964 0 0 0 0
2043424317.617866 0 0 -0.00562123731287 0.0135717509851 0 0 0 0
2047146401.985112 0 0 -0.00234503234291 0.0145053422276 0 0 0 0
2050868486.352357 0 0 0.000540961828037 0.0141145382439 0 0 0 0
2054590570.719603 0 0 0.00316446413486 0.0130524277353 0 0 0 0
2058312655.086849 0 0 0.00484384576936 0.0116182860346 0 0 0 0
2062034739.454094 0 0 0.00617099839291 0.0101554273667 0 0 0 0
2065756823.821340 0 0 0.00742470486301 0.00875902729536 0 0 0 0
2069478908.188586 0 0 0.00765106776487 0.00691605846777 0 0 0 0
2073200992.555831 0 0 0.00721748162144 0.00569687611165 0 0 0 0
2076923076.923077 0 0 0.00699312022577 0.00595239697932 0 0 0 0
2080645161.290323 0 0 0.00839634424937 0.00596812319371 0 0 0 0
2084367245.657568 0 0 0.00994333139304 0.00470817948532 0 0 0 0
2088089330.024814 0 0 0.0104021093545 0.00232609291542 0 0 0 0
2091811414.392060 0 0 0.00954027534628 0.000658942349532 0 0 0 0
2095533498.759305 0 0 0.00917495803166 0.000166545262309 0 0 0 0
2099255583.126551 0 0 0.0102054311426 -0.00112790426176 0 0 0 0
2102977667.493796 0 0 0.00967291516088 -0.00390355575928 0 0 0 0
2106699751.861042 0 0 0.00810535927361 -0.00523964426811 0 0 0 0
2110421836.228288 0 0 0.00679601816733 -0.00639536970575 0 0 0 0
2114143920.595533 0 0 0.00510084389103 -0.00681782957564 0 0 0 0
2117866004.962779 0 0 0.00356713842101 -0.00679743170085 0 0 0 0
2121588089.330025 0 0 0.00269249095786 -0.00627482856175 0 0 0 0
2125310173.697270 0 0 0.00292090082971 -0.00593631602654 0 0 0 0
2129032258.064516 0 0 0.00311511214222 -0.00684793409641 0 0 0 0
2132754342.431762 0 0 0.00231036346951 -0.00790203379034 0 0 0 0
2136476426.799007 0 0 0.00135380577995 -0.00879027225875 0 0 0 0
2140198511.166253 0 0 -0.000272459562366 -0.00958582054287 0 0 0 0
2143920595.533499 0 0 -0.00244171633035 -0.0095429759183 0 0 0 0
2147642679.900744 0 0 -0.00389302203646 -0.00858108441263 0 0 0 0
2151364764.267990 0 0 -0.00474215082122 -0.00809823634755 0 0 0 0
2155086848.635236 0 0 -0.00598792734381 -0.00753831610275 0 0 0 0
2158808933.002481 0 0 -0.00684959473161 -0.0068667468856 0 0 0 0
2162531017.369727 0 0 -0.00768048276492 -0.00632763636969 0 0 0 0
2166253101.736973 0 0 -0.0087241232349 -0.00561945564349 0 0 0 0
2169975186.104218 0 0 -0.00988180757438 -0.00469940118769 0 0 0 0
2173697270.471464 0 0 -0.0111508724126 -0.00368325172471 0 0 0 0
2177419354.838710 0 0 -0.0124794061606 -0.00213189081599 0 0 0 0
2181141439.205956 0 0 -0.0134852836579 0.000128570763815 0 0 0 0
2184863523.573201 0 0 -0.0135899073359 0.00273094321944 0 0 0 0
2188585607.940447 0 0 -0.0132162998591 0.00491731281325 0 0 0 0
2192307692.307693 0 0 -0.0129333080676 0.00725652155681 0 0 0 0
2196029776.674938 0 0 -0.0121932015781 0.0101863749062 0 0 0 0
2199751861.042184 0 0 -0.00998385001599 0.0133019735624 0 0 0 0
2203473945.409429 0 0 -0.00656495514619 0.0149962360338 0 0 0 0
2207196029.776675 0 0 -0.00333719792552 0.0150786292839 0 0 0 0
2210918114.143920 0 0 -0.00096098639262 0.0149866629668 0 0 0 0
2214640198.511166 0 0 0.00151102210035 0.0148833995451 0 0 0 0
2218362282.878412 0 0 0.0038847018363 0.0139364395029 0 0 0 0
2222084367.245657 0 0 0.005716713908 0.0125541634815 0 0 0 0
2225806451.612903 0 0 0.00699445912715 0.011337093338 0 0 0 0
2229528535.980149 0 0 0.00813627239884 0.0104408027878 0 0 0 0
2233250620.347394 0 0 0.00959388565309 0.0094918848221 0 0 0 0
2236972704.714640 0 0 0.0112027429018 0.00812126669457 0 0 0 0
2240694789.081886 0 0 0.0125856253429 0.00642078745466 0 0 0 0
2244416873.449131 0 0 0.0138342132579 0.00459439193597 0 0 0 0
2248138957.816377 0 0 0.0149724335541 0.00203317769235 0 0 0 0
2251861042.183623 0 0 0.0153133761896 -0.00126277212889 0 0 0 0
2255583126.550869 0 0 0.0146222201094 -0.00447437641225 0 0 0 0
2259305210.918114 0 0 0.0131211848899 -0.00755023702246 0 0 0 0
2263027295.285360 0 0 0.0106671706791 -0.0099616122761 0 0 0 0
2266749379.652606 0 0 0.00799263236972 -0.0110263841256 0 0 0 0
2270471464.019851 0 0 0.00609926067022 -0.0113127908721 0 0 0 0
2274193548.387097 0 0 0.00458352812516 -0.0119142444324 0 0 0 0
2277915632.754343 0 0 0.00285846490422 -0.0126513305996 0 0 0 0
2281637717.121588 0 0 0.000929558148948 -0.012970304585 0 0 0 0
2285359801.488833 0 0 -0.000810315720798 -0.0130925721283 0 0 0 0
2289081885.856079 0 0 -0.0024973510166 -0.013257951022 0 0 0 0
2292803970.223325 0 0 -0.00468801259317 -0.0134366107396 0 0 0 0
2296526054.590570 0 0 -0.00714970713772 -0.013163605188 0 0 0 0
2300248138.957816 0 0 -0.00961548580216 -0.0124134420116 0 0 0 0
2303970223.325062 0 0 -0.0120383401496 -0.0109763568525 0 0 0 0
2307692307.692307 0 0 -0.0141412648014 -0.00914627480774 0 0 0 0
2311414392.059553 0 0 -0.0161546858835 -0.00696542150533 0 0 0 0
2315136476.426799 0 0 -0.0178495261378 -0.0038908954303 0 0 0 0
2318858560.794044 0 0 -0.0184250959157 -4.08960427749e-05 0 0 0 0
2322580645.161290 0 0 -0.0174835682496 0.00328181680011 0 0 0 0
2326302729.528536 0 0 -0.0161854282023 0.00553570503201 0 0 0 0
2330024813.895782 0 0 -0.0153727683903 0.00728564962169 0 0 0 0
2333746898.263027 0 0 -0.0143474217934 0.00932057168661 0 0 0 0
2337468982.630273 0 0 -0.0130470713317 0.0114919404631 0 0 0 0
2341191066.997519 0 0 -0.0112297407616 0.013401985898 0 0 0 0
2344913151.364764 0 0 -0.00918158934728 0.0147835712771 0 0 0 0
2348635235.732010 0 0 -0.0068441486191 0.0156606333484 0 0 0 0
2352357320.099256 0 0 -0.00481081382442 0.0159243338536 0 0 0 0
2356079404.466501 0 0 -0.00325707336418 0.0164642031301 0 0 0 0
2359801488.833747 0 0 -0.00138228061101 0.0173959839516 0 0 0 0
2363523573.200993 0 0 0.00128974936397 0.0179461639411 0 0 0 0
2367245657.568238 0 0 0.00398519046133 0.0177293636022 0 0 0 0
2370967741.935484 0 0 0.00652155910008 0.0171397011927 0 0 0 0
2374689826.302730 0 0 0.00904063514847 0.0161614639606 0 0 0 0
2378411910.669975 0 0 0.011685331795 0.0149131564068 0 0 0 0
2382133995.037221 0 0 0.0142297064862 0.0130243472365 0 0 0 0
2385856079.404467 0 0 0.0164241058593 0.0104170148373 0 0 0 0
2389578163.771712 0 0 0.0180726561286 0.00772405019826 0 0 0 0
2393300248.138958 0 0 0.0193423640177 0.0045037403598 0 0 0 0
2397022332.506204 0 0 0.0198751372648 0.000823316448564 0 0 0 0
2400744416.873449 0 0 0.019671546853 -0.00298343353109 0 0 0 0
2404466501.240695 0 0 0.0186193684829 -0.00675158831156 0 0 0 0
2408188585.607941 0 0 0.0169368806203 -0.0103513687715 0 0 0 0
2411910669.975186 0 0 0.0137991450497 -0.0136107146421 0 0 0 0
2415632754.342432 0 0 0.0100115465164 -0.0155731160432 0 0 0 0
2419354838.709677 0 0 0.00623457067676 -0.0163852095964 0 0 0 0
2423076923.076923 0 0 0.00314503826965 -0.015922240101 0 0 0 0
2426799007.444169 0 0 0.000543272094239 -0.0152431115303 0 0 0 0
2430521091.811414 0 0 -0.001694259716 -0.0143764927433 0 0 0 0
2434243176.178660 0 0 -0.00369159184778 -0.0133394362571 0 0 0 0
2437965260.545906 0 0 -0.00505413603256 -0.0118996030447 0 0 0 0
2441687344.913151 0 0 -0.00604448342084 -0.0107883218756 0 0 0 0
2445409429.280397 0 0 -0.00707781287118 -0.00970782877722 0 0 0 0
2449131513.647643 0 0 -0.00778037328982 -0.00880587875236 0 0 0 0
2452853598.014888 0 0 -0.00892052348284 -0.00802159622062 0 0 0 0
2456575682.382134 0 0 -0.00986848963537 -0.00718243837563 0 0 0 0
2460297766.749380 0 0 -0.0113510524806 -0.00657154441826 0 0 0 0
2464019851.116625 0 0 -0.012377407475 -0.00445435716362 0 0 0 0
2467741935.483871 0 0 -0.0133804125831 -0.00208872735941 0 0 0 0
2471464019.851117 0 0 -0.0132104413803 1.70265178823e-05 0 0 0 0
2475186104.218362 0 0 -0.0128250739185 0.00179357275157 0 0 0 0
2478908188.585608 0 0 -0.0123238120331 0.00356299387687 0 0 0 0
2482630272.952854 0 0 -0.0114984654154 0.00503155818429 0 0 0 0
2486352357.320099 0 0 -0.0108237481554 0.00628641465212 0 0 0 0
2490074441.687345 0 0 -0.0101851168388 0.0073270509682 0 0 0 0
2493796526.054590 0 0 -0.00962521194275 0.00870653092661 0 0 0 0
2497518610.421836 0 0 -0.00883333068464 0.0110074960849 0 0 0 0
2501240694.789082 0 0 -0.00614247924276 0.0126654844465 0 0 0 0
2504962779.156327 0 0 -0.00456028756269 0.0135666665901 0 0 0 0
2508684863.523573 0 0 -0.00212100505169 0.0148513509689 0 0 0 0
2512406947.890819 0 0 0.00115272434578 0.0147549808942 0 0 0 0
2516129032.258064 0 0 0.00408042948292 0.0144393078442 0 0 0 0
2519851116.625310 0 0 0.00667896164956 0.0131513479715 0 0 0 0
2523573200.992556 0 0 0.00894805623297 0.0111764389036 0 0 0 0
2527295285.359801 0 0 0.0113792383429 0.00882976055315 0 0 0 0
2531017369.727047 0 0 0.0128481787613 0.00539203966999 0 0 0 0
2534739454.094293 0 0 0.0124180393033 0.00196767829873 0 0 0 0
2538461538.461538 0 0 0.0117591967185 -0.000293882921911 0 0 0 0
2542183622.828784 0 0 0.0105372896577 -0.00259437780316 0 0 0 0
2545905707.196030 0 0 0.00926501535317 -0.00461266640068 0 0 0 0
2549627791.563275 0 0 0.00713272618378 -0.00563918108412 0 0 0 0
2553349875.930521 0 0 0.00526089950351 -0.00557064979335 0 0 0 0
2557071960.297767 0 0 0.00445740625903 -0.00564475832207 0 0 0 0
2560794044.665012 0 0 0.00335718439453 -0.00599174208575 0 0 0 0
2564516129.032258 0 0 0.00246175480706 -0.00561006028726 0 0 0 0
2568238213.399504 0 0 0.0020695333319 -0.00616677785315 0 0 0 0
2571960297.766749 0 0 0.000701001605729 -0.0064255147248 0 0 0 0
2575682382.133995 0 0 -0.000724335175664 -0.0063764646255 0 0 0 0
2579404466.501241 0 0 -0.00152382324623 -0.00579715654411 0 0 0 0
2583126550.868486 0 0 -0.00222936579287 -0.00492142716991 0 0 0 0
2586848635.235732 0 0 -0.00271804863703 -0.00422585299785 0 0 0 0
2590570719.602978 0 0 -0.00316222309542 -0.00352867469392 0 0 0 0
2594292803.970223 0 0 -0.00328506684783 -0.00269009433132 0 0 0 0
2598014888.337469 0 0 -0.00296076359281 -0.0018676821808 0 0 0 0
2601736972.704715 0 0 -0.00262542033061 -0.00165677262891 0 0 0 0
2605459057.071960 0 0 -0.00261715966268 -0.00170663850208 0 0 0 0
2609181141.439206 0 0 -0.00293606684009 -0.00124338254983 0 0 0 0
2612903225.806452 0 0 -0.00271966197197 -0.00079304239242 0 0 0 0
2616625310.173697 0 0 -0.00244641067526 -0.000355471908504 0 0 0 0
2620347394.540943 0 0 -0.00185628609872 2.43608780495e-05 0 0 0 0
2624069478.908189 0 0 -0.00125908955771 -0.000133644815648 0 0 0 0
2627791563.275434 0 0 -0.000744494625712 -0.000710951805275 0 0 0 0
2631513647.642680 0 0 -0.000583489997061 -0.00125594601202 0 0 0 0
2635235732.009926 0 0 -0.000536930473095 -0.00226578134134 0 0 0 0
2638957816.377171 0 0 -0.00157065265654 -0.0034826138851 0 0 0 0
2642679900.744417 0 0 -0.00332857266675 -0.0034260264728 0 0 0 0
2646401985.111662 0 0 -0.00449901808984 -0.00265151416965 0 0 0 0
2650124069.478908 0 0 -0.00555229479196 -0.0017364423682 0 0 0 0
2653846153.846154 0 0 -0.00637058732219 -0.000111242111486 0 0 0 0
2657568238.213399 0 0 -0.0060357268533 0.00175920304379 0 0 0 0
2661290322.580645 0 0 -0.00471974111172 0.00320180437417 0 0 0 0
2665012406.947891 0 0 -0.0034750426108 0.0035979498264 0 0 0 0
2668734491.315136 0 0 -0.00264888313253 0.00355744298018 0 0 0 0
2672456575.682382 0 0 -0.00203513464759 0.00371078573972 0 0 0 0
2676178660.049628 0 0 -0.00125859018163 0.00373412871686 0 0 0 0
2679900744.416873 0 0 -0.000793882138793 0.00337666540497 0 0 0 0
2683622828.784119 0 0 -0.000754150153716 0.00329333172404 0 0 0 0
2687344913.151365 0 0 -0.000546824107697 0.00376194103169 0 0 0 0
2691066997.518610 0 0 6.9189099541e-05 0.00425050999489 0 0 0 0
2694789081.885856 0 0 0.00131239926996 0.00463682207964 0 0 0 0
2698511166.253101 0 0 0.0028656425634 0.00447705798883 0 0 0 0
2702233250.620347 0 0 0.00445327655288 0.00347761911278 0 0 0 0
2705955334.987593 0 0 0.00558826016113 0.00159623532967 0 0 0 0
2709677419.354838 0 0 0.00550701535277 -0.000712963191652 0 0 0 0
2713399503.722084 0 0 0.00426060324835 -0.00239316429604 0 0 0 0
2717121588.089330 0 0 0.00269686051 -0.00279684811353 0 0 0 0
2720843672.456575 0 0 0.00182228762197 -0.00254783023232 0 0 0 0
2724565756.823821 0 0 0.00155235072975 -0.0024794332338 0 0 0 0
2728287841.191067 0 0 0.00128595228249 -0.00263320904755 0 0 0 0
2732009925.558312 0 0 0.000959576179202 -0.00292802309869 0 0 0 0
2735732009.925558 0 0 0.000367943869212 -0.00313556292753 0 0 0 0
2739454094.292804 0 0 -0.000223959895503 -0.00289015234213 0 0 0 0
2743176178.660049 0 0 -0.00044053912739 -0.00255736845143 0 0 0 0
2746898263.027295 0 0 -0.000532151873141 -0.00249590429826 0 0 0 0
2750620347.394541 0 0 -0.000633989550124 -0.00256035892128 0 0 0 0
2754342431.761786 0 0 -0.000886774004103 -0.00278805637527 0 0 0 0
2758064516.129032 0 0 -0.00143723268943 -0.00295080409776 0 0 0 0
2761786600.496278 0 0 -0.00207945704691 -0.002825255307 0 0 0 0
2765508684.863523 0 0 -0.00259974940447 -0.00253440899893 0 0 0 0
2769230769.230769 0 0 -0.00308321588314 -0.00218734140388 0 0 0 0
2772952853.598015 0 0 -0.0037045535378 -0.00172067444149 0 0 0 0
2776674937.965261 0 0 -0.00423555863548 -0.000909864545836 0 0 0 0
2780397022.332506 0 0 -0.00439275473717 -3.78433029523e-06 0 0 0 0
2784119106.699752 0 0 -0.00453880673076 0.000826666001431 0 0 0 0
2787841191.066998 0 0 -0.00465073973184 0.00203059319364 0 0 0 0
2791563275.434243 0 0 -0.00409691307441 0.00362689573953 0 0 0 0
2795285359.801489 0 0 -0.00278376790289 0.00489097984309 0 0 0 0
2799007444.168735 0 0 -0.00107668235673 0.00552639535438 0 0 0 0
2802729528.535980 0 0 0.000664490860532 0.00556364375328 0 0 0 0
2806451612.903226 0 0 0.00230812813125 0.00502781693133 0 0 0 0
2810173697.270472 0 0 0.00360450087804 0.00401893725066 0 0 0 0
2813895781.637717 0 0 0.00451492069164 0.00265491049894 0 0 0 0
2817617866.004963 0 0 0.0048213375854 0.00130157440368 0 0 0 0
2821339950.372209 0 0 0.00481127413734 0.000187338596384 0 0 0 0
2825062034.739454 0 0 0.00468814001412 -0.00111392352998 0 0 0 0
2828784119.106700 0 0 0.00398548643626 -0.00210032345861 0 0 0 0
2832506203.473946 0 0 0.0032974461092 -0.00240084011958 0 0 0 0
2836228287.841191 0 0 0.00294451383801 -0.00280242322769 0 0 0 0
2839950372.208437 0 0 0.00240576356369 -0.00336536676511 0 0 0 0
2843672456.575683 0 0 0.00177366691014 -0.00370599869623 0 0 0 0
2847394540.942928 0 0 0.00104519543203 -0.00390737314652 0 0 0 0
2851116625.310174 0 0 0.000396841502232 -0.00371894756266 0 0 0 0
2854838709.677419 0 0 9.04062762857e-05 -0.00360921138437 0 0 0 0
2858560794.044665 0 0 -0.000104135423868 -0.00368450101114 0 0 0 0
2862282878.411911 0 0 -0.000332587610428 -0.00401763277894 0 0 0 0
2866004962.779156 0 0 -0.000871161280879 -0.00426991968943 0 0 0 0
2869727047.146402 0 0 -0.00165708702692 -0.00418229496093 0 0 0 0
2873449131.513648 0 0 -0.00233977434755 -0.00379849006742 0 0 0 0
2877171215.880893 0 0 -0.00294504098354 -0.00336387151324 0 0 0 0
2880893300.248139 0 0 -0.00327971652828 -0.00280153175093 0 0 0 0
2884615384.615385 0 0 -0.00354244870444 -0.00215152966288 0 0 0 0
2888337468.982630 0 0 -0.00363177400178 -0.00164030101135 0 0 0 0
2892059553.349876 0 0 -0.00366266960751 -0.00127104948513 0 0 0 0
2895781637.717122 0 0 -0.00400158610716 -0.000653519195784 0 0 0 0
2899503722.084367 0 0 -0.00408219687742 2.32551062004e-05 0 0 0 0
2903225806.451612 0 0 -0.00416749029831 0.000460121880776 0 0 0 0
2906947890.818858 0 0 -0.00438730855918 0.00128294206305 0 0 0 0
2910669975.186104 0 0 -0.00428923868672 0.00248793792827 0 0 0 0
2914392059.553349 0 0 -0.00392966384239 0.00350190698946 0 0 0 0
2918114143.920595 0 0 -0.00339585947716 0.00464063830446 0 0 0 0
2921836228.287841 0 0 -0.00223866539004 0.00573091757868 0 0 0 0
2925558312.655087 0 0 -0.000722261169591 0.00667616324861 0 0 0 0
2929280397.022332 0 0 0.00119112248743 0.00705946449921 0 0 0 0
2933002481.389578 0 0 0.00332876238386 0.00631654446342 0 0 0 0
2936724565.756824 0 0 0.00464360830216 0.00500770906299 0 0 0 0
2940446650.124069 0 0 0.00552150295436 0.00390437531005 0 0 0 0
2944168734.491315 0 0 0.00603643667132 0.00260044571792 0 0 0 0
2947890818.858561 0 0 0.00619422434617 0.00112388762618 0 0 0 0
2951612903.225806 0 0 0.00581218144025 0.000260662928384 0 0 0 0
2955334987.593052 0 0 0.0056483104218 -0.000197827643457 0 0 0 0
2959057071.960298 0 0 0.00579275789681 -0.000944293067907 0 0 0 0
2962779156.327543 0 0 0.00560771926122 -0.00167279537055 0 0 0 0
2966501240.694789 0 0 0.00545581823525 -0.00210983160886 0 0 0 0
2970223325.062035 0 0 0.00533864272002 -0.00285552861285 0 0 0 0
2973945409.429280 0 0 0.00527704864158 -0.00345057238131 0 0 0 0
2977667493.796526 0 0 0.00483871232472 -0.00418502642835 0 0 0 0
2981389578.163772 0 0 0.00444050274506 -0.00467684056696 0 0 0 0
2985111662.531017 0 0 0.00404832327416 -0.00554155985647 0 0 0 0
2988833746.898263 0 0 0.00319988391847 -0.00643682580694 0 0 0 0
2992555831.265509 0 0 0.0021821427944 -0.00697720904563 0 0 0 0
2996277915.632754 0 0 0.000984172997696 -0.00750798109312 0 0 0 0
3000000000.000000 0 0 -0.0002053482458 -0.00767598922054 0 0 0 0
