# HZ S RI R 50
1500000000 -0.1370467245578766 -0.06973300874233246 0.043366607278585434 -0.038650888949632645 0 0 0 0
1503722084 -0.12801805138587952 -0.03537478297948837 0.03481286019086838 -0.04729042947292328 0 0 0 0
1507444168 -0.110902339220047 -0.003168562427163124 0.023843688890337944 -0.05275741219520569 0 0 0 0
1511166252 -0.08660344779491425 0.027767173945903778 0.011757506057620049 -0.055328305810689926 0 0 0 0
1514888336 -0.05573909357190132 0.0543069951236248 -0.0004526488482952118 -0.05426253378391266 0 0 0 0
1518610420 -0.01835028827190399 0.07561637461185455 -0.011076971888542175 -0.05014398694038391 0 0 0 0
1522332504 0.0243231188505888 0.08948169648647308 -0.019372960552573204 -0.04355171322822571 0 0 0 0
1526054588 0.0690818578004837 0.09580709785223007 -0.024681398645043373 -0.036358051002025604 0 0 0 0
1529776672 0.11585765331983566 0.09372584521770477 -0.028046192601323128 -0.02946656011044979 0 0 0 0
1533498756 0.16316121816635132 0.08422728627920151 -0.029997216537594795 -0.022886428982019424 0 0 0 0
1537220840 0.2100217044353485 0.0656295195221901 -0.0306731965392828 -0.016846178099513054 0 0 0 0
1540942924 0.2543005049228668 0.03793865442276001 -0.030376818031072617 -0.011582354083657265 0 0 0 0
1544665008 0.29446545243263245 0.0025456994771957397 -0.02980414777994156 -0.00730638112872839 0 0 0 0
1548387092 0.3285129964351654 -0.039647623896598816 -0.028942957520484924 -0.0030228421092033386 0 0 0 0
1552109176 0.3566412329673767 -0.08795557916164398 -0.027590978890657425 0.0008407421410083771 0 0 0 0
1555831260 0.37586328387260437 -0.1438543200492859 -0.025856096297502518 0.0042945146560668945 0 0 0 0
1559553344 0.3866744637489319 -0.20108482241630554 -0.023799419403076172 0.007254231721162796 0 0 0 0
1563275428 0.38416990637779236 -0.26275551319122314 -0.021460270509123802 0.009947086684405804 0 0 0 0
1566997512 0.3759099245071411 -0.32118770480155945 -0.018889756873250008 0.011951988562941551 0 0 0 0
1570719596 0.35543885827064514 -0.3798173666000366 -0.01616448163986206 0.013439101167023182 0 0 0 0
1574441680 0.32408204674720764 -0.43521371483802795 -0.013676756992936134 0.01428206730633974 0 0 0 0
1578163764 0.2841148376464844 -0.4850797653198242 -0.011430705897510052 0.014844482764601707 0 0 0 0
1581885848 0.23705074191093445 -0.5267817378044128 -0.009440681897103786 0.0153138916939497 0 0 0 0
1585607932 0.18644505739212036 -0.5600012540817261 -0.007447056472301483 0.015549851581454277 0 0 0 0
1589330016 0.13031792640686035 -0.5870919823646545 -0.005596080794930458 0.015506736934185028 0 0 0 0
1593052100 0.06440791487693787 -0.605695903301239 -0.004220157861709595 0.015351795591413975 0 0 0 0
1596774184 0.0007385611534118652 -0.6153959035873413 -0.0031142309308052063 0.015621226280927658 0 0 0 0
1600496268 -0.06179455667734146 -0.6154768466949463 -0.0015473291277885437 0.01633925549685955 0 0 0 0
1604218352 -0.12504024803638458 -0.6057987213134766 0.00042590033262968063 0.01661701127886772 0 0 0 0
1607940436 -0.19214382767677307 -0.5855808854103088 0.002590578980743885 0.016629597172141075 0 0 0 0
1611662520 -0.25580960512161255 -0.5560013055801392 0.004751947708427906 0.016314219683408737 0 0 0 0
1615384604 -0.3124518394470215 -0.5167317986488342 0.006783117540180683 0.01572517119348049 0 0 0 0
1619106688 -0.3637778162956238 -0.468098521232605 0.008955886587500572 0.015174358151853085 0 0 0 0
1622828772 -0.4093596041202545 -0.4111899733543396 0.011299839243292809 0.014424381777644157 0 0 0 0
1626550856 -0.44378697872161865 -0.3502623736858368 0.013879571110010147 0.013120882213115692 0 0 0 0
1630272940 -0.47001785039901733 -0.27985063195228577 0.01662411168217659 0.011086584068834782 0 0 0 0
1633995024 -0.48695075511932373 -0.20468224585056305 0.019077522680163383 0.008241360075771809 0 0 0 0
1637717108 -0.4919055104255676 -0.13144786655902863 0.020797740668058395 0.004464278928935528 0 0 0 0
1641439192 -0.48546791076660156 -0.054443538188934326 0.021372944116592407 0.000780859962105751 0 0 0 0
1645161276 -0.4670636057853699 0.02210022509098053 0.02160109393298626 -0.002979881130158901 0 0 0 0
1648883360 -0.4373311996459961 0.09773582220077515 0.02117099054157734 -0.007244412787258625 0 0 0 0
1652605444 -0.3948752284049988 0.16574114561080933 0.01997431181371212 -0.01143075991421938 0 0 0 0
1656327528 -0.3431713581085205 0.22526586055755615 0.01735449582338333 -0.015723517164587975 0 0 0 0
1660049612 -0.2786015570163727 0.27998974919319153 0.013443169184029102 -0.019149204716086388 0 0 0 0
1663771696 -0.20915500819683075 0.3213346302509308 0.008775895461440086 -0.021221108734607697 0 0 0 0
1667493780 -0.1331600844860077 0.35329264402389526 0.004083341918885708 -0.022154884412884712 0 0 0 0
1671215864 -0.05109985172748566 0.3723865747451782 -0.0008197491988539696 -0.021884119138121605 0 0 0 0
1674937948 0.031623005867004395 0.3795493245124817 -0.0049425158649683 -0.0206683911383152 0 0 0 0
1678660032 0.11627200990915298 0.3727719485759735 -0.009081738069653511 -0.018352573737502098 0 0 0 0
1682382116 0.1975812315940857 0.35321298241615295 -0.012083618901669979 -0.015318519435822964 0 0 0 0
1686104200 0.2754926085472107 0.320624440908432 -0.014111397787928581 -0.011709482409060001 0 0 0 0
1689826284 0.34627148509025574 0.2760186791419983 -0.015030166134238243 -0.00811829324811697 0 0 0 0
1693548368 0.4091019034385681 0.22228169441223145 -0.015222035348415375 -0.004893294535577297 0 0 0 0
1697270452 0.4625151455402374 0.15867319703102112 -0.014843800105154514 -0.001751781441271305 0 0 0 0
1700992536 0.5056317448616028 0.08702196925878525 -0.013849454000592232 0.0007688282057642937 0 0 0 0
1704714620 0.5367880463600159 0.007637515664100647 -0.012579952366650105 0.003083181567490101 0 0 0 0
1708436704 0.5565193295478821 -0.06638680398464203 -0.011106164194643497 0.004931549541652203 0 0 0 0
1712158788 0.5639388561248779 -0.14512276649475098 -0.009201282635331154 0.006518947891891003 0 0 0 0
1715880872 0.5565071702003479 -0.22729900479316711 -0.007023327983915806 0.007531739771366119 0 0 0 0
1719602956 0.5399357080459595 -0.30476611852645874 -0.004962105304002762 0.007615488953888416 0 0 0 0
1723325040 0.508713960647583 -0.3781134784221649 -0.002872857265174389 0.007435036823153496 0 0 0 0
1727047124 0.46981102228164673 -0.4436172544956207 -0.001347120851278305 0.006630946882069111 0 0 0 0
1730769208 0.41862961649894714 -0.5028576254844666 -0.00042508170008659363 0.005685065872967243 0 0 0 0
1734491292 0.35858023166656494 -0.554290235042572 0.00023542344570159912 0.004823395051062107 0 0 0 0
1738213376 0.29500001668930054 -0.593862771987915 0.0007089730352163315 0.003948803059756756 0 0 0 0
1741935460 0.23023107647895813 -0.6195914149284363 0.0009300652891397476 0.002841465175151825 0 0 0 0
1745657544 0.1578475832939148 -0.638008713722229 0.0004122033715248108 0.001811130903661251 0 0 0 0
1749379628 0.08519873023033142 -0.6444553732872009 -0.0007041469216346741 0.001567196100950241 0 0 0 0
1753101712 0.01197381317615509 -0.6386397480964661 -0.0016239341348409653 0.001958903856575489 0 0 0 0
1756823796 -0.05306670069694519 -0.6233514547348022 -0.0018678903579711914 0.0028535695746541023 0 0 0 0
1760545880 -0.11525467038154602 -0.5964795351028442 -0.0015238337218761444 0.003892146982252598 0 0 0 0
1764267964 -0.17180272936820984 -0.5639659762382507 -0.000834302045404911 0.004510127007961273 0 0 0 0
1767990048 -0.2228877693414688 -0.5224891304969788 0.00015500374138355255 0.004675965756177902 0 0 0 0
1771712132 -0.26350507140159607 -0.4765697121620178 0.0010347859933972359 0.004358047619462013 0 0 0 0
1775434216 -0.29784059524536133 -0.4258819818496704 0.0013290010392665863 0.0036102207377552986 0 0 0 0
1779156300 -0.32302844524383545 -0.37295499444007874 0.0011525610461831093 0.0032484838739037514 0 0 0 0
1782878384 -0.3424931466579437 -0.31614118814468384 0.0010931435972452164 0.0032770540565252304 0 0 0 0
1786600468 -0.3551273047924042 -0.25767600536346436 0.0009130649268627167 0.0032414058223366737 0 0 0 0
1790322552 -0.35612404346466064 -0.2041071355342865 0.0005657412111759186 0.0034499699249863625 0 0 0 0
1794044636 -0.35377320647239685 -0.1450813114643097 0.00029571447521448135 0.0042419591918587685 0 0 0 0
1797766720 -0.34095704555511475 -0.08853046596050262 0.000370061956346035 0.005392878316342831 0 0 0 0
1801488804 -0.3219342827796936 -0.036229535937309265 0.0009673153981566429 0.007202002219855785 0 0 0 0
1805210888 -0.2940007448196411 0.015178386121988297 0.0027886321768164635 0.008866610005497932 0 0 0 0
1808932972 -0.2578526437282562 0.06364157050848007 0.006009930744767189 0.00977427326142788 0 0 0 0
1812655056 -0.215804323554039 0.10119703412055969 0.009272867813706398 0.009695244021713734 0 0 0 0
1816377140 -0.16563379764556885 0.13528211414813995 0.012811286374926567 0.008318275213241577 0 0 0 0
1820099224 -0.11326204240322113 0.1567521095275879 0.016697749495506287 0.005532930605113506 0 0 0 0
1823821308 -0.05743992701172829 0.17018574476242065 0.019411135464906693 0.00048444420099258423 0 0 0 0
1827543392 -0.0018805526196956635 0.17428593337535858 0.019496934488415718 -0.005112300626933575 0 0 0 0
1831265476 0.050946034491062164 0.16964904963970184 0.01763412170112133 -0.01018555648624897 0 0 0 0
1834987560 0.10187938809394836 0.15547648072242737 0.01468201819807291 -0.013994995504617691 0 0 0 0
1838709644 0.14851261675357819 0.13530975580215454 0.011150285601615906 -0.016918327659368515 0 0 0 0
1842431728 0.19083347916603088 0.11020635813474655 0.006662302650511265 -0.018571820110082626 0 0 0 0
1846153812 0.2280733436346054 0.07945223897695541 0.002852777950465679 -0.018421538174152374 0 0 0 0
1849875896 0.2595873773097992 0.04079705476760864 -0.00021286401897668839 -0.017840413376688957 0 0 0 0
1853597980 0.2839198708534241 0.0008514411747455597 -0.002783486619591713 -0.017450688406825066 0 0 0 0
1857320064 0.301099956035614 -0.04241563007235527 -0.005439577624201775 -0.01682332530617714 0 0 0 0
1861042148 0.30942586064338684 -0.08681908994913101 -0.007901627570390701 -0.016129687428474426 0 0 0 0
1864764232 0.3118130564689636 -0.1286155879497528 -0.010686956346035004 -0.014740836806595325 0 0 0 0
1868486316 0.306707501411438 -0.17129799723625183 -0.012957410886883736 -0.01260876003652811 0 0 0 0
1872208400 0.29766348004341125 -0.21101707220077515 -0.014524150639772415 -0.010585588403046131 0 0 0 0
1875930484 0.2791384160518646 -0.2502402067184448 -0.016158655285835266 -0.00855136290192604 0 0 0 0
1879652568 0.25411897897720337 -0.28582292795181274 -0.01721014454960823 -0.006346698850393295 0 0 0 0
1883374652 0.22442719340324402 -0.31433942914009094 -0.018310297280550003 -0.004442315548658371 0 0 0 0
1887096736 0.18938890099525452 -0.33652305603027344 -0.020142946392297745 -0.0022317059338092804 0 0 0 0
1890818820 0.15276673436164856 -0.35018476843833923 -0.022199077531695366 0.0011832816526293755 0 0 0 0
1894540904 0.11676845699548721 -0.35650917887687683 -0.0238071009516716 0.005736259743571281 0 0 0 0
1898262988 0.08219858258962631 -0.355928510427475 -0.02305404283106327 0.011880837380886078 0 0 0 0
1901985072 0.05029010772705078 -0.3508979082107544 -0.02002912014722824 0.017552444711327553 0 0 0 0
1905707156 0.018056586384773254 -0.34007489681243896 -0.015517028979957104 0.021277420222759247 0 0 0 0
1909429240 -0.00880151242017746 -0.32672423124313354 -0.010945487767457962 0.02395162358880043 0 0 0 0
1913151324 -0.036017388105392456 -0.3081471920013428 -0.005824835039675236 0.02580052614212036 0 0 0 0
1916873408 -0.0588216632604599 -0.28498366475105286 -0.00018210988491773605 0.02648988366127014 0 0 0 0
1920595492 -0.07552865147590637 -0.25937530398368835 0.005283930338919163 0.025582311674952507 0 0 0 0
1924317576 -0.08645758032798767 -0.23037339746952057 0.010081267915666103 0.023738818243145943 0 0 0 0
1928039660 -0.09336278587579727 -0.2007448971271515 0.01427366305142641 0.021097246557474136 0 0 0 0
1931761744 -0.09451513737440109 -0.1717480570077896 0.018213100731372833 0.01755867898464203 0 0 0 0
1935483828 -0.09107287973165512 -0.1425173580646515 0.021167829632759094 0.012851165607571602 0 0 0 0
1939205912 -0.08297388255596161 -0.11380956321954727 0.022408166900277138 0.0078473761677742 0 0 0 0
1942927996 -0.069861501455307 -0.08766008913516998 0.022305574268102646 0.002973545342683792 0 0 0 0
1946650080 -0.052273694425821304 -0.06407696008682251 0.02114277333021164 -0.0009850459173321724 0 0 0 0
1950372164 -0.030464664101600647 -0.04439590871334076 0.019580597057938576 -0.003897514194250107 0 0 0 0
1954094248 -0.005059009417891502 -0.029206328094005585 0.018646856769919395 -0.006387031637132168 0 0 0 0
1957816332 0.02282761223614216 -0.018998418003320694 0.01737048476934433 -0.009117038920521736 0 0 0 0
1961538416 0.05106155574321747 -0.013992651365697384 0.015384107828140259 -0.012152082286775112 0 0 0 0
1965260500 0.0802716612815857 -0.01274571381509304 0.012899081222712994 -0.014574148692190647 0 0 0 0
1968982584 0.10908053070306778 -0.01938895508646965 0.010349271818995476 -0.015914956107735634 0 0 0 0
1972704668 0.13630792498588562 -0.03164044767618179 0.00733228400349617 -0.017495455220341682 0 0 0 0
1976426752 0.16009414196014404 -0.04644778370857239 0.004515255801379681 -0.018263889476656914 0 0 0 0
1980148836 0.17930984497070312 -0.0681011974811554 0.0016215881332755089 -0.01875568926334381 0 0 0 0
1983870920 0.1956578940153122 -0.08977286517620087 -0.0010369978845119476 -0.019452489912509918 0 0 0 0
1987593004 0.2058992087841034 -0.11582489311695099 -0.0048051867634058 -0.019553331658244133 0 0 0 0
1991315088 0.21364180743694305 -0.14162465929985046 -0.008875410072505474 -0.018976544961333275 0 0 0 0
1995037172 0.21375638246536255 -0.1695646345615387 -0.012651622295379639 -0.01683255285024643 0 0 0 0
1998759256 0.21049341559410095 -0.19548869132995605 -0.015856944024562836 -0.01406982634216547 0 0 0 0
2002481340 0.20229901373386383 -0.22143049538135529 -0.01803438924252987 -0.011044733226299286 0 0 0 0
2006203424 0.19096039235591888 -0.24427182972431183 -0.01966721937060356 -0.007460657507181168 0 0 0 0
2009925508 0.17381103336811066 -0.2657455503940582 -0.020566459745168686 -0.003997005522251129 0 0 0 0
2013647592 0.15488499402999878 -0.2823139429092407 -0.021376140415668488 -0.0005491413176059723 0 0 0 0
2017369676 0.13132213056087494 -0.2977769076824188 -0.02147754095494747 0.0030370717868208885 0 0 0 0
2021091760 0.10452909767627716 -0.3093920052051544 -0.021167144179344177 0.007241826504468918 0 0 0 0
2024813844 0.07932973653078079 -0.3135107159614563 -0.019384445622563362 0.011695967055857182 0 0 0 0
2028535928 0.05099373310804367 -0.31489622592926025 -0.01639688014984131 0.015902584418654442 0 0 0 0
2032258012 0.02149897813796997 -0.31008636951446533 -0.012100022286176682 0.01848657615482807 0 0 0 0
2035980096 -0.000437319278717041 -0.30110031366348267 -0.00813483726233244 0.019245551899075508 0 0 0 0
2039702180 -0.025310739874839783 -0.2881345748901367 -0.004779680632054806 0.01961369253695011 0 0 0 0
2043424264 -0.04707054793834686 -0.2712148129940033 -0.0014995019882917404 0.019330602139234543 0 0 0 0
2047146348 -0.06542421877384186 -0.2515345811843872 0.001754237338900566 0.018874438479542732 0 0 0 0
2050868432 -0.08139297366142273 -0.2297705113887787 0.004520442336797714 0.017948007211089134 0 0 0 0
2054590516 -0.09436427056789398 -0.20604798197746277 0.0070274872705340385 0.01704663224518299 0 0 0 0
2058312600 -0.10247479379177094 -0.17909198999404907 0.009614062495529652 0.014968433417379856 0 0 0 0
2062034684 -0.10802090167999268 -0.15100020170211792 0.011813768185675144 0.013206809759140015 0 0 0 0
2065756768 -0.11017690598964691 -0.12076541036367416 0.013440607115626335 0.010740567930042744 0 0 0 0
2069478852 -0.10644001513719559 -0.09028268605470657 0.014469526708126068 0.007890697568655014 0 0 0 0
2073200936 -0.09990648925304413 -0.058179520070552826 0.014863641001284122 0.005177523009479046 0 0 0 0
2076923020 -0.08498382568359375 -0.027779679745435715 0.014352814294397831 0.0027474239468574524 0 0 0 0
2080645104 -0.06510122120380402 0.0004592873156070709 0.013647369109094143 0.0010106461122632027 0 0 0 0
2084367188 -0.03982323780655861 0.02499525435268879 0.013214292004704475 -0.0003191046416759491 0 0 0 0
2088089272 -0.010985529981553555 0.045303937047719955 0.012973916716873646 -0.0010800417512655258 0 0 0 0
2091811356 0.021190878003835678 0.06023019179701805 0.01318534929305315 -0.002266010269522667 0 0 0 0
2095533440 0.05566947162151337 0.06918279081583023 0.013786785304546356 -0.004028788767755032 0 0 0 0
2099255524 0.09135076403617859 0.07245779037475586 0.01409229077398777 -0.006782351993024349 0 0 0 0
2102977608 0.12649111449718475 0.07111924886703491 0.013049127534031868 -0.009549565613269806 0 0 0 0
2106699692 0.16207319498062134 0.0621730200946331 0.011195681057870388 -0.012236608192324638 0 0 0 0
2110421776 0.19542352855205536 0.05060672014951706 0.008947796188294888 -0.014315833337605 0 0 0 0
2114143860 0.226761132478714 0.03038787841796875 0.006081028841435909 -0.015879115089774132 0 0 0 0
2117865944 0.2534899413585663 0.0042898934334516525 0.0030705928802490234 -0.01676233299076557 0 0 0 0
2121588028 0.2753998935222626 -0.02449125051498413 -0.00035298150032758713 -0.01750674843788147 0 0 0 0
2125310112 0.2917616367340088 -0.053085602819919586 -0.0039682406932115555 -0.017277205362915993 0 0 0 0
2129032196 0.30378711223602295 -0.08802174776792526 -0.007698589935898781 -0.01561458595097065 0 0 0 0
2132754280 0.3110208213329315 -0.12061285972595215 -0.010621240362524986 -0.012709672562777996 0 0 0 0
2136476364 0.31194067001342773 -0.15555492043495178 -0.011982718482613564 -0.009802413173019886 0 0 0 0
2140198448 0.30800431966781616 -0.18963006138801575 -0.012450448237359524 -0.0071428194642066956 0 0 0 0
2143920532 0.2980748116970062 -0.2224884033203125 -0.012455498799681664 -0.005210681818425655 0 0 0 0
2147642616 0.2830965518951416 -0.2539096474647522 -0.012481730431318283 -0.003698240965604782 0 0 0 0
2151364700 0.2611096203327179 -0.2824905812740326 -0.012733912095427513 -0.001841047778725624 0 0 0 0
2155086784 0.2384054809808731 -0.3042125403881073 -0.012755189090967178 -0.00025101471692323685 0 0 0 0
2158808868 0.21131840348243713 -0.3234744071960449 -0.012571739964187145 0.0013450244441628456 0 0 0 0
2162530952 0.1794928014278412 -0.33979305624961853 -0.01248537190258503 0.0027442779392004013 0 0 0 0
2166253036 0.15052098035812378 -0.3463607430458069 -0.012788783758878708 0.004411617293953896 0 0 0 0
2169975120 0.11653447151184082 -0.35075950622558594 -0.012453477829694748 0.0070561859756708145 0 0 0 0
2173697204 0.08451519906520844 -0.34914910793304443 -0.01095857098698616 0.009656445123255253 0 0 0 0
2177419288 0.05504404008388519 -0.3439220190048218 -0.008844370022416115 0.011492653749883175 0 0 0 0
2181141372 0.0244291964918375 -0.3346969783306122 -0.006410730071365833 0.01253022812306881 0 0 0 0
2184863456 -0.0021794214844703674 -0.32070019841194153 -0.004149296320974827 0.012885370291769505 0 0 0 0
2188585540 -0.02900688350200653 -0.3026636242866516 -0.002369984984397888 0.013185536488890648 0 0 0 0
2192307624 -0.054456375539302826 -0.277707040309906 -0.0001804344356060028 0.013304650783538818 0 0 0 0
2196029708 -0.07022807747125626 -0.25023746490478516 0.0017821379005908966 0.013233578763902187 0 0 0 0
2199751792 -0.08566844463348389 -0.2189784198999405 0.004074973985552788 0.01271788775920868 0 0 0 0
2203473876 -0.09124891459941864 -0.18561676144599915 0.005907617509365082 0.011817559599876404 0 0 0 0
2207195960 -0.09455935657024384 -0.1514536440372467 0.007674607448279858 0.010501849465072155 0 0 0 0
2210918044 -0.08595788478851318 -0.12220904976129532 0.008864584378898144 0.009353275410830975 0 0 0 0
2214640128 -0.07886306941509247 -0.09057420492172241 0.010312436148524284 0.008092994801700115 0 0 0 0
2218362212 -0.06499330699443817 -0.06351667642593384 0.01191593799740076 0.006590866483747959 0 0 0 0
2222084296 -0.046770259737968445 -0.038145437836647034 0.013317039236426353 0.004069092683494091 0 0 0 0
2225806380 -0.025717303156852722 -0.015379233285784721 0.014177074655890465 0.001093999482691288 0 0 0 0
2229528464 0.0004005422815680504 0.003266402520239353 0.014083392918109894 -0.002162815071642399 0 0 0 0
2233250548 0.028768830001354218 0.016917293891310692 0.012926682829856873 -0.005092475563287735 0 0 0 0
2236972632 0.05929262563586235 0.02430630475282669 0.011032028123736382 -0.007576078176498413 0 0 0 0
2240694716 0.09156224131584167 0.027034223079681396 0.009011058136820793 -0.009269384667277336 0 0 0 0
2244416800 0.12306948006153107 0.02468509040772915 0.0066849347203969955 -0.010384241119027138 0 0 0 0
2248138884 0.15294523537158966 0.013523641973733902 0.004427696578204632 -0.011019924655556679 0 0 0 0
2251860968 0.1794654130935669 -0.002079024910926819 0.002216329798102379 -0.011203833855688572 0 0 0 0
2255583052 0.201717346906662 -0.02167457342147827 0.00023739971220493317 -0.010975686833262444 0 0 0 0
2259305136 0.21980105340480804 -0.04401809722185135 -0.0013962294906377792 -0.0105341961607337 0 0 0 0
2263027220 0.23030024766921997 -0.07287763059139252 -0.002902987413108349 -0.009718354791402817 0 0 0 0
2266749304 0.23893001675605774 -0.0933927670121193 -0.004157719202339649 -0.00854799896478653 0 0 0 0
2270471388 0.24034743010997772 -0.123051717877388 -0.004607955925166607 -0.007938055321574211 0 0 0 0
2274193472 0.24353539943695068 -0.13879340887069702 -0.005194048397243023 -0.007781698368489742 0 0 0 0
2277915556 0.23826926946640015 -0.1680007129907608 -0.006339801475405693 -0.007678008638322353 0 0 0 0
2281637640 0.22939206659793854 -0.19324645400047302 -0.008022217079997063 -0.007235436700284481 0 0 0 0
2285359724 0.21781371533870697 -0.21425017714500427 -0.009806436486542225 -0.005814303644001484 0 0 0 0
2289081808 0.2015705704689026 -0.23273000121116638 -0.010907741263508797 -0.004028831608593464 0 0 0 0
2292803892 0.1777104139328003 -0.2508890926837921 -0.011427287012338638 -0.0018896497786045074 0 0 0 0
2296525976 0.15474633872509003 -0.2601509392261505 -0.011517103761434555 -6.9434754550457e-05 0 0 0 0
2300248060 0.13607054948806763 -0.2656990885734558 -0.011517361737787724 0.0015192171558737755 0 0 0 0
2303970144 0.10699905455112457 -0.2729395925998688 -0.011286704801023006 0.003334800712764263 0 0 0 0
2307692228 0.08633961528539658 -0.2693275511264801 -0.010627210140228271 0.005283663049340248 0 0 0 0
2311414312 0.06810472905635834 -0.2639762759208679 -0.009265407919883728 0.0071999188512563705 0 0 0 0
2315136396 0.039517324417829514 -0.256534218788147 -0.007158605381846428 0.008053744211792946 0 0 0 0
2318858480 0.025914084166288376 -0.24477721750736237 -0.005348845385015011 0.008354896679520607 0 0 0 0
2322580564 0.0037643909454345703 -0.22876083850860596 -0.004292108118534088 0.007935483008623123 0 0 0 0
2326302648 -0.015642598271369934 -0.20940548181533813 -0.0031929826363921165 0.007771153934299946 0 0 0 0
2330024732 -0.0255068838596344 -0.18771444261074066 -0.002916105091571808 0.007659894414246082 0 0 0 0
2333746816 -0.03625310957431793 -0.16223309934139252 -0.002143365330994129 0.007810586132109165 0 0 0 0
2337468900 -0.039330579340457916 -0.13709983229637146 -0.0014547202736139297 0.007980266585946083 0 0 0 0
2341190984 -0.03802874684333801 -0.10973062366247177 -0.0008438685908913612 0.007836042903363705 0 0 0 0
2344913068 -0.03444032371044159 -0.08117526769638062 -0.00021243561059236526 0.007889891043305397 0 0 0 0
2348635152 -0.02343711256980896 -0.05513512343168259 0.0004974482581019402 0.008043363690376282 0 0 0 0
2352357236 -0.0076353345066308975 -0.03236648440361023 0.0015843501314520836 0.00836964137852192 0 0 0 0
2356079320 0.010910941287875175 -0.01175568625330925 0.0028769755735993385 0.008099276572465897 0 0 0 0
2359801404 0.03372357785701752 0.005359494127333164 0.0045617250725626945 0.007331869564950466 0 0 0 0
2363523488 0.05914236605167389 0.01878482848405838 0.005764116533100605 0.006071705371141434 0 0 0 0
2367245572 0.08634155988693237 0.02803531475365162 0.006189768202602863 0.00437706895172596 0 0 0 0
2370967656 0.1153613030910492 0.030454780906438828 0.005914720706641674 0.00309060700237751 0 0 0 0
2374689740 0.14492815732955933 0.0297212153673172 0.005744754336774349 0.002106836996972561 0 0 0 0
2378411824 0.17315104603767395 0.021709494292736053 0.005413706414401531 0.0013993261381983757 0 0 0 0
2382133908 0.20118401944637299 0.009658820927143097 0.00514242984354496 0.0006248084828257561 0 0 0 0
2385855992 0.22497661411762238 -0.004561848938465118 0.0045696282759308815 -3.1939707696437836e-05 0 0 0 0
2389578076 0.24731653928756714 -0.025375112891197205 0.0037292316555976868 -0.0005358941853046417 0 0 0 0
2393300160 0.2634546160697937 -0.04966060072183609 0.002895328216254711 -0.00022207293659448624 0 0 0 0
2397022244 0.2778874635696411 -0.07207000255584717 0.0026396475732326508 0.00047206413000822067 0 0 0 0
2400744328 0.2839454412460327 -0.10354389995336533 0.0032479576766490936 0.0007081562653183937 0 0 0 0
2404466412 0.2874262034893036 -0.12981458008289337 0.0037269936874508858 0.00040480494499206543 0 0 0 0
2408188496 0.28606945276260376 -0.15614113211631775 0.0038234861567616463 0.00014146510511636734 0 0 0 0
2411910580 0.2837868928909302 -0.18123285472393036 0.004118742421269417 -0.0007326807826757431 0 0 0 0
2415632664 0.2754812240600586 -0.20777152478694916 0.004039368592202663 -0.0011025387793779373 0 0 0 0
2419354748 0.2652248740196228 -0.23117555677890778 0.004210209473967552 -0.0014473330229520798 0 0 0 0
2423076832 0.2496606856584549 -0.2523687779903412 0.004499860107898712 -0.0021340278908610344 0 0 0 0
2426798916 0.23097015917301178 -0.2740437388420105 0.004521953873336315 -0.0035496102645993233 0 0 0 0
2430521000 0.2107730358839035 -0.2887989580631256 0.0036278795450925827 -0.004737306386232376 0 0 0 0
2434243084 0.1869402974843979 -0.30435681343078613 0.0022187037393450737 -0.005042696371674538 0 0 0 0
2437965168 0.16350838541984558 -0.3127078711986542 0.001295521855354309 -0.0047464920207858086 0 0 0 0
2441687252 0.14073798060417175 -0.3192058503627777 0.0009077508002519608 -0.004205171950161457 0 0 0 0
2445409336 0.1142987385392189 -0.3234986662864685 0.0011839857324957848 -0.004431438632309437 0 0 0 0
2449131420 0.08543533086776733 -0.3229173719882965 0.0011571850627660751 -0.004942663945257664 0 0 0 0
2452853504 0.06082303822040558 -0.3173421323299408 0.0005607614293694496 -0.005655450746417046 0 0 0 0
2456575588 0.03192302584648132 -0.3091678321361542 -3.0790455639362335e-05 -0.006263588555157185 0 0 0 0
2460297672 0.008427508175373077 -0.29478782415390015 -0.0010438328608870506 -0.006600744090974331 0 0 0 0
2464019756 -0.014595657587051392 -0.27989113330841064 -0.0021037934347987175 -0.006781306117773056 0 0 0 0
2467741840 -0.03487332537770271 -0.2605883777141571 -0.003177090547978878 -0.006745109334588051 0 0 0 0
2471463924 -0.051684945821762085 -0.23895718157291412 -0.0042415279895067215 -0.006755875423550606 0 0 0 0
2475186008 -0.06406407058238983 -0.2150523066520691 -0.005386182107031345 -0.006724347360432148 0 0 0 0
2478908092 -0.07317881286144257 -0.18858101963996887 -0.007020070217549801 -0.006112287752330303 0 0 0 0
2482630176 -0.07922472804784775 -0.16000209748744965 -0.008400555700063705 -0.005100761540234089 0 0 0 0
2486352260 -0.08057732880115509 -0.1330294907093048 -0.009481342509388924 -0.003723813220858574 0 0 0 0
2490074344 -0.07882214337587357 -0.10478328913450241 -0.010229798965156078 -0.002221931703388691 0 0 0 0
2493796428 -0.07206787914037704 -0.07800410687923431 -0.010485338047146797 -0.0005225669592618942 0 0 0 0
2497518512 -0.06233961135149002 -0.05159580335021019 -0.010552623309195042 0.0010461844503879547 0 0 0 0
2501240596 -0.04664098843932152 -0.02821045182645321 -0.0107541149482131 0.00247248075902462 0 0 0 0
2504962680 -0.028934691101312637 -0.0066507477313280106 -0.010480007156729698 0.0044278474524617195 0 0 0 0
2508684764 -0.008836034685373306 0.01168411411345005 -0.009609905071556568 0.006282011047005653 0 0 0 0
2512406848 0.012885641306638718 0.027209827676415443 -0.008278570137917995 0.007738135755062103 0 0 0 0
2516128932 0.03751228004693985 0.040816470980644226 -0.006697624921798706 0.00870025996118784 0 0 0 0
2519851016 0.06572799384593964 0.05087292939424515 -0.005437287501990795 0.009161343798041344 0 0 0 0
2523573100 0.09506531804800034 0.055438365787267685 -0.004406512714922428 0.009627002291381359 0 0 0 0
2527295184 0.12485416233539581 0.055822137743234634 -0.0032799579203128815 0.010445716790854931 0 0 0 0
2531017268 0.15477460622787476 0.04822271317243576 -0.0018954500555992126 0.010991739109158516 0 0 0 0
2534739352 0.1814640760421753 0.03788959980010986 0.0001048920676112175 0.011478021740913391 0 0 0 0
2538461436 0.2058989554643631 0.023276155814528465 0.001914406195282936 0.011438319459557533 0 0 0 0
2542183520 0.22650645673274994 0.003347199410200119 0.003840171732008457 0.010896026156842709 0 0 0 0
2545905604 0.24476097524166107 -0.016635634005069733 0.005568500608205795 0.010281514376401901 0 0 0 0
2549627688 0.2599380314350128 -0.04011142998933792 0.007040897384285927 0.009583565406501293 0 0 0 0
2553349772 0.2706736624240875 -0.06393279880285263 0.009084205143153667 0.008196084760129452 0 0 0 0
2557071856 0.27509525418281555 -0.08921614289283752 0.01054692454636097 0.00648958794772625 0 0 0 0
2560793940 0.2798980474472046 -0.11477087438106537 0.011471369303762913 0.004634086042642593 0 0 0 0
2564516024 0.27774709463119507 -0.1406746357679367 0.012221472337841988 0.002641781233251095 0 0 0 0
2568238108 0.2722442150115967 -0.16628465056419373 0.012874402105808258 0.0005461229011416435 0 0 0 0
2571960192 0.26157352328300476 -0.18978706002235413 0.013053219765424728 -0.002187676727771759 0 0 0 0
2575682276 0.2486734241247177 -0.20899629592895508 0.012836861424148083 -0.00463305227458477 0 0 0 0
2579404360 0.2310570478439331 -0.22797256708145142 0.01183457113802433 -0.007317548617720604 0 0 0 0
2583126444 0.21575243771076202 -0.2415839284658432 0.010213753208518028 -0.010022087953984737 0 0 0 0
2586848528 0.19650807976722717 -0.25230279564857483 0.007902393117547035 -0.01224365085363388 0 0 0 0
2590570612 0.17740944027900696 -0.2622871994972229 0.005027957260608673 -0.01350484974682331 0 0 0 0
2594292696 0.16024789214134216 -0.2670338451862335 0.0021973885595798492 -0.013845376670360565 0 0 0 0
2598014780 0.13773125410079956 -0.2706044912338257 -0.0006154598668217659 -0.013615972362458706 0 0 0 0
2601736864 0.12179703265428543 -0.2717851996421814 -0.003303605131804943 -0.013097983784973621 0 0 0 0
2605458948 0.09950672090053558 -0.26862668991088867 -0.005440676584839821 -0.011586088687181473 0 0 0 0
2609181032 0.08209235221147537 -0.2638871967792511 -0.006993111222982407 -0.009953630156815052 0 0 0 0
2612903116 0.06193714216351509 -0.25654253363609314 -0.008115849457681179 -0.008100032806396484 0 0 0 0
2616625200 0.0432434156537056 -0.24528983235359192 -0.008799655362963676 -0.006388994865119457 0 0 0 0
2620347284 0.03166951239109039 -0.23107296228408813 -0.008987059816718102 -0.00474208127707243 0 0 0 0
2624069368 0.017901163548231125 -0.21528084576129913 -0.008883846923708916 -0.003370664082467556 0 0 0 0
2627791452 0.010743383318185806 -0.19698256254196167 -0.008541757240891457 -0.0025811921805143356 0 0 0 0
2631513536 0.006620638072490692 -0.17841267585754395 -0.008579227142035961 -0.0018021715804934502 0 0 0 0
2635235620 0.005098333582282066 -0.16002871096134186 -0.008762733079493046 -0.0010119127109646797 0 0 0 0
2638957704 0.008554834872484207 -0.1410338282585144 -0.008968416601419449 3.49460169672966e-05 0 0 0 0
2642679788 0.012744183652102947 -0.12514735758304596 -0.009317048825323582 0.0010943897068500519 0 0 0 0
2646401872 0.02130233310163021 -0.11028023064136505 -0.009241508319973946 0.002543221227824688 0 0 0 0
2650123956 0.032141316682100296 -0.09818343818187714 -0.009117747657001019 0.004259404726326466 0 0 0 0
2653846040 0.0442187562584877 -0.08839975297451019 -0.008175155147910118 0.006174342706799507 0 0 0 0
2657568124 0.05873749405145645 -0.08066108077764511 -0.006474028341472149 0.007354988716542721 0 0 0 0
2661290208 0.07372082024812698 -0.07754146307706833 -0.0048421770334243774 0.008169983513653278 0 0 0 0
2665012292 0.08870695531368256 -0.07749645411968231 -0.003180493600666523 0.008480673655867577 0 0 0 0
2668734376 0.10288938879966736 -0.08112362027168274 -0.001628185622394085 0.008829924277961254 0 0 0 0
2672456460 0.11461040377616882 -0.08604717999696732 5.008932203054428e-05 0.008793537504971027 0 0 0 0
2676178544 0.12499114871025085 -0.09529569000005722 0.001994369551539421 0.008366825059056282 0 0 0 0
2679900628 0.13510453701019287 -0.10388456284999847 0.00367114320397377 0.00730323139578104 0 0 0 0
2683622712 0.14081251621246338 -0.11497381329536438 0.004879687912762165 0.0059273941442370415 0 0 0 0
2687344796 0.1442175805568695 -0.12867487967014313 0.005350349470973015 0.0044443197548389435 0 0 0 0
2691066880 0.14703094959259033 -0.14069867134094238 0.005829453468322754 0.00298859179019928 0 0 0 0
2694788964 0.14376071095466614 -0.15479688346385956 0.00575109850615263 0.0018185656517744064 0 0 0 0
2698511048 0.13950763642787933 -0.1654621809720993 0.005831742659211159 0.0006647864356637001 0 0 0 0
2702233132 0.13116176426410675 -0.17881476879119873 0.0056366026401519775 -0.0005874428898096085 0 0 0 0
2705955216 0.1248190850019455 -0.18596386909484863 0.0051380954682827 -0.0016634166240692139 0 0 0 0
2709677300 0.10981432348489761 -0.19634166359901428 0.0042476411908864975 -0.0025360751897096634 0 0 0 0
2713399384 0.09829079359769821 -0.2024930715560913 0.0035533979535102844 -0.0030498532578349113 0 0 0 0
2717121468 0.08400696516036987 -0.20453742146492004 0.0030648019164800644 -0.0032664230093359947 0 0 0 0
2720843552 0.06860148161649704 -0.20571933686733246 0.0025422507897019386 -0.0036528678610920906 0 0 0 0
2724565636 0.053702592849731445 -0.2034989893436432 0.002003725618124008 -0.004291251301765442 0 0 0 0
2728287720 0.03784755617380142 -0.19724097847938538 0.0010226527228951454 -0.004767534323036671 0 0 0 0
2732009804 0.02192738652229309 -0.18962085247039795 -0.0002526380121707916 -0.004959915764629841 0 0 0 0
2735731888 0.009200111031532288 -0.1784173995256424 -0.001424921676516533 -0.004483165219426155 0 0 0 0
2739453972 -0.0004784427583217621 -0.16476759314537048 -0.00234849750995636 -0.0037354230880737305 0 0 0 0
2743176056 -0.010050684213638306 -0.14924661815166473 -0.0028959941118955612 -0.002715473994612694 0 0 0 0
2746898140 -0.016398653388023376 -0.1303699016571045 -0.002705322578549385 -0.0015188902616500854 0 0 0 0
2750620224 -0.0193471722304821 -0.11106839776039124 -0.0020280908793210983 -0.0011862609535455704 0 0 0 0
2754342308 -0.018336206674575806 -0.09102782607078552 -0.0018438277766108513 -0.0012776050716638565 0 0 0 0
2758064392 -0.014102667570114136 -0.071717768907547 -0.0020786384120583534 -0.001301589421927929 0 0 0 0
2761786476 -0.006985425017774105 -0.052451521158218384 -0.0023873401805758476 -0.0011414913460612297 0 0 0 0
2765508560 0.003643857315182686 -0.034913234412670135 -0.0026412131264805794 -0.0007911790162324905 0 0 0 0
2769230644 0.0166805237531662 -0.01770368590950966 -0.0027428530156612396 -4.218053072690964e-05 0 0 0 0
2772952728 0.033381834626197815 -0.0026427004486322403 -0.0028224606066942215 0.0005492642521858215 0 0 0 0
2776674812 0.0535748153924942 0.009941283613443375 -0.00241782795637846 0.0013798922300338745 0 0 0 0
2780396896 0.07703694701194763 0.018605470657348633 -0.001889146864414215 0.0018848106265068054 0 0 0 0
2784118980 0.1011885404586792 0.021784286946058273 -0.0010628970339894295 0.0023578284308314323 0 0 0 0
2787841064 0.12517483532428741 0.02117016911506653 -6.202142685651779e-05 0.002407437190413475 0 0 0 0
2791563148 0.14882449805736542 0.01565569080412388 0.0008161431178450584 0.002025655470788479 0 0 0 0
2795285232 0.17147770524024963 0.009838679805397987 0.0013717105612158775 0.0013751471415162086 0 0 0 0
2799007316 0.1937224417924881 -0.0012052133679389954 0.001643504947423935 0.000792340375483036 0 0 0 0
2802729400 0.21425902843475342 -0.01871722936630249 0.0018228031694889069 9.528454393148422e-05 0 0 0 0
2806451484 0.23077785968780518 -0.03668072819709778 0.0017327507957816124 -0.0004981840029358864 0 0 0 0
2810173568 0.24684326350688934 -0.05696985125541687 0.0012824228033423424 -0.000957888551056385 0 0 0 0
2813895652 0.2565922439098358 -0.08117951452732086 0.0011447025462985039 -0.0010900739580392838 0 0 0 0
2817617736 0.26296466588974 -0.10551302134990692 0.0008317530155181885 -0.001250983215868473 0 0 0 0
2821339820 0.26694735884666443 -0.1300836205482483 0.0004119984805583954 -0.001500534825026989 0 0 0 0
2825061904 0.2692714333534241 -0.15426412224769592 0.00014394614845514297 -0.001375109888613224 0 0 0 0
2828783988 0.26303631067276 -0.18115834891796112 -6.269104778766632e-05 -0.001035040244460106 0 0 0 0
2832506072 0.2550220787525177 -0.2075587809085846 9.594205766916275e-05 -0.000910244882106781 0 0 0 0
2836228156 0.24443812668323517 -0.22835730016231537 0.00026835687458515167 -0.0009150560945272446 0 0 0 0
2839950240 0.22989881038665771 -0.2517787516117096 0.00045800860971212387 -0.001133042387664318 0 0 0 0
2843672324 0.2095177173614502 -0.27021324634552 0.0005334522575139999 -0.0013777157291769981 0 0 0 0
2847394408 0.19200974702835083 -0.28523415327072144 0.00045093800872564316 -0.001700855791568756 0 0 0 0
2851116492 0.17175044119358063 -0.30041223764419556 3.859121352434158e-05 -0.0020176852121949196 0 0 0 0
2854838576 0.14567223191261292 -0.3118164837360382 -0.00019813980907201767 -0.002202230505645275 0 0 0 0
2858560660 0.13109996914863586 -0.3166756331920624 -0.00041180383414030075 -0.002761309966444969 0 0 0 0
2862282744 0.1006457507610321 -0.32315224409103394 -0.0009311158210039139 -0.002849472686648369 0 0 0 0
2866004828 0.07428217679262161 -0.32549822330474854 -0.001697964034974575 -0.002587457187473774 0 0 0 0
2869726912 0.05101341754198074 -0.3234289288520813 -0.0021432461217045784 -0.0020646052435040474 0 0 0 0
2873448996 0.03046748787164688 -0.3182812035083771 -0.0024733738973736763 -0.0015126969665288925 0 0 0 0
2877171080 0.0014441311359405518 -0.3100249767303467 -0.0025898925960063934 -0.0008616326376795769 0 0 0 0
2880893164 -0.022893697023391724 -0.30014970898628235 -0.002445382997393608 -0.0003626681864261627 0 0 0 0
2884615248 -0.04207862168550491 -0.28573909401893616 -0.0022571152076125145 9.650737047195435e-05 0 0 0 0
2888337332 -0.06516935676336288 -0.26842349767684937 -0.00219697505235672 0.00034679658710956573 0 0 0 0
2892059416 -0.07974283397197723 -0.25017258524894714 -0.0020840242505073547 0.0007470240816473961 0 0 0 0
2895781500 -0.09583339840173721 -0.2281719297170639 -0.0017743948847055435 0.0011603403836488724 0 0 0 0
2899503584 -0.10833589732646942 -0.20543625950813293 -0.0013799834996461868 0.0015645381063222885 0 0 0 0
2903225668 -0.11737394332885742 -0.18006159365177155 -0.0009045135229825974 0.0017897142097353935 0 0 0 0
2906947752 -0.12519510090351105 -0.15377375483512878 -0.0005382923409342766 0.001982821151614189 0 0 0 0
2910669836 -0.1266084909439087 -0.12750095129013062 -0.00022175908088684082 0.002039375714957714 0 0 0 0
2914391920 -0.12490767985582352 -0.0989423543214798 0.00023206043988466263 0.0020902063697576523 0 0 0 0
2918114004 -0.11990365386009216 -0.07056742161512375 0.0005407491698861122 0.002055928111076355 0 0 0 0
2921836088 -0.1102551519870758 -0.04511137679219246 0.0010649580508470535 0.0020970869809389114 0 0 0 0
2925558172 -0.09686604887247086 -0.021789513528347015 0.0017151599749922752 0.0019706115126609802 0 0 0 0
2929280256 -0.08128837496042252 0.00032427534461021423 0.0021519437432289124 0.0015765782445669174 0 0 0 0
2933002340 -0.06397472321987152 0.019067054614424706 0.002371598966419697 0.0012853294610977173 0 0 0 0
2936724424 -0.04315133020281792 0.03560186177492142 0.002537328749895096 0.0009576007723808289 0 0 0 0
2940446508 -0.021156519651412964 0.04859772324562073 0.0028626341372728348 0.0006392570212483406 0 0 0 0
2944168592 0.0012268107384443283 0.05888773500919342 0.0030858730897307396 0.0002797720953822136 0 0 0 0
2947890676 0.025359001010656357 0.06589291989803314 0.0031585153192281723 -0.00025151297450065613 0 0 0 0
2951612760 0.04884103685617447 0.07051748782396317 0.003123764880001545 -0.0005045188590884209 0 0 0 0
2955334844 0.07266358286142349 0.07261925935745239 0.003273382782936096 -0.00106067955493927 0 0 0 0
2959056928 0.09651010483503342 0.0723210871219635 0.0032780468463897705 -0.001533951610326767 0 0 0 0
2962779012 0.12064851820468903 0.06895275413990021 0.0030915681272745132 -0.001993074081838131 0 0 0 0
2966501096 0.14481326937675476 0.062311384826898575 0.0028455760329961777 -0.0026639066636562347 0 0 0 0
2970223180 0.16845186054706573 0.05125240609049797 0.0024964651092886925 -0.0031033381819725037 0 0 0 0
2973945264 0.18938308954238892 0.03751306235790253 0.0018380498513579369 -0.003488512709736824 0 0 0 0
2977667348 0.20825597643852234 0.020829830318689346 0.0013461960479617119 -0.0037197209894657135 0 0 0 0
2981389432 0.22435471415519714 0.0017830729484558105 0.0006414130330085754 -0.0038559669628739357 0 0 0 0
2985111516 0.23789118230342865 -0.01799101009964943 -0.00021893158555030823 -0.003844529390335083 0 0 0 0
2988833600 0.247123584151268 -0.0405392050743103 -0.0008619679138064384 -0.0033556316047906876 0 0 0 0
2992555684 0.254608154296875 -0.06113554537296295 -0.0014356272295117378 -0.003001195378601551 0 0 0 0
2996277768 0.25839436054229736 -0.08474350720643997 -0.0018769586458802223 -0.0025713564828038216 0 0 0 0
2999999852 0.26066991686820984 -0.10559947043657303 -0.002251269295811653 -0.0018811197951436043 0 0 0 0
