# HZ S RI R 50
1500000000 -0.12091001868247986 -0.05330397188663483 0.0368538424372673 -0.03493393585085869 0 0 0 0
1503722084 -0.10835995525121689 -0.02365415170788765 0.029629426077008247 -0.041482459753751755 0 0 0 0
1507444168 -0.08947120606899261 0.0046385303139686584 0.02027626521885395 -0.04629654064774513 0 0 0 0
1511166252 -0.0645947977900505 0.029458943754434586 0.00999439787119627 -0.04821396991610527 0 0 0 0
1514888336 -0.03444277495145798 0.05124720185995102 -0.00030945148319005966 -0.04741714522242546 0 0 0 0
1518610420 0.00084659643471241 0.068130724132061 -0.00938894972205162 -0.04398537054657936 0 0 0 0
1522332504 0.039856940507888794 0.07941540330648422 -0.015930600464344025 -0.0386895090341568 0 0 0 0
1526054588 0.08277011662721634 0.0834503173828125 -0.020753011107444763 -0.03332170099020004 0 0 0 0
1529776672 0.12668675184249878 0.08015774935483932 -0.024074697867035866 -0.02793862856924534 0 0 0 0
1533498756 0.17191670835018158 0.06906728446483612 -0.026868164539337158 -0.022507555782794952 0 0 0 0
1537220840 0.21730783581733704 0.04910951852798462 -0.02823273092508316 -0.016957202926278114 0 0 0 0
1540942924 0.259259968996048 0.019380584359169006 -0.028347883373498917 -0.011559898033738136 0 0 0 0
1544665008 0.295269638299942 -0.015123195946216583 -0.027626875787973404 -0.007233360782265663 0 0 0 0
1548387092 0.32537829875946045 -0.05916298180818558 -0.02684730291366577 -0.0036783283576369286 0 0 0 0
1552109176 0.34864944219589233 -0.10700076818466187 -0.025793658569455147 -0.00014368444681167603 0 0 0 0
1555831260 0.3648281395435333 -0.15826043486595154 -0.02456091158092022 0.0029819123446941376 0 0 0 0
1559553344 0.3720708191394806 -0.21317477524280548 -0.02308792620897293 0.00568115059286356 0 0 0 0
1563275428 0.3686947822570801 -0.26914557814598083 -0.021586410701274872 0.00848206877708435 0 0 0 0
1566997512 0.3556654453277588 -0.3269839882850647 -0.019478170201182365 0.01114545576274395 0 0 0 0
1570719596 0.3387333154678345 -0.3798152804374695 -0.01692521944642067 0.01327529177069664 0 0 0 0
1574441680 0.30690068006515503 -0.4333263039588928 -0.014029286801815033 0.014594968408346176 0 0 0 0
1578163764 0.27070581912994385 -0.4777972400188446 -0.011576098389923573 0.015274944715201855 0 0 0 0
1581885848 0.22520339488983154 -0.5188718438148499 -0.009319392964243889 0.015654100105166435 0 0 0 0
1585607932 0.17690874636173248 -0.5508987307548523 -0.007202634587883949 0.016028743237257004 0 0 0 0
1589330016 0.11898614466190338 -0.5779012441635132 -0.005227784626185894 0.01603824831545353 0 0 0 0
1593052100 0.05978132784366608 -0.596311628818512 -0.003787662833929062 0.016079366207122803 0 0 0 0
1596774184 -0.0034185796976089478 -0.6048936247825623 -0.0021500345319509506 0.01645244099199772 0 0 0 0
1600496268 -0.06797441840171814 -0.6027281880378723 -9.184703230857849e-06 0.01680430956184864 0 0 0 0
1604218352 -0.1271226704120636 -0.5925486087799072 0.0021489588543772697 0.016781175509095192 0 0 0 0
1607940436 -0.18812720477581024 -0.5725765824317932 0.004515164531767368 0.01628780923783779 0 0 0 0
1611662520 -0.24912837147712708 -0.5442274808883667 0.006460951641201973 0.015566129237413406 0 0 0 0
1615384604 -0.3065628409385681 -0.5070239305496216 0.008548996411263943 0.014730606228113174 0 0 0 0
1619106688 -0.3561457693576813 -0.46093904972076416 0.01063678227365017 0.01374790258705616 0 0 0 0
1622828772 -0.3988518714904785 -0.40672576427459717 0.012790434062480927 0.012741833925247192 0 0 0 0
1626550856 -0.4336812198162079 -0.34627529978752136 0.015013366937637329 0.011081401258707047 0 0 0 0
1630272940 -0.4611073434352875 -0.2758992612361908 0.01751650869846344 0.00875642616301775 0 0 0 0
1633995024 -0.47589850425720215 -0.20881199836730957 0.019583066925406456 0.005685337819159031 0 0 0 0
1637717108 -0.4822251796722412 -0.13455407321453094 0.02084193378686905 0.0016294093802571297 0 0 0 0
1641439192 -0.4774310886859894 -0.059814661741256714 0.020718881860375404 -0.00274678785353899 0 0 0 0
1645161276 -0.46060869097709656 0.013878598809242249 0.019539302214980125 -0.006720324978232384 0 0 0 0
1648883360 -0.432873398065567 0.08763891458511353 0.017931733280420303 -0.010077044367790222 0 0 0 0
1652605444 -0.3927544355392456 0.15699101984500885 0.015943370759487152 -0.013468127697706223 0 0 0 0
1656327528 -0.3433937430381775 0.2184157371520996 0.013218611478805542 -0.016656825318932533 0 0 0 0
1660049612 -0.28254202008247375 0.2720588147640228 0.009091288782656193 -0.019360292702913284 0 0 0 0
1663771696 -0.21292716264724731 0.31691911816596985 0.004556852392852306 -0.020429786294698715 0 0 0 0
1667493780 -0.13713808357715607 0.3509598970413208 0.00021059438586235046 -0.020214436575770378 0 0 0 0
1671215864 -0.05539394170045853 0.3721557557582855 -0.003748638555407524 -0.019194986671209335 0 0 0 0
1674937948 0.028331153094768524 0.38094907999038696 -0.007427587173879147 -0.017386652529239655 0 0 0 0
1678660032 0.11467984318733215 0.37462058663368225 -0.010348966345191002 -0.014947734773159027 0 0 0 0
1682382116 0.19529935717582703 0.35518765449523926 -0.012599886395037174 -0.012091121636331081 0 0 0 0
1686104200 0.2744821608066559 0.32351571321487427 -0.013748697005212307 -0.008932612836360931 0 0 0 0
1689826284 0.34636396169662476 0.28007999062538147 -0.014458764344453812 -0.005748476833105087 0 0 0 0
1693548368 0.4102216362953186 0.2252945452928543 -0.014315874315798283 -0.0028799064457416534 0 0 0 0
1697270452 0.46618980169296265 0.1604883372783661 -0.01398739404976368 -3.375392407178879e-05 0 0 0 0
1700992536 0.5097910165786743 0.08713158965110779 -0.013017798773944378 0.0023810798302292824 0 0 0 0
1704714620 0.5402414202690125 0.010353028774261475 -0.011839773505926132 0.004479594528675079 0 0 0 0
1708436704 0.5589593052864075 -0.06893515586853027 -0.010111483745276928 0.006309869699180126 0 0 0 0
1712158788 0.565034031867981 -0.14827169477939606 -0.0082251550629735 0.007710352540016174 0 0 0 0
1715880872 0.5579338073730469 -0.2315473109483719 -0.006029090844094753 0.008536315523087978 0 0 0 0
1719602956 0.538735032081604 -0.3083069622516632 -0.003837045282125473 0.008796361275017262 0 0 0 0
1723325040 0.5065039992332458 -0.38123247027397156 -0.0016717789694666862 0.008504016324877739 0 0 0 0
1727047124 0.4672807455062866 -0.44726142287254333 -0.00020492635667324066 0.007573338225483894 0 0 0 0
1730769208 0.4152275025844574 -0.5068248510360718 0.0009717531502246857 0.006583217531442642 0 0 0 0
1734491292 0.3584718108177185 -0.5553187131881714 0.00168694369494915 0.005587912164628506 0 0 0 0
1738213376 0.2930828630924225 -0.5941082835197449 0.002301076427102089 0.004448985680937767 0 0 0 0
1741935460 0.22682736814022064 -0.6209826469421387 0.0024754228070378304 0.0032376889139413834 0 0 0 0
1745657544 0.15549208223819733 -0.6396082043647766 0.0018969522789120674 0.002142472192645073 0 0 0 0
1749379628 0.0826643630862236 -0.6447311639785767 0.001149168238043785 0.0018320363014936447 0 0 0 0
1753101712 0.008606910705566406 -0.638225793838501 0.000690266489982605 0.002096446231007576 0 0 0 0
1756823796 -0.05845757573843002 -0.6225159168243408 0.0006518792361021042 0.0025489414110779762 0 0 0 0
1760545880 -0.11642491817474365 -0.5966460108757019 0.0007518809288740158 0.0028976863250136375 0 0 0 0
1764267964 -0.1771738976240158 -0.5611420273780823 0.0013054842129349709 0.003191208466887474 0 0 0 0
1767990048 -0.22437317669391632 -0.5206465721130371 0.0021760119125247 0.0032712211832404137 0 0 0 0
1771712132 -0.2664770781993866 -0.47332367300987244 0.002850675955414772 0.0026733949780464172 0 0 0 0
1775434216 -0.29946550726890564 -0.422669917345047 0.003134334459900856 0.0018312698230147362 0 0 0 0
1779156300 -0.3257330060005188 -0.3675347864627838 0.0031587006524205208 0.0010039592161774635 0 0 0 0
1782878384 -0.34220272302627563 -0.31252020597457886 0.0028811050578951836 0.00027148332446813583 0 0 0 0
1786600468 -0.3528550863265991 -0.2573317885398865 0.002204512245953083 -0.00037992652505636215 0 0 0 0
1790322552 -0.35551321506500244 -0.20026211440563202 0.001295262947678566 -0.0004898486658930779 0 0 0 0
1794044636 -0.3511214554309845 -0.1421203762292862 0.0003349762409925461 -0.00013334676623344421 0 0 0 0
1797766720 -0.3375849723815918 -0.08733633160591125 -0.0005398774519562721 0.0007038768380880356 0 0 0 0
1801488804 -0.3187084197998047 -0.03305068612098694 -0.0008606119081377983 0.0023316098377108574 0 0 0 0
1805210888 -0.29065024852752686 0.017747709527611732 4.267413169145584e-05 0.004178815521299839 0 0 0 0
1808932972 -0.25585269927978516 0.06273145973682404 0.00180827546864748 0.005432628095149994 0 0 0 0
1812655056 -0.21098415553569794 0.10402826964855194 0.004127067513763905 0.005639917217195034 0 0 0 0
1816377140 -0.16132047772407532 0.13548341393470764 0.006048048846423626 0.005317429080605507 0 0 0 0
1820099224 -0.10725033283233643 0.15775100886821747 0.008717035874724388 0.004309527575969696 0 0 0 0
1823821308 -0.052113212645053864 0.1685291826725006 0.010960140265524387 0.001719646155834198 0 0 0 0
1827543392 0.0024528056383132935 0.17099767923355103 0.011794949881732464 -0.0014954973012208939 0 0 0 0
1831265476 0.05554412305355072 0.16552123427391052 0.011516667902469635 -0.00467689149081707 0 0 0 0
1834987560 0.10583457350730896 0.15013714134693146 0.010297011584043503 -0.007580211386084557 0 0 0 0
1838709644 0.15109820663928986 0.12994156777858734 0.00821534264832735 -0.010272509418427944 0 0 0 0
1842431728 0.1920129507780075 0.10240902006626129 0.005141375586390495 -0.01172664389014244 0 0 0 0
1846153812 0.22684046626091003 0.0705600380897522 0.0020985575392842293 -0.01155402883887291 0 0 0 0
1849875896 0.2559376657009125 0.033502474427223206 0.0003461865708231926 -0.010807739570736885 0 0 0 0
1853597980 0.27847999334335327 -0.005226731300354004 -0.000544477254152298 -0.01019655168056488 0 0 0 0
1857320064 0.2952301800251007 -0.04514699429273605 -0.0010483339428901672 -0.010304605588316917 0 0 0 0
1861042148 0.3044840395450592 -0.0877772718667984 -0.001996997743844986 -0.011193130165338516 0 0 0 0
1864764232 0.3056718409061432 -0.1326136291027069 -0.004102869890630245 -0.012034831568598747 0 0 0 0
1868486316 0.2995559573173523 -0.17308923602104187 -0.006986931897699833 -0.011740692891180515 0 0 0 0
1872208400 0.28658390045166016 -0.2130703330039978 -0.009585175663232803 -0.010440661571919918 0 0 0 0
1875930484 0.27055007219314575 -0.24632751941680908 -0.01177141722291708 -0.008389380760490894 0 0 0 0
1879652568 0.24638020992279053 -0.27968263626098633 -0.012864205054938793 -0.00647652056068182 0 0 0 0
1883374652 0.21941184997558594 -0.3065633177757263 -0.013930105604231358 -0.004969896748661995 0 0 0 0
1887096736 0.19028905034065247 -0.32752636075019836 -0.01552520040422678 -0.003124033100903034 0 0 0 0
1890818820 0.15428650379180908 -0.34268471598625183 -0.017360948026180267 -0.00042112357914447784 0 0 0 0
1894540904 0.12128617614507675 -0.34933894872665405 -0.018502432852983475 0.0034464746713638306 0 0 0 0
1898262988 0.08746032416820526 -0.3504546284675598 -0.018019888550043106 0.008054642006754875 0 0 0 0
1901985072 0.05267662927508354 -0.34692519903182983 -0.015812495723366737 0.01234680600464344 0 0 0 0
1905707156 0.021607935428619385 -0.33902549743652344 -0.01298060268163681 0.015171392820775509 0 0 0 0
1909429240 -0.005146687850356102 -0.32461005449295044 -0.01000776793807745 0.017487898468971252 0 0 0 0
1913151324 -0.029457762837409973 -0.3078882396221161 -0.006615594960749149 0.019550882279872894 0 0 0 0
1916873408 -0.05162261798977852 -0.2864484190940857 -0.0024379324167966843 0.020789870992302895 0 0 0 0
1920595492 -0.06955312192440033 -0.26144859194755554 0.0018474841490387917 0.021114394068717957 0 0 0 0
1924317576 -0.08266694843769073 -0.23352430760860443 0.006345977075397968 0.020649932324886322 0 0 0 0
1928039660 -0.0888507142663002 -0.20511619746685028 0.010878518223762512 0.019180214032530785 0 0 0 0
1931761744 -0.09267691522836685 -0.17676271498203278 0.015408448874950409 0.015830427408218384 0 0 0 0
1935483828 -0.08983609825372696 -0.1483122557401657 0.018295682966709137 0.011164460331201553 0 0 0 0
1939205912 -0.08348765969276428 -0.1206989511847496 0.01921115815639496 0.005905733443796635 0 0 0 0
1942927996 -0.07301069796085358 -0.09333224594593048 0.018434736877679825 0.001561800017952919 0 0 0 0
1946650080 -0.05667942762374878 -0.06888807564973831 0.017056545242667198 -0.0013937968760728836 0 0 0 0
1950372164 -0.03579355403780937 -0.04692000895738602 0.015849687159061432 -0.003659440204501152 0 0 0 0
1954094248 -0.011093293316662312 -0.029598180204629898 0.014460485428571701 -0.005874611437320709 0 0 0 0
1957816332 0.01697809435427189 -0.017541879788041115 0.01333625242114067 -0.007959013804793358 0 0 0 0
1961538416 0.04677871987223625 -0.0111752450466156 0.011585836298763752 -0.010110254399478436 0 0 0 0
1965260500 0.07762458175420761 -0.01019768975675106 0.00945635512471199 -0.011679424904286861 0 0 0 0
1968982584 0.10738903284072876 -0.016766050830483437 0.007211783900856972 -0.012443521060049534 0 0 0 0
1972704668 0.13540562987327576 -0.028387878090143204 0.005280171521008015 -0.01332305371761322 0 0 0 0
1976426752 0.1593778282403946 -0.045060690492391586 0.0033681103959679604 -0.013846181333065033 0 0 0 0
1980148836 0.1805049180984497 -0.06411558389663696 0.0014558620750904083 -0.014543083496391773 0 0 0 0
1983870920 0.19636443257331848 -0.08864280581474304 -0.0008746758103370667 -0.015254640951752663 0 0 0 0
1987593004 0.20824337005615234 -0.11525842547416687 -0.00391104631125927 -0.015720419585704803 0 0 0 0
1991315088 0.21515578031539917 -0.14141905307769775 -0.007056799717247486 -0.01546262763440609 0 0 0 0
1995037172 0.2160438597202301 -0.1695237159729004 -0.010721380822360516 -0.013563110493123531 0 0 0 0
1998759256 0.2111193835735321 -0.19698184728622437 -0.013418748043477535 -0.011083289049565792 0 0 0 0
2002481340 0.20110177993774414 -0.22309762239456177 -0.014910688623785973 -0.008341126143932343 0 0 0 0
2006203424 0.18799133598804474 -0.2445562481880188 -0.015740932896733284 -0.005519314669072628 0 0 0 0
2009925508 0.17258299887180328 -0.2643633186817169 -0.016725938767194748 -0.0030031995847821236 0 0 0 0
2013647592 0.15328636765480042 -0.281394898891449 -0.017203453928232193 -0.00025344640016555786 0 0 0 0
2017369676 0.13043466210365295 -0.29636552929878235 -0.017569854855537415 0.002383013255894184 0 0 0 0
2021091760 0.10807719826698303 -0.30594152212142944 -0.017803318798542023 0.005980218760669231 0 0 0 0
2024813844 0.08258461952209473 -0.31230443716049194 -0.016492148861289024 0.010190820321440697 0 0 0 0
2028535928 0.05471882224082947 -0.3124116361141205 -0.014228370040655136 0.013517171144485474 0 0 0 0
2032258012 0.02944069355726242 -0.3098636269569397 -0.010535623878240585 0.016130082309246063 0 0 0 0
2035980096 0.0013353973627090454 -0.3031638562679291 -0.006943924352526665 0.016989341005682945 0 0 0 0
2039702180 -0.022509202361106873 -0.29188087582588196 -0.0037479903548955917 0.017211388796567917 0 0 0 0
2043424264 -0.04472724348306656 -0.2753932774066925 -0.0008842227980494499 0.01704634167253971 0 0 0 0
2047146348 -0.06503859907388687 -0.2568904757499695 0.0020207930356264114 0.01641683839261532 0 0 0 0
2050868432 -0.08227730542421341 -0.23436379432678223 0.004585014656186104 0.015405092388391495 0 0 0 0
2054590516 -0.09632076323032379 -0.20963217318058014 0.006431685760617256 0.014331046491861343 0 0 0 0
2058312600 -0.10728298127651215 -0.18144729733467102 0.00821848213672638 0.012655925005674362 0 0 0 0
2062034684 -0.11293812096118927 -0.15273451805114746 0.009488624520599842 0.011391582898795605 0 0 0 0
2065756768 -0.11540557444095612 -0.12164275348186493 0.011095937341451645 0.009834912605583668 0 0 0 0
2069478852 -0.11272457987070084 -0.08962537348270416 0.012310825288295746 0.008242452517151833 0 0 0 0
2073200936 -0.10454732179641724 -0.0568983256816864 0.013349434360861778 0.0057884082198143005 0 0 0 0
2076923020 -0.08953036367893219 -0.024879634380340576 0.013454603031277657 0.003548000007867813 0 0 0 0
2080645104 -0.0692620649933815 0.004821900278329849 0.013571340590715408 0.0018123304471373558 0 0 0 0
2084367188 -0.04348092898726463 0.030902929604053497 0.013458522036671638 0.0003373129293322563 0 0 0 0
2088089272 -0.012548498809337616 0.051790669560432434 0.013369008898735046 -0.0010080616921186447 0 0 0 0
2091811356 0.022302428260445595 0.06676869839429855 0.013599395751953125 -0.0026212437078356743 0 0 0 0
2095533440 0.05819062888622284 0.07561694830656052 0.014222594909369946 -0.004634988494217396 0 0 0 0
2099255524 0.09474782645702362 0.07834740728139877 0.014340642839670181 -0.007516396231949329 0 0 0 0
2102977608 0.13228444755077362 0.0745694488286972 0.013149810954928398 -0.011020014062523842 0 0 0 0
2106699692 0.16791735589504242 0.06465744972229004 0.010730301961302757 -0.013817664235830307 0 0 0 0
2110421776 0.20206797122955322 0.04978019744157791 0.007620585151016712 -0.015936654061079025 0 0 0 0
2114143860 0.23364697396755219 0.02908226288855076 0.004169116728007793 -0.017203185707330704 0 0 0 0
2117865944 0.25994691252708435 0.0024542491883039474 0.0006171837449073792 -0.017706630751490593 0 0 0 0
2121588028 0.28145214915275574 -0.02795979380607605 -0.0033535994589328766 -0.017229562625288963 0 0 0 0
2125310112 0.2965196669101715 -0.06116681545972824 -0.0067971134558320045 -0.016284490004181862 0 0 0 0
2129032196 0.307046502828598 -0.09123677015304565 -0.010370341129601002 -0.01415213756263256 0 0 0 0
2132754280 0.31073105335235596 -0.12916000187397003 -0.013125534169375896 -0.01080869697034359 0 0 0 0
2136476364 0.31029385328292847 -0.16298741102218628 -0.014208116568624973 -0.006851040758192539 0 0 0 0
2140198448 0.3055388629436493 -0.19361962378025055 -0.013767016120254993 -0.003221721388399601 0 0 0 0
2143920532 0.29089832305908203 -0.22983643412590027 -0.01239608135074377 -0.000806453637778759 0 0 0 0
2147642616 0.27545878291130066 -0.25658878684043884 -0.01109806727617979 0.0004681795835494995 0 0 0 0
2151364700 0.25334012508392334 -0.2838759124279022 -0.010438529774546623 0.0015248395502567291 0 0 0 0
2155086784 0.23282891511917114 -0.30424511432647705 -0.009788453578948975 0.002497333101928234 0 0 0 0
2158808868 0.20847073197364807 -0.32078874111175537 -0.009001003578305244 0.003104184754192829 0 0 0 0
2162530952 0.17703671753406525 -0.3356889486312866 -0.008545955643057823 0.0038442881777882576 0 0 0 0
2166253036 0.1457938253879547 -0.3437942564487457 -0.00855689775198698 0.00426288228482008 0 0 0 0
2169975120 0.11374300718307495 -0.3474571406841278 -0.008531328290700912 0.0057217953726649284 0 0 0 0
2173697204 0.08467885851860046 -0.3456985354423523 -0.00785348191857338 0.007140365429222584 0 0 0 0
2177419288 0.05405093729496002 -0.340101420879364 -0.006668061017990112 0.00856222864240408 0 0 0 0
2181141372 0.027357961982488632 -0.33044856786727905 -0.005511689931154251 0.009628056548535824 0 0 0 0
2184863456 -0.002267599105834961 -0.31702667474746704 -0.003995830193161964 0.010501628741621971 0 0 0 0
2188585540 -0.02756982296705246 -0.29865509271621704 -0.0022802911698818207 0.011073638685047626 0 0 0 0
2192307624 -0.04968544468283653 -0.27518877387046814 -0.00044691096991300583 0.011455992236733437 0 0 0 0
2196029708 -0.06899076700210571 -0.24869146943092346 0.0017464188858866692 0.011473400518298149 0 0 0 0
2199751792 -0.0805865079164505 -0.21985681354999542 0.003697248175740242 0.010732554830610752 0 0 0 0
2203473876 -0.08990567922592163 -0.18592777848243713 0.005185991525650024 0.009871754795312881 0 0 0 0
2207195960 -0.08886364847421646 -0.15676119923591614 0.0061664339154958725 0.009039748460054398 0 0 0 0
2210918044 -0.08924098312854767 -0.12354183197021484 0.007310883142054081 0.008175494149327278 0 0 0 0
2214640128 -0.08044137060642242 -0.0932660698890686 0.00867291260510683 0.007233838550746441 0 0 0 0
2218362212 -0.06735844910144806 -0.06407368183135986 0.010261479765176773 0.005812882445752621 0 0 0 0
2222084296 -0.04985257610678673 -0.036068692803382874 0.011803796514868736 0.0039048679172992706 0 0 0 0
2225806380 -0.026705771684646606 -0.014460439793765545 0.012686321511864662 0.0012163352221250534 0 0 0 0
2229528464 -0.0005549844354391098 0.004505626857280731 0.012705923989415169 -0.0015458203852176666 0 0 0 0
2233250548 0.029071994125843048 0.01785707101225853 0.011916495859622955 -0.004320302978157997 0 0 0 0
2236972632 0.05954255163669586 0.02595643512904644 0.01041029766201973 -0.006707602180540562 0 0 0 0
2240694716 0.09134906530380249 0.02636984921991825 0.008636360056698322 -0.008676629513502121 0 0 0 0
2244416800 0.12249104678630829 0.021761024370789528 0.006311463192105293 -0.009973808191716671 0 0 0 0
2248138884 0.15133890509605408 0.01482569519430399 0.0038611916825175285 -0.010620063170790672 0 0 0 0
2251860968 0.17745354771614075 -0.0035877004265785217 0.0014092503115534782 -0.010102426633238792 0 0 0 0
2255583052 0.20067821443080902 -0.018283337354660034 0.00027572549879550934 -0.009843646548688412 0 0 0 0
2259305136 0.21836069226264954 -0.04630863666534424 -0.0015283478423953056 -0.009649757295846939 0 0 0 0
2263027220 0.23114529252052307 -0.06888142973184586 -0.002849442884325981 -0.00896461308002472 0 0 0 0
2266749304 0.23968631029129028 -0.09380976855754852 -0.003898167982697487 -0.008166921325027943 0 0 0 0
2270471388 0.2412017285823822 -0.12466321885585785 -0.0047012437134981155 -0.007453634403645992 0 0 0 0
2274193472 0.24252603948116302 -0.14631547033786774 -0.005244643427431583 -0.007223567925393581 0 0 0 0
2277915556 0.24025505781173706 -0.17182886600494385 -0.006430687382817268 -0.00701181311160326 0 0 0 0
2281637640 0.22747918963432312 -0.19940441846847534 -0.008007572032511234 -0.006669440306723118 0 0 0 0
2285359724 0.21598896384239197 -0.21871508657932281 -0.009716888889670372 -0.00535769946873188 0 0 0 0
2289081808 0.19570636749267578 -0.23865272104740143 -0.010810354724526405 -0.0032538212835788727 0 0 0 0
2292803892 0.17164477705955505 -0.2550821602344513 -0.011271937750279903 -0.0013299677520990372 0 0 0 0
2296525976 0.15484443306922913 -0.2603553235530853 -0.01128830760717392 0.00045262090861797333 0 0 0 0
2300248060 0.13020439445972443 -0.26761436462402344 -0.011022479273378849 0.0020553208887577057 0 0 0 0
2303970144 0.11090293526649475 -0.27163147926330566 -0.010602908208966255 0.0036848345771431923 0 0 0 0
2307692228 0.0883534625172615 -0.26800981163978577 -0.010157930664718151 0.005555631592869759 0 0 0 0
2311414312 0.06301173567771912 -0.2649800479412079 -0.008538567461073399 0.007429180666804314 0 0 0 0
2315136396 0.03816377744078636 -0.2560420334339142 -0.00634639710187912 0.008648988790810108 0 0 0 0
2318858480 0.018654977902770042 -0.24316006898880005 -0.004500862210988998 0.008676527068018913 0 0 0 0
2322580564 -0.004276297986507416 -0.22519221901893616 -0.0030741291120648384 0.008259430527687073 0 0 0 0
2326302648 -0.014957226812839508 -0.204802006483078 -0.002260877750813961 0.007856659591197968 0 0 0 0
2330024732 -0.023175448179244995 -0.1830838918685913 -0.0018109772354364395 0.007849706336855888 0 0 0 0
2333746816 -0.03440443053841591 -0.157758891582489 -0.0006606122478842735 0.008045441471040249 0 0 0 0
2337468900 -0.0373297818005085 -0.13219822943210602 0.0004716683179140091 0.007955584675073624 0 0 0 0
2341190984 -0.03458189591765404 -0.10619165748357773 0.001347845420241356 0.007129611447453499 0 0 0 0
2344913068 -0.029413996264338493 -0.08017625659704208 0.0017786528915166855 0.0063882675021886826 0 0 0 0
2348635152 -0.01890171319246292 -0.0560469776391983 0.0021643685176968575 0.006019897758960724 0 0 0 0
2352357236 -0.004404260776937008 -0.03369339182972908 0.002555607818067074 0.005829907022416592 0 0 0 0
2356079320 0.014187199994921684 -0.0136129604652524 0.0032263100147247314 0.005533382296562195 0 0 0 0
2359801404 0.03608217462897301 0.0030653895810246468 0.0042474111542105675 0.004717515781521797 0 0 0 0
2363523488 0.06097779795527458 0.016304589807987213 0.0045659225434064865 0.003458058461546898 0 0 0 0
2367245572 0.08769085258245468 0.025815490633249283 0.004433036781847477 0.0022576134651899338 0 0 0 0
2370967656 0.11789491027593613 0.029359668493270874 0.003922212868928909 0.0014075199142098427 0 0 0 0
2374689740 0.147624671459198 0.026335565373301506 0.0032586511224508286 0.0009987177327275276 0 0 0 0
2378411824 0.17601141333580017 0.018236927688121796 0.002941058948636055 0.0007381131872534752 0 0 0 0
2382133908 0.20219121873378754 0.005239367485046387 0.0025025568902492523 0.0005316799506545067 0 0 0 0
2385855992 0.22479099035263062 -0.011269595474004745 0.002022786997258663 0.0005013858899474144 0 0 0 0
2389578076 0.24368715286254883 -0.03181616961956024 0.0013866759836673737 0.0006109131500124931 0 0 0 0
2393300160 0.25867682695388794 -0.0544232502579689 0.0008649397641420364 0.0012512244284152985 0 0 0 0
2397022244 0.2696210741996765 -0.07912425696849823 0.0012324033305048943 0.00216575525701046 0 0 0 0
2400744328 0.2764475643634796 -0.10410654544830322 0.0021402882412075996 0.002601870335638523 0 0 0 0
2404466412 0.2795972526073456 -0.13019222021102905 0.0032168030738830566 0.002392417751252651 0 0 0 0
2408188496 0.2801481783390045 -0.15442430973052979 0.003888486884534359 0.0019046468660235405 0 0 0 0
2411910580 0.2802249491214752 -0.17741775512695312 0.00430673360824585 0.0012494046241044998 0 0 0 0
2415632664 0.2736714482307434 -0.20010115206241608 0.004669400863349438 0.00054982490837574 0 0 0 0
2419354748 0.26041680574417114 -0.2253917157649994 0.004935011267662048 -0.0003751646727323532 0 0 0 0
2423076832 0.24706989526748657 -0.24855242669582367 0.005199965089559555 -0.0012542223557829857 0 0 0 0
2426798916 0.22851376235485077 -0.2696804404258728 0.005013821646571159 -0.002620854414999485 0 0 0 0
2430521000 0.20860078930854797 -0.2865848243236542 0.004103382118046284 -0.003516754135489464 0 0 0 0
2434243084 0.18655537068843842 -0.3006912171840668 0.0031977053731679916 -0.0038299495354294777 0 0 0 0
2437965168 0.16542021930217743 -0.309961199760437 0.002602599561214447 -0.0037332652136683464 0 0 0 0
2441687252 0.1440940946340561 -0.3164297342300415 0.002657923847436905 -0.003628005273640156 0 0 0 0
2445409336 0.11399134993553162 -0.3223918676376343 0.0027738800272345543 -0.004173595458269119 0 0 0 0
2449131420 0.08336044102907181 -0.32144033908843994 0.0028241928666830063 -0.0048146964982151985 0 0 0 0
2452853504 0.061131831258535385 -0.31599581241607666 0.0023307297378778458 -0.006107577122747898 0 0 0 0
2456575588 0.03450702875852585 -0.3069104850292206 0.001461823470890522 -0.00717543438076973 0 0 0 0
2460297672 0.01103232055902481 -0.2939373254776001 0.00034239329397678375 -0.007862497121095657 0 0 0 0
2464019756 -0.012288933619856834 -0.27807873487472534 -0.0009288862347602844 -0.008449321612715721 0 0 0 0
2467741840 -0.03224639594554901 -0.2591665983200073 -0.0026027224957942963 -0.00872107595205307 0 0 0 0
2471463924 -0.049169983714818954 -0.2378614991903305 -0.004184255376458168 -0.008678131736814976 0 0 0 0
2475186008 -0.060495708137750626 -0.21420644223690033 -0.005878578871488571 -0.00842843297868967 0 0 0 0
2478908092 -0.07120394706726074 -0.18822495639324188 -0.007740583270788193 -0.007869917899370193 0 0 0 0
2482630176 -0.07764993607997894 -0.16082413494586945 -0.009400215931236744 -0.006474708206951618 0 0 0 0
2486352260 -0.0792655199766159 -0.13371339440345764 -0.010633135214447975 -0.004649168811738491 0 0 0 0
2490074344 -0.07752685248851776 -0.10641561448574066 -0.011376938782632351 -0.002749621868133545 0 0 0 0
2493796428 -0.0707259550690651 -0.07927674800157547 -0.011620775796473026 -0.0010273810476064682 0 0 0 0
2497518512 -0.0618765652179718 -0.05236509442329407 -0.011784578673541546 0.0005646990612149239 0 0 0 0
2501240596 -0.04602642357349396 -0.028395142406225204 -0.012012979947030544 0.0021640490740537643 0 0 0 0
2504962680 -0.028081625699996948 -0.0062919240444898605 -0.012020844034850597 0.004222868010401726 0 0 0 0
2508684764 -0.00668964721262455 0.011829990893602371 -0.011219412088394165 0.006587403826415539 0 0 0 0
2512406848 0.01556280255317688 0.027286235243082047 -0.00986165925860405 0.008632582612335682 0 0 0 0
2516128932 0.04028394818305969 0.0391460582613945 -0.007958032190799713 0.010064752772450447 0 0 0 0
2519851016 0.06780394911766052 0.04818134009838104 -0.005952542647719383 0.01104129757732153 0 0 0 0
2523573100 0.09611363708972931 0.05272121727466583 -0.004064178094267845 0.01163526438176632 0 0 0 0
2527295184 0.12568026781082153 0.05033733695745468 -0.0019528800621628761 0.011919770389795303 0 0 0 0
2531017268 0.15445074439048767 0.0443892702460289 -0.00016648788005113602 0.011650677770376205 0 0 0 0
2534739352 0.18126603960990906 0.03284066915512085 0.0014534424990415573 0.011247893795371056 0 0 0 0
2538461436 0.20426130294799805 0.01919030211865902 0.003064285032451153 0.010821787640452385 0 0 0 0
2542183520 0.22479628026485443 0.0005718087777495384 0.004525423981249332 0.010030567646026611 0 0 0 0
2545905604 0.24139156937599182 -0.01984517276287079 0.0056470297276973724 0.009181383065879345 0 0 0 0
2549627688 0.2550254166126251 -0.04099111258983612 0.00682142935693264 0.00831698253750801 0 0 0 0
2553349772 0.2659313380718231 -0.06458410620689392 0.008122659288346767 0.007168767973780632 0 0 0 0
2557071856 0.2717370390892029 -0.08971597999334335 0.009192239493131638 0.0058234138414263725 0 0 0 0
2560793940 0.27534219622612 -0.11306182295084 0.00982888974249363 0.0045927418395876884 0 0 0 0
2564516024 0.27309074997901917 -0.1406966894865036 0.01078116800636053 0.003234477713704109 0 0 0 0
2568238108 0.2673913240432739 -0.16391991078853607 0.011755653657019138 0.0013977056369185448 0 0 0 0
2571960192 0.2588580548763275 -0.18536175787448883 0.012378199025988579 -0.0007066456601023674 0 0 0 0
2575682276 0.24635359644889832 -0.20482678711414337 0.01236532162874937 -0.0032226555049419403 0 0 0 0
2579404360 0.23103052377700806 -0.22264310717582703 0.0118762431666255 -0.005758165381848812 0 0 0 0
2583126444 0.21701467037200928 -0.23392672836780548 0.010754276998341084 -0.008320535533130169 0 0 0 0
2586848528 0.19508662819862366 -0.24868547916412354 0.008571331389248371 -0.010746718384325504 0 0 0 0
2590570612 0.18245285749435425 -0.2559262216091156 0.006030090153217316 -0.012130229733884335 0 0 0 0
2594292696 0.16245993971824646 -0.2634334862232208 0.0031361691653728485 -0.012779047712683678 0 0 0 0
2598014780 0.14383193850517273 -0.26721474528312683 0.0005495324730873108 -0.012782885693013668 0 0 0 0
2601736864 0.12605020403862 -0.26970043778419495 -0.001736094243824482 -0.012080122716724873 0 0 0 0
2605458948 0.10494111478328705 -0.2676657736301422 -0.0036216313019394875 -0.010815829038619995 0 0 0 0
2609181032 0.0851578414440155 -0.2644212543964386 -0.004840079694986343 -0.00962234940379858 0 0 0 0
2612903116 0.06512497365474701 -0.25773292779922485 -0.005819966085255146 -0.008478619158267975 0 0 0 0
2616625200 0.04920998215675354 -0.2468869686126709 -0.006467071361839771 -0.0075567737221717834 0 0 0 0
2620347284 0.03411295264959335 -0.23362566530704498 -0.0072885360568761826 -0.006541225127875805 0 0 0 0
2624069368 0.02162543684244156 -0.2182076871395111 -0.007710825651884079 -0.00567309744656086 0 0 0 0
2627791452 0.011717535555362701 -0.19978994131088257 -0.00818493403494358 -0.005022956989705563 0 0 0 0
2631513536 0.00590137392282486 -0.18179653584957123 -0.008765295147895813 -0.004353807307779789 0 0 0 0
2635235620 0.0044361501932144165 -0.16280509531497955 -0.009492078796029091 -0.003400026820600033 0 0 0 0
2638957704 0.005074504762887955 -0.14605912566184998 -0.010289973579347134 -0.0020362231880426407 0 0 0 0
2642679788 0.01189303770661354 -0.1273391842842102 -0.010825266130268574 -0.0003903675824403763 0 0 0 0
2646401872 0.018127767369151115 -0.11205212771892548 -0.011053352616727352 0.001403273083269596 0 0 0 0
2650123956 0.02949659153819084 -0.09818471968173981 -0.010725099593400955 0.0032954141497612 0 0 0 0
2653846040 0.04182923957705498 -0.08706692606210709 -0.009857801720499992 0.005283001810312271 0 0 0 0
2657568124 0.05691151320934296 -0.0787387564778328 -0.00855648797005415 0.006728404201567173 0 0 0 0
2661290208 0.07382774353027344 -0.0747445747256279 -0.007473960518836975 0.007768088020384312 0 0 0 0
2665012292 0.09006145596504211 -0.07482825964689255 -0.006113169714808464 0.009059721603989601 0 0 0 0
2668734376 0.10436895489692688 -0.07938069105148315 -0.004292326979339123 0.010217264294624329 0 0 0 0
2672456460 0.11885390430688858 -0.08492595702409744 -0.002208617515861988 0.010862479917705059 0 0 0 0
2676178544 0.12948934733867645 -0.09495814144611359 0.00031886622309684753 0.010963701643049717 0 0 0 0
2679900628 0.13811077177524567 -0.10645106434822083 0.002879498526453972 0.010334181599318981 0 0 0 0
2683622712 0.14477749168872833 -0.11927390098571777 0.0049284677952528 0.008929649367928505 0 0 0 0
2687344796 0.14649048447608948 -0.13217587769031525 0.006253646686673164 0.0069712260738015175 0 0 0 0
2691066880 0.1461741030216217 -0.14612963795661926 0.007099485024809837 0.005211560055613518 0 0 0 0
2694788964 0.13941925764083862 -0.16050559282302856 0.007247048430144787 0.003703574649989605 0 0 0 0
2698511048 0.13356393575668335 -0.17042315006256104 0.007614923641085625 0.002410242334008217 0 0 0 0
2702233132 0.1274498552083969 -0.1797390580177307 0.00784322153776884 0.0008649267256259918 0 0 0 0
2705955216 0.1187945008277893 -0.18813015520572662 0.007595363073050976 -0.0008936505764722824 0 0 0 0
2709677300 0.10604844987392426 -0.19537857174873352 0.006791184656322002 -0.0025072135031223297 0 0 0 0
2713399384 0.09297852218151093 -0.2010669857263565 0.005986109375953674 -0.0033863065764307976 0 0 0 0
2717121468 0.0780276283621788 -0.20214532315731049 0.00507003627717495 -0.0041236355900764465 0 0 0 0
2720843552 0.06231867894530296 -0.200683131814003 0.004425373859703541 -0.004874424077570438 0 0 0 0
2724565636 0.04742591083049774 -0.1966087371110916 0.0034919017925858498 -0.0056284163147211075 0 0 0 0
2728287720 0.03423506021499634 -0.18982228636741638 0.002371562644839287 -0.0063705602660775185 0 0 0 0
2732009804 0.02454737201333046 -0.1808369904756546 0.0009430022910237312 -0.006587447598576546 0 0 0 0
2735731888 0.012210063636302948 -0.16960786283016205 -0.00047306250780820847 -0.006514335982501507 0 0 0 0
2739453972 0.003893829882144928 -0.1571076214313507 -0.001788436435163021 -0.005863439291715622 0 0 0 0
2743176056 -0.005376357585191727 -0.1417691707611084 -0.002720324322581291 -0.004856943152844906 0 0 0 0
2746898140 -0.011505788192152977 -0.12444125860929489 -0.002968902699649334 -0.003963278606534004 0 0 0 0
2750620224 -0.012084268033504486 -0.10637453198432922 -0.0029711127281188965 -0.0035419613122940063 0 0 0 0
2754342308 -0.01076287031173706 -0.08699609339237213 -0.0033292658627033234 -0.003554781898856163 0 0 0 0
2758064392 -0.00506204180419445 -0.06969087570905685 -0.0039991289377212524 -0.0033107195049524307 0 0 0 0
2761786476 0.002868691459298134 -0.052999626845121384 -0.004950247704982758 -0.0025939829647541046 0 0 0 0
2765508560 0.01258174329996109 -0.03721277043223381 -0.005582667887210846 -0.0015704212710261345 0 0 0 0
2769230644 0.025398463010787964 -0.022197682410478592 -0.005897899158298969 -0.0002922648563981056 0 0 0 0
2772952728 0.040854305028915405 -0.008469014428555965 -0.00572444312274456 0.0010353997349739075 0 0 0 0
2776674812 0.059454791247844696 0.0021167173981666565 -0.005150049924850464 0.0025505749508738518 0 0 0 0
2780396896 0.07986671477556229 0.009640529751777649 -0.004233452491462231 0.003521554172039032 0 0 0 0
2784118980 0.10172706097364426 0.01409563235938549 -0.003048468381166458 0.0043548885732889175 0 0 0 0
2787841064 0.12419553846120834 0.012085866183042526 -0.0016589788720011711 0.004769318737089634 0 0 0 0
2791563148 0.1465715616941452 0.00958174467086792 -0.000318027101457119 0.004672032780945301 0 0 0 0
2795285232 0.16843178868293762 0.0036324411630630493 0.000919257290661335 0.004475867375731468 0 0 0 0
2799007316 0.18994413316249847 -0.0069724321365356445 0.0021426789462566376 0.003583245910704136 0 0 0 0
2802729400 0.20909333229064941 -0.02341955527663231 0.002843175083398819 0.0025774193927645683 0 0 0 0
2806451484 0.22617657482624054 -0.039416104555130005 0.003065716475248337 0.0016445452347397804 0 0 0 0
2810173568 0.24104206264019012 -0.06021110713481903 0.0030823349952697754 0.0008454741910099983 0 0 0 0
2813895652 0.25299835205078125 -0.08179524540901184 0.003060908056795597 0.00029182713478803635 0 0 0 0
2817617736 0.25834783911705017 -0.1064918041229248 0.00302055012434721 -0.00037594232708215714 0 0 0 0
2821339820 0.26000267267227173 -0.13255208730697632 0.0027634985744953156 -0.0009603016078472137 0 0 0 0
2825061904 0.2610469460487366 -0.1555141657590866 0.0025211190804839134 -0.0013225199654698372 0 0 0 0
2828783988 0.2571324110031128 -0.1805322915315628 0.0023428350687026978 -0.0015111714601516724 0 0 0 0
2832506072 0.25217026472091675 -0.20121519267559052 0.002173847518861294 -0.0018531763926148415 0 0 0 0
2836228156 0.23792943358421326 -0.22601597011089325 0.002070256508886814 -0.0021411310881376266 0 0 0 0
2839950240 0.2256360948085785 -0.2459365427494049 0.0018783295527100563 -0.0027040550485253334 0 0 0 0
2843672324 0.20976567268371582 -0.2640231251716614 0.0015968941152095795 -0.0031229928135871887 0 0 0 0
2847394408 0.19117306172847748 -0.2787216007709503 0.0009838594123721123 -0.0035807667300105095 0 0 0 0
2851116492 0.16689616441726685 -0.29672715067863464 0.00042223744094371796 -0.0038707004860043526 0 0 0 0
2854838576 0.14842677116394043 -0.30469033122062683 -0.000275464728474617 -0.004017672501504421 0 0 0 0
2858560660 0.13104063272476196 -0.3120150566101074 -0.0007996130734682083 -0.004415473900735378 0 0 0 0
2862282744 0.09986521303653717 -0.3198089599609375 -0.001742781139910221 -0.004167931154370308 0 0 0 0
2866004828 0.07851967215538025 -0.3220677375793457 -0.0025331471115350723 -0.003968911245465279 0 0 0 0
2869726912 0.05292452126741409 -0.3201921284198761 -0.00327879935503006 -0.0032046595588326454 0 0 0 0
2873448996 0.029027096927165985 -0.3156675398349762 -0.0036952942609786987 -0.0023519769310951233 0 0 0 0
2877171080 0.00558304600417614 -0.30837759375572205 -0.0037738336250185966 -0.0015702471137046814 0 0 0 0
2880893164 -0.018699035048484802 -0.2986637353897095 -0.0037043150514364243 -0.0007647201418876648 0 0 0 0
2884615248 -0.03857869654893875 -0.28404003381729126 -0.0036709606647491455 -0.00021138135343790054 0 0 0 0
2888337332 -0.05507856607437134 -0.26838967204093933 -0.0034959064796566963 0.0006001750007271767 0 0 0 0
2892059416 -0.07776293158531189 -0.24924162030220032 -0.003256753087043762 0.0012426422908902168 0 0 0 0
2895781500 -0.08868005126714706 -0.2305934727191925 -0.00283698458224535 0.0017758551985025406 0 0 0 0
2899503584 -0.10104253888130188 -0.208792045712471 -0.00214454997330904 0.002173325978219509 0 0 0 0
2903225668 -0.11457037925720215 -0.18245093524456024 -0.0017058765515685081 0.00256989523768425 0 0 0 0
2906947752 -0.11973467469215393 -0.1578730344772339 -0.0011284733191132545 0.0026974398642778397 0 0 0 0
2910669836 -0.12222863733768463 -0.13139726221561432 -0.0006661657243967056 0.002934967167675495 0 0 0 0
2914391920 -0.12258036434650421 -0.10333912074565887 -0.0002280576154589653 0.002991562709212303 0 0 0 0
2918114004 -0.11792831122875214 -0.07711704075336456 0.0003312639892101288 0.0031412718817591667 0 0 0 0
2921836088 -0.10919924080371857 -0.05236635357141495 0.0010085729882121086 0.003184489905834198 0 0 0 0
2925558172 -0.09835975617170334 -0.02833230048418045 0.001862882636487484 0.0030254004523158073 0 0 0 0
2929280256 -0.08514910936355591 -0.007524632848799229 0.002394670620560646 0.0027432171627879143 0 0 0 0
2933002340 -0.06914936751127243 0.012785058468580246 0.0029683467000722885 0.0022445498034358025 0 0 0 0
2936724424 -0.05031031370162964 0.031369276344776154 0.0033694924786686897 0.0017736060544848442 0 0 0 0
2940446508 -0.03059537708759308 0.04620959982275963 0.0036530252546072006 0.0012508369982242584 0 0 0 0
2944168592 -0.008460944518446922 0.059062208980321884 0.00384640134871006 0.000693504698574543 0 0 0 0
2947890676 0.01578254997730255 0.06964506953954697 0.004158911295235157 0.0002733655273914337 0 0 0 0
2951612760 0.040791094303131104 0.07731389999389648 0.004227754659950733 -6.739702075719833e-05 0 0 0 0
2955334844 0.06702838093042374 0.08122314512729645 0.00438858475536108 -0.0007516639307141304 0 0 0 0
2959056928 0.09422604739665985 0.08077511936426163 0.004386856220662594 -0.0015922458842396736 0 0 0 0
2962779012 0.12089577317237854 0.07832609117031097 0.00419218372553587 -0.0021051280200481415 0 0 0 0
2966501096 0.14709752798080444 0.07108630985021591 0.004043524153530598 -0.002771541476249695 0 0 0 0
2970223180 0.17327550053596497 0.05941416323184967 0.0038307970389723778 -0.00341678224503994 0 0 0 0
2973945264 0.19536718726158142 0.04345618933439255 0.0030843866989016533 -0.00411989726126194 0 0 0 0
2977667348 0.21621309220790863 0.025868818163871765 0.002392072230577469 -0.004730421118438244 0 0 0 0
2981389432 0.2327854484319687 0.007655770517885685 0.0014586327597498894 -0.005000273697078228 0 0 0 0
2985111516 0.24860285222530365 -0.015408013015985489 0.00040920916944742203 -0.005010136403143406 0 0 0 0
2988833600 0.2588895261287689 -0.040608666837215424 -0.0006185146048665047 -0.004686325788497925 0 0 0 0
2992555684 0.2658940255641937 -0.0623718723654747 -0.0012986445799469948 -0.0043251654133200645 0 0 0 0
2996277768 0.2686341404914856 -0.08932963758707047 -0.0020009558647871017 -0.0039683496579527855 0 0 0 0
2999999852 0.2689966857433319 -0.11288385838270187 -0.0025441423058509827 -0.00331790279597044 0 0 0 0
