# HZ S RI R 50
1500000000 -0.12268761545419693 -0.048053450882434845 0.033316973596811295 -0.03206230327486992 0 0 0 0
1503722084 -0.1080278679728508 -0.016409754753112793 0.027209490537643433 -0.037858087569475174 0 0 0 0
1507444168 -0.08582030236721039 0.012464947998523712 0.019305337220430374 -0.04266230762004852 0 0 0 0
1511166252 -0.05726246535778046 0.03624493256211281 0.010254292748868465 -0.04494239762425423 0 0 0 0
1514888336 -0.024423694238066673 0.05457761138677597 0.0006044413894414902 -0.044622939079999924 0 0 0 0
1518610420 0.011376488022506237 0.06711870431900024 -0.007966979406774044 -0.04178283363580704 0 0 0 0
1522332504 0.048324279487133026 0.07496825605630875 -0.014474749565124512 -0.037555355578660965 0 0 0 0
1526054588 0.08865167945623398 0.07768923789262772 -0.019682034850120544 -0.03271738439798355 0 0 0 0
1529776672 0.12993475794792175 0.07396867871284485 -0.023262986913323402 -0.027717726305127144 0 0 0 0
1533498756 0.17438100278377533 0.06191711872816086 -0.02641216665506363 -0.022112339735031128 0 0 0 0
1537220840 0.21643219888210297 0.04371026158332825 -0.02791057713329792 -0.016380153596401215 0 0 0 0
1540942924 0.2571350336074829 0.017559699714183807 -0.028010111302137375 -0.011407645419239998 0 0 0 0
1544665008 0.29370495676994324 -0.019093260169029236 -0.027417700737714767 -0.007047968916594982 0 0 0 0
1548387092 0.32455718517303467 -0.06089174747467041 -0.02700158581137657 -0.0033746669068932533 0 0 0 0
1552109176 0.346667617559433 -0.10904903709888458 -0.026152461767196655 0.0003793444484472275 0 0 0 0
1555831260 0.3624372184276581 -0.16051189601421356 -0.024780411273241043 0.003975436091423035 0 0 0 0
1559553344 0.36806806921958923 -0.21541881561279297 -0.0227728933095932 0.0070210909470915794 0 0 0 0
1563275428 0.3674708604812622 -0.27094659209251404 -0.02076125517487526 0.009400757029652596 0 0 0 0
1566997512 0.3554280996322632 -0.32726046442985535 -0.018396463245153427 0.011831743642687798 0 0 0 0
1570719596 0.3360942602157593 -0.38112765550613403 -0.015827998518943787 0.013558195903897285 0 0 0 0
1574441680 0.30572545528411865 -0.4328727722167969 -0.013139733113348484 0.01449054479598999 0 0 0 0
1578163764 0.2692874073982239 -0.47802501916885376 -0.01100898813456297 0.014889787882566452 0 0 0 0
1581885848 0.2238948941230774 -0.5199087858200073 -0.008960648439824581 0.015544005669653416 0 0 0 0
1585607932 0.1706186830997467 -0.5526651740074158 -0.007026456296443939 0.015907390043139458 0 0 0 0
1589330016 0.11583550274372101 -0.5778221487998962 -0.005283874459564686 0.01615379936993122 0 0 0 0
1593052100 0.05390280485153198 -0.5964739322662354 -0.0038119759410619736 0.01650792919099331 0 0 0 0
1596774184 -0.006399199366569519 -0.6023419499397278 -0.002054678276181221 0.01719381846487522 0 0 0 0
1600496268 -0.06924454867839813 -0.601153552532196 0.00018932856619358063 0.017593473196029663 0 0 0 0
1604218352 -0.13598059117794037 -0.5889879465103149 0.002853839658200741 0.01763850823044777 0 0 0 0
1607940436 -0.19302113354206085 -0.568191409111023 0.005230443552136421 0.017173882573843002 0 0 0 0
1611662520 -0.25193601846694946 -0.5399335026741028 0.007708054967224598 0.016415968537330627 0 0 0 0
1615384604 -0.30823856592178345 -0.5003917217254639 0.009983205236494541 0.015262261964380741 0 0 0 0
1619106688 -0.35665181279182434 -0.45354562997817993 0.012156190350651741 0.014102321118116379 0 0 0 0
1622828772 -0.3987240791320801 -0.39997339248657227 0.014609535224735737 0.01255078800022602 0 0 0 0
1626550856 -0.433541476726532 -0.3411603569984436 0.016979722306132317 0.010514862835407257 0 0 0 0
1630272940 -0.45985567569732666 -0.2722851037979126 0.018957771360874176 0.007593758404254913 0 0 0 0
1633995024 -0.47531116008758545 -0.20455244183540344 0.02059260942041874 0.004449357278645039 0 0 0 0
1637717108 -0.4822959303855896 -0.1291469931602478 0.021532177925109863 0.0005597900599241257 0 0 0 0
1641439192 -0.4773755371570587 -0.05631384253501892 0.02165699191391468 -0.0032298127189278603 0 0 0 0
1645161276 -0.4593431353569031 0.019245341420173645 0.02106894552707672 -0.007502315565943718 0 0 0 0
1648883360 -0.42957037687301636 0.09241952002048492 0.01965383253991604 -0.011481110006570816 0 0 0 0
1652605444 -0.38868993520736694 0.16113924980163574 0.017270511016249657 -0.01551059540361166 0 0 0 0
1656327528 -0.3380584418773651 0.2215808928012848 0.013797564432024956 -0.019008902832865715 0 0 0 0
1660049612 -0.27618208527565 0.27441325783729553 0.009445861913263798 -0.0213002972304821 0 0 0 0
1663771696 -0.20905494689941406 0.31616532802581787 0.004848858341574669 -0.022374125197529793 0 0 0 0
1667493780 -0.13074004650115967 0.35027676820755005 0.00017364602535963058 -0.022312533110380173 0 0 0 0
1671215864 -0.05318520963191986 0.37004199624061584 -0.003912193700671196 -0.02147846296429634 0 0 0 0
1674937948 0.03175196051597595 0.3776759207248688 -0.008169900625944138 -0.019735237583518028 0 0 0 0
1678660032 0.11823107302188873 0.37149426341056824 -0.011761740781366825 -0.017112532630562782 0 0 0 0
1682382116 0.197449192404747 0.3516477346420288 -0.014310190454125404 -0.013775539584457874 0 0 0 0
1686104200 0.27687782049179077 0.31926605105400085 -0.016019852831959724 -0.010163044556975365 0 0 0 0
1689826284 0.3505662977695465 0.2706126272678375 -0.01696092076599598 -0.006326464936137199 0 0 0 0
1693548368 0.41109925508499146 0.21994692087173462 -0.017001599073410034 -0.0026889117434620857 0 0 0 0
1697270452 0.465802937746048 0.15371480584144592 -0.01605207473039627 0.0007921746000647545 0 0 0 0
1700992536 0.5072851181030273 0.08559698611497879 -0.014534298330545425 0.003599083051085472 0 0 0 0
1704714620 0.5380662679672241 0.008534923195838928 -0.012766152620315552 0.005700967274606228 0 0 0 0
1708436704 0.5552141666412354 -0.07286302745342255 -0.010751373134553432 0.00759369321167469 0 0 0 0
1712158788 0.5606440305709839 -0.15247373282909393 -0.008561406284570694 0.00926542840898037 0 0 0 0
1715880872 0.5528967380523682 -0.23239633440971375 -0.005703828297555447 0.010099357925355434 0 0 0 0
1719602956 0.5358268022537231 -0.3074875473976135 -0.002919144928455353 0.010126442648470402 0 0 0 0
1723325040 0.505379855632782 -0.37879478931427 -0.000467558391392231 0.00923369824886322 0 0 0 0
1727047124 0.4641318917274475 -0.44592273235321045 0.001040779985487461 0.0077581461519002914 0 0 0 0
1730769208 0.41141271591186523 -0.5051984786987305 0.0018170122057199478 0.006426096893846989 0 0 0 0
1734491292 0.3570038974285126 -0.5518277883529663 0.002376250922679901 0.005449503660202026 0 0 0 0
1738213376 0.2876150608062744 -0.5936428308486938 0.0029626497998833656 0.004368552006781101 0 0 0 0
1741935460 0.21934594213962555 -0.6208792924880981 0.0030974410474300385 0.003235330805182457 0 0 0 0
1745657544 0.151149183511734 -0.6363561749458313 0.002834073267877102 0.002154553309082985 0 0 0 0
1749379628 0.07888701558113098 -0.6395882368087769 0.0022417213767766953 0.001680765300989151 0 0 0 0
1753101712 0.012479525059461594 -0.6343765258789062 0.0019047735258936882 0.001679430715739727 0 0 0 0
1756823796 -0.05879811942577362 -0.6175054311752319 0.0017032874748110771 0.001701616682112217 0 0 0 0
1760545880 -0.12076686322689056 -0.5898423194885254 0.0017938967794179916 0.0018231654539704323 0 0 0 0
1764267964 -0.17661632597446442 -0.5552678108215332 0.002188298851251602 0.0017146524041891098 0 0 0 0
1767990048 -0.22394683957099915 -0.5125197768211365 0.0026773950085043907 0.0013385973870754242 0 0 0 0
1771712132 -0.2680755853652954 -0.465284138917923 0.0030029816552996635 0.0005409102886915207 0 0 0 0
1775434216 -0.29649925231933594 -0.4174806773662567 0.002977493219077587 -0.00031828973442316055 0 0 0 0
1779156300 -0.32335102558135986 -0.36074280738830566 0.002460298128426075 -0.0013353237882256508 0 0 0 0
1782878384 -0.338925302028656 -0.30772221088409424 0.0012611448764801025 -0.002061339095234871 0 0 0 0
1786600468 -0.3504756689071655 -0.2504483163356781 -0.0002284003421664238 -0.002187891863286495 0 0 0 0
1790322552 -0.35213804244995117 -0.19258084893226624 -0.001721876673400402 -0.0014303959906101227 0 0 0 0
1794044636 -0.346609503030777 -0.13726739585399628 -0.0027153249830007553 -0.00016316212713718414 0 0 0 0
1797766720 -0.33277732133865356 -0.08091261982917786 -0.003216625191271305 0.0016898466274142265 0 0 0 0
1801488804 -0.31021636724472046 -0.030663933604955673 -0.0027156611904501915 0.0039207823574543 0 0 0 0
1805210888 -0.2809503674507141 0.018115930259227753 -0.0010926732793450356 0.005751337856054306 0 0 0 0
1808932972 -0.24484524130821228 0.060937829315662384 0.0013236980885267258 0.006467022933065891 0 0 0 0
1812655056 -0.20361652970314026 0.09653328359127045 0.0032797055318951607 0.006271706894040108 0 0 0 0
1816377140 -0.1565236747264862 0.12657351791858673 0.005014792084693909 0.006090213544666767 0 0 0 0
1820099224 -0.1058834046125412 0.1475590020418167 0.0074638137593865395 0.0054876962676644325 0 0 0 0
1823821308 -0.0533982515335083 0.16038446128368378 0.00988413579761982 0.0032371338456869125 0 0 0 0
1827543392 -7.917732000350952e-05 0.16451914608478546 0.011087922379374504 -1.982506364583969e-05 0 0 0 0
1831265476 0.0513787642121315 0.15985490381717682 0.01097613014280796 -0.0031417254358530045 0 0 0 0
1834987560 0.10041359812021255 0.147091805934906 0.009572011418640614 -0.006241253577172756 0 0 0 0
1838709644 0.146219402551651 0.12758134305477142 0.007242834195494652 -0.008253163658082485 0 0 0 0
1842431728 0.18799923360347748 0.10088242590427399 0.004863658919930458 -0.008795824833214283 0 0 0 0
1846153812 0.22251641750335693 0.06886260956525803 0.0032122014090418816 -0.008247493766248226 0 0 0 0
1849875896 0.2511126697063446 0.03271808475255966 0.0026390980929136276 -0.007718254812061787 0 0 0 0
1853597980 0.2733752727508545 -0.0036436542868614197 0.0025156009942293167 -0.008201530203223228 0 0 0 0
1857320064 0.28966978192329407 -0.044855233281850815 0.0020443182438611984 -0.009261064231395721 0 0 0 0
1861042148 0.2993232309818268 -0.08853653073310852 0.0005361456423997879 -0.01084141992032528 0 0 0 0
1864764232 0.30152833461761475 -0.13018667697906494 -0.00178625900298357 -0.01156653556972742 0 0 0 0
1868486316 0.29723888635635376 -0.16992491483688354 -0.004449281841516495 -0.011250986717641354 0 0 0 0
1872208400 0.2853597402572632 -0.20876659452915192 -0.006587114185094833 -0.010076134465634823 0 0 0 0
1875930484 0.26842162013053894 -0.2457936853170395 -0.008038963191211224 -0.008708059787750244 0 0 0 0
1879652568 0.2456570416688919 -0.2784452736377716 -0.008516700007021427 -0.00811657402664423 0 0 0 0
1883374652 0.2193262279033661 -0.30519697070121765 -0.009885451756417751 -0.00811326876282692 0 0 0 0
1887096736 0.18721668422222137 -0.3275108337402344 -0.012666033580899239 -0.008097647689282894 0 0 0 0
1890818820 0.1519538164138794 -0.3418259024620056 -0.01602381467819214 -0.006352459080517292 0 0 0 0
1894540904 0.11790060997009277 -0.34862077236175537 -0.01905561424791813 -0.0028758496046066284 0 0 0 0
1898262988 0.0823691114783287 -0.34863683581352234 -0.020763268694281578 0.0023052720353007317 0 0 0 0
1901985072 0.049593549221754074 -0.3425745964050293 -0.02007763274013996 0.0075143128633499146 0 0 0 0
1905707156 0.01824057102203369 -0.3331476151943207 -0.018243998289108276 0.011950690299272537 0 0 0 0
1909429240 -0.0077470093965530396 -0.31795769929885864 -0.015972748398780823 0.015809232369065285 0 0 0 0
1913151324 -0.029428631067276 -0.29994550347328186 -0.01244358904659748 0.019696194678544998 0 0 0 0
1916873408 -0.050429295748472214 -0.2785586714744568 -0.0076219467446208 0.022952014580368996 0 0 0 0
1920595492 -0.0664171501994133 -0.25382664799690247 -0.001695435494184494 0.02433924376964569 0 0 0 0
1924317576 -0.07516725361347198 -0.22790145874023438 0.004459267482161522 0.02357010543346405 0 0 0 0
1928039660 -0.08073968440294266 -0.2009720802307129 0.009851453825831413 0.021186377853155136 0 0 0 0
1931761744 -0.08272290229797363 -0.17596012353897095 0.014479088596999645 0.017191791906952858 0 0 0 0
1935483828 -0.0804825946688652 -0.15102118253707886 0.0168716199696064 0.012232508510351181 0 0 0 0
1939205912 -0.07674555480480194 -0.126349076628685 0.01714346744120121 0.007499294355511665 0 0 0 0
1942927996 -0.0678008496761322 -0.10108855366706848 0.01617390289902687 0.003976142965257168 0 0 0 0
1946650080 -0.05388545244932175 -0.07804056257009506 0.01509079709649086 0.0017958050593733788 0 0 0 0
1950372164 -0.03579361364245415 -0.05627349391579628 0.014587259851396084 0.00012592878192663193 0 0 0 0
1954094248 -0.013986567035317421 -0.03923409804701805 0.014775296673178673 -0.0010596169158816338 0 0 0 0
1957816332 0.010877357795834541 -0.025773504748940468 0.014885982498526573 -0.003467995673418045 0 0 0 0
1961538416 0.038054775446653366 -0.017268259078264236 0.014419013634324074 -0.005957538262009621 0 0 0 0
1965260500 0.06694865226745605 -0.013454264961183071 0.013129333034157753 -0.00833878107368946 0 0 0 0
1968982584 0.09748886525630951 -0.015587083995342255 0.01247706450521946 -0.010116896592080593 0 0 0 0
1972704668 0.1267492026090622 -0.024805333465337753 0.011464261449873447 -0.01298423483967781 0 0 0 0
1976426752 0.15246787667274475 -0.03919226676225662 0.00973464548587799 -0.01630016602575779 0 0 0 0
1980148836 0.17470839619636536 -0.059965889900922775 0.0059579238295555115 -0.019252382218837738 0 0 0 0
1983870920 0.19163261353969574 -0.08387985080480576 0.0014109667390584946 -0.02088214084506035 0 0 0 0
1987593004 0.2038147896528244 -0.10894005000591278 -0.003625056706368923 -0.021151293069124222 0 0 0 0
1991315088 0.2111872434616089 -0.1349906176328659 -0.008428415283560753 -0.020238367840647697 0 0 0 0
1995037172 0.21260875463485718 -0.16347286105155945 -0.013145748525857925 -0.017472725361585617 0 0 0 0
1998759256 0.20941297709941864 -0.18975450098514557 -0.016332661733031273 -0.013567608781158924 0 0 0 0
2002481340 0.2030462622642517 -0.21376700699329376 -0.0178262609988451 -0.009765536524355412 0 0 0 0
2006203424 0.19116002321243286 -0.23726440966129303 -0.01843074895441532 -0.006329572759568691 0 0 0 0
2009925508 0.1768363118171692 -0.2586005926132202 -0.018758710473775864 -0.00351905170828104 0 0 0 0
2013647592 0.16077695786952972 -0.2762574553489685 -0.01923198252916336 -0.0008233124390244484 0 0 0 0
2017369676 0.13808855414390564 -0.2927088141441345 -0.019722219556570053 0.0017366008833050728 0 0 0 0
2021091760 0.11467520147562027 -0.3058091402053833 -0.020174365490674973 0.005213689990341663 0 0 0 0
2024813844 0.08814632892608643 -0.3134858012199402 -0.019684268161654472 0.009127388708293438 0 0 0 0
2028535928 0.05987362563610077 -0.3168308734893799 -0.01783064380288124 0.013819960877299309 0 0 0 0
2032258012 0.034238219261169434 -0.3150191009044647 -0.014971748925745487 0.01711987517774105 0 0 0 0
2035980096 0.004756256937980652 -0.3090989887714386 -0.011448834091424942 0.01955055631697178 0 0 0 0
2039702180 -0.02067182958126068 -0.2980910539627075 -0.007844571024179459 0.021273011341691017 0 0 0 0
2043424264 -0.04456009715795517 -0.2816472053527832 -0.003521363250911236 0.022363906726241112 0 0 0 0
2047146348 -0.06891053915023804 -0.26120972633361816 0.0005617300048470497 0.022316422313451767 0 0 0 0
2050868432 -0.08645313233137131 -0.23948010802268982 0.004555782303214073 0.02143225260078907 0 0 0 0
2054590516 -0.1017683818936348 -0.2120780646800995 0.008191520348191261 0.02069207839667797 0 0 0 0
2058312600 -0.11320144683122635 -0.1837812215089798 0.011210355907678604 0.01906578801572323 0 0 0 0
2062034684 -0.12092806398868561 -0.15289093554019928 0.01479699369519949 0.016594741493463516 0 0 0 0
2065756768 -0.12138350307941437 -0.11999940872192383 0.01770399510860443 0.013792297802865505 0 0 0 0
2069478852 -0.11918271332979202 -0.08510896563529968 0.019937442615628242 0.00987470056861639 0 0 0 0
2073200936 -0.10938103497028351 -0.05121960490942001 0.021179327741265297 0.0054161157459020615 0 0 0 0
2076923020 -0.09245465695858002 -0.018699944019317627 0.02101234346628189 0.0007406510412693024 0 0 0 0
2080645104 -0.07058693468570709 0.01015473622828722 0.01965680532157421 -0.0024811653420329094 0 0 0 0
2084367188 -0.04335450753569603 0.0352771058678627 0.018037308007478714 -0.005607071332633495 0 0 0 0
2088089272 -0.01213168166577816 0.05611437186598778 0.015871787443757057 -0.0075888801366090775 0 0 0 0
2091811356 0.022260140627622604 0.07095258682966232 0.014492318034172058 -0.009111471474170685 0 0 0 0
2095533440 0.058704178780317307 0.07954174280166626 0.013481088913977146 -0.010839094407856464 0 0 0 0
2099255524 0.09619177132844925 0.08250527828931808 0.012461933307349682 -0.012830764055252075 0 0 0 0
2102977608 0.1342352032661438 0.07835154235363007 0.010326872579753399 -0.01564279943704605 0 0 0 0
2106699692 0.1711733043193817 0.06934245675802231 0.007373702712357044 -0.017975259572267532 0 0 0 0
2110421776 0.2065591812133789 0.051379524171352386 0.0033917194232344627 -0.01922387257218361 0 0 0 0
2114143860 0.23805560171604156 0.028191540390253067 -0.0005315300077199936 -0.019106606021523476 0 0 0 0
2117865944 0.2644880712032318 0.0037573501467704773 -0.0037682848051190376 -0.01886671409010887 0 0 0 0
2121588028 0.2842288315296173 -0.02770419418811798 -0.007421323098242283 -0.018045319244265556 0 0 0 0
2125310112 0.2994464337825775 -0.05935400724411011 -0.01135964598506689 -0.016449803486466408 0 0 0 0
2129032196 0.30815160274505615 -0.09466686099767685 -0.015074805356562138 -0.013312687166035175 0 0 0 0
2132754280 0.3119371831417084 -0.129279226064682 -0.01756857894361019 -0.008911006152629852 0 0 0 0
2136476364 0.31098708510398865 -0.16332581639289856 -0.018044212833046913 -0.004064262844622135 0 0 0 0
2140198448 0.30468401312828064 -0.19785553216934204 -0.01673254370689392 5.8290548622608185e-05 0 0 0 0
2143920532 0.2942430377006531 -0.22862106561660767 -0.014890938997268677 0.0027712127193808556 0 0 0 0
2147642616 0.2753766179084778 -0.259416788816452 -0.012930190190672874 0.00454725231975317 0 0 0 0
2151364700 0.25330406427383423 -0.28538069128990173 -0.011145434342324734 0.005938795395195484 0 0 0 0
2155086784 0.2298133373260498 -0.30642169713974 -0.009310584515333176 0.006617417559027672 0 0 0 0
2158808868 0.20258058607578278 -0.32340767979621887 -0.00798825640231371 0.006798534654080868 0 0 0 0
2162530952 0.17276643216609955 -0.33506345748901367 -0.00735899806022644 0.006765241734683514 0 0 0 0
2166253036 0.14305154979228973 -0.3424144983291626 -0.007027863524854183 0.0073549943044781685 0 0 0 0
2169975120 0.11297306418418884 -0.34533023834228516 -0.006787608377635479 0.008586029522120953 0 0 0 0
2173697204 0.08530588448047638 -0.34366896748542786 -0.005634332075715065 0.010043954476714134 0 0 0 0
2177419288 0.04969993978738785 -0.33853447437286377 -0.0037237126380205154 0.01093070488423109 0 0 0 0
2181141372 0.02323193848133087 -0.32878226041793823 -0.002069915644824505 0.011182326823472977 0 0 0 0
2184863456 -0.0036870986223220825 -0.3140259087085724 -0.0007895184680819511 0.01140674389898777 0 0 0 0
2188585540 -0.0287361741065979 -0.2953580617904663 0.0008724071085453033 0.011515880934894085 0 0 0 0
2192307624 -0.049297966063022614 -0.27258431911468506 0.0026131169870495796 0.011856982484459877 0 0 0 0
2196029708 -0.06901133060455322 -0.24472370743751526 0.005032127723097801 0.011487609706819057 0 0 0 0
2199751792 -0.07865630835294724 -0.2157961130142212 0.0072797806933522224 0.010692223906517029 0 0 0 0
2203473876 -0.08799232542514801 -0.18362481892108917 0.009387308731675148 0.008997626602649689 0 0 0 0
2207195960 -0.08848884701728821 -0.15286660194396973 0.010763072408735752 0.007041413336992264 0 0 0 0
2210918044 -0.08448751270771027 -0.12135448306798935 0.01162446103990078 0.004872515797615051 0 0 0 0
2214640128 -0.07507596909999847 -0.09262676537036896 0.012276029214262962 0.0029846448451280594 0 0 0 0
2218362212 -0.0629262924194336 -0.06429634988307953 0.012791530229151249 0.000818006694316864 0 0 0 0
2222084296 -0.046008698642253876 -0.03842673823237419 0.01304483599960804 -0.0017520776018500328 0 0 0 0
2225806380 -0.024117035791277885 -0.01674024388194084 0.012953681871294975 -0.00454547256231308 0 0 0 0
2229528464 0.0011188127100467682 0.0023533692583441734 0.011689446866512299 -0.007858472876250744 0 0 0 0
2233250548 0.02951384335756302 0.016028987243771553 0.009333014488220215 -0.010649966076016426 0 0 0 0
2236972632 0.060184840112924576 0.023582054302096367 0.0060569532215595245 -0.012158965691924095 0 0 0 0
2240694716 0.09204946458339691 0.024553652852773666 0.0030310358852148056 -0.012693315744400024 0 0 0 0
2244416800 0.12288551777601242 0.02089107781648636 0.00023828167468309402 -0.01267760619521141 0 0 0 0
2248138884 0.15092840790748596 0.01014634594321251 -0.002543611451983452 -0.01166539080440998 0 0 0 0
2251860968 0.17626383900642395 -0.005781091749668121 -0.004588760435581207 -0.010356225073337555 0 0 0 0
2255583052 0.19750583171844482 -0.02422722429037094 -0.006112228147685528 -0.0088314488530159 0 0 0 0
2259305136 0.21589693427085876 -0.042150869965553284 -0.007215473800897598 -0.007410186342895031 0 0 0 0
2263027220 0.22779595851898193 -0.07226886600255966 -0.008234438486397266 -0.005819746293127537 0 0 0 0
2266749304 0.23668959736824036 -0.09388300776481628 -0.008932854048907757 -0.004000063985586166 0 0 0 0
2270471388 0.24119877815246582 -0.11959794163703918 -0.009024571627378464 -0.0022123176604509354 0 0 0 0
2274193472 0.23972481489181519 -0.14371664822101593 -0.008722479455173016 -0.0005505578592419624 0 0 0 0
2277915556 0.23418153822422028 -0.17090988159179688 -0.008082201704382896 0.000728989951312542 0 0 0 0
2281637640 0.22503311932086945 -0.19476179778575897 -0.007669635117053986 0.0014720726758241653 0 0 0 0
2285359724 0.21065643429756165 -0.21651582419872284 -0.007195090875029564 0.0022571785375475883 0 0 0 0
2289081808 0.19556760787963867 -0.23246237635612488 -0.006683504208922386 0.003158741630613804 0 0 0 0
2292803892 0.17801474034786224 -0.24596625566482544 -0.005751095712184906 0.004259475506842136 0 0 0 0
2296525976 0.1518278419971466 -0.2580929100513458 -0.00475655123591423 0.004636099562048912 0 0 0 0
2300248060 0.13862141966819763 -0.2617177367210388 -0.0041314782574772835 0.004657291807234287 0 0 0 0
2303970144 0.11220626533031464 -0.2692412734031677 -0.0034851115196943283 0.004962367005646229 0 0 0 0
2307692228 0.08888460695743561 -0.2677835524082184 -0.0026987893506884575 0.005444921553134918 0 0 0 0
2311414312 0.06341300159692764 -0.26460564136505127 -0.0013682935386896133 0.005332931876182556 0 0 0 0
2315136396 0.04104717820882797 -0.25612708926200867 -0.00015046261250972748 0.00484337005764246 0 0 0 0
2318858480 0.018119677901268005 -0.24393725395202637 0.0006565246731042862 0.0037452159449458122 0 0 0 0
2322580564 -0.0014175251126289368 -0.2265329658985138 0.0007163584232330322 0.0026295948773622513 0 0 0 0
2326302648 -0.015447616577148438 -0.2049877941608429 0.0005003931000828743 0.0016193697229027748 0 0 0 0
2330024732 -0.02556542307138443 -0.1825801283121109 -0.00017372425645589828 0.001188645139336586 0 0 0 0
2333746816 -0.03332185745239258 -0.1576814502477646 -0.0008422406390309334 0.0009590797126293182 0 0 0 0
2337468900 -0.03832187131047249 -0.1310664415359497 -0.0012702979147434235 0.001078721135854721 0 0 0 0
2341190984 -0.03376074135303497 -0.105553537607193 -0.0017951540648937225 0.0010851575061678886 0 0 0 0
2344913068 -0.027487682178616524 -0.07950437068939209 -0.00231283251196146 0.0010353391990065575 0 0 0 0
2348635152 -0.016010990366339684 -0.055215023458004 -0.002906770445406437 0.0015837820246815681 0 0 0 0
2352357236 -0.001217949204146862 -0.03430095687508583 -0.003067176789045334 0.0024826806038618088 0 0 0 0
2356079320 0.017196524888277054 -0.015714779496192932 -0.0027726320549845695 0.0033299382776021957 0 0 0 0
2359801404 0.03803864121437073 -0.00019726064056158066 -0.0023288819938898087 0.003764369525015354 0 0 0 0
2363523488 0.061722904443740845 0.01151325274258852 -0.001883178949356079 0.003838985227048397 0 0 0 0
2367245572 0.08681724965572357 0.02096133679151535 -0.0018234094604849815 0.004188338294625282 0 0 0 0
2370967656 0.11530604958534241 0.023983437567949295 -0.0018081637099385262 0.004523139446973801 0 0 0 0
2374689740 0.14253753423690796 0.022503424435853958 -0.0015119584277272224 0.005095195025205612 0 0 0 0
2378411824 0.1698060929775238 0.015077359974384308 -0.0009243115782737732 0.005664365366101265 0 0 0 0
2382133908 0.1950834095478058 0.005192860960960388 -0.0003673965111374855 0.005624124780297279 0 0 0 0
2385855992 0.21814507246017456 -0.011450909078121185 0.0003664996474981308 0.005980062298476696 0 0 0 0
2389578076 0.2379225492477417 -0.0276237353682518 0.0007813321426510811 0.006052777171134949 0 0 0 0
2393300160 0.253498375415802 -0.04913758113980293 0.0011133486405014992 0.006553942337632179 0 0 0 0
2397022244 0.2655906677246094 -0.07158737629652023 0.00189141184091568 0.007453955709934235 0 0 0 0
2400744328 0.2757773995399475 -0.09751046448945999 0.0036684665828943253 0.008026585914194584 0 0 0 0
2404466412 0.2809375822544098 -0.12324963510036469 0.006031488999724388 0.008013015612959862 0 0 0 0
2408188496 0.28305068612098694 -0.14815914630889893 0.008302902802824974 0.006777911446988583 0 0 0 0
2411910580 0.28263330459594727 -0.17099492251873016 0.010013950988650322 0.005140750668942928 0 0 0 0
2415632664 0.2743930220603943 -0.1994355022907257 0.011181802488863468 0.0027872156351804733 0 0 0 0
2419354748 0.26296088099479675 -0.22574211657047272 0.01184613537043333 0.00029305461794137955 0 0 0 0
2423076832 0.2512827515602112 -0.24776186048984528 0.011875788681209087 -0.002344035543501377 0 0 0 0
2426798916 0.2326793074607849 -0.269658625125885 0.011024966835975647 -0.004769768565893173 0 0 0 0
2430521000 0.21233370900154114 -0.28694313764572144 0.00945289060473442 -0.006788649596273899 0 0 0 0
2434243084 0.18943792581558228 -0.29945921897888184 0.007724125869572163 -0.008141867816448212 0 0 0 0
2437965168 0.16745734214782715 -0.3100461959838867 0.006272026337683201 -0.008932918310165405 0 0 0 0
2441687252 0.14334404468536377 -0.3178078830242157 0.004813206382095814 -0.009514622390270233 0 0 0 0
2445409336 0.1155620813369751 -0.3222089409828186 0.003433164209127426 -0.009910902939736843 0 0 0 0
2449131420 0.08682538568973541 -0.3223893940448761 0.0024178456515073776 -0.010542690753936768 0 0 0 0
2452853504 0.06235590577125549 -0.3175223171710968 0.0009547127410769463 -0.011011798866093159 0 0 0 0
2456575588 0.03432215750217438 -0.30792105197906494 -0.00038909912109375 -0.01165722031146288 0 0 0 0
2460297672 0.01000610925257206 -0.2971302270889282 -0.0022964579984545708 -0.012013657949864864 0 0 0 0
2464019756 -0.01221531629562378 -0.28211379051208496 -0.004562510177493095 -0.01221948117017746 0 0 0 0
2467741840 -0.03385777771472931 -0.2615114450454712 -0.006563846953213215 -0.01167355664074421 0 0 0 0
2471463924 -0.05077825486660004 -0.23918674886226654 -0.008616688661277294 -0.010750258341431618 0 0 0 0
2475186008 -0.06268613785505295 -0.2158518135547638 -0.010451189242303371 -0.009511434473097324 0 0 0 0
2478908092 -0.07218900322914124 -0.18979120254516602 -0.012299264781177044 -0.008231856860220432 0 0 0 0
2482630176 -0.07887502014636993 -0.16299380362033844 -0.013890208676457405 -0.006189880892634392 0 0 0 0
2486352260 -0.08151799440383911 -0.13489371538162231 -0.01534226443618536 -0.003956261090934277 0 0 0 0
2490074344 -0.08075133711099625 -0.1062006801366806 -0.016476957127451897 -0.0011092908680438995 0 0 0 0
2493796428 -0.07360175997018814 -0.07795238494873047 -0.016668474301695824 0.0022602379322052 0 0 0 0
2497518512 -0.06318629533052444 -0.05105176940560341 -0.01574547216296196 0.005513857118785381 0 0 0 0
2501240596 -0.048071932047605515 -0.02773810736835003 -0.014345832169055939 0.007971854880452156 0 0 0 0
2504962680 -0.029511969536542892 -0.006189956329762936 -0.012688466347754002 0.00997171737253666 0 0 0 0
2508684764 -0.008914549835026264 0.012944541871547699 -0.010465622879564762 0.012113451957702637 0 0 0 0
2512406848 0.014641968533396721 0.028185268864035606 -0.008341069333255291 0.013661657460033894 0 0 0 0
2516128932 0.04060528427362442 0.040205974131822586 -0.005703664384782314 0.014700807631015778 0 0 0 0
2519851016 0.06846362352371216 0.048873331397771835 -0.0030258772894740105 0.015148123726248741 0 0 0 0
2523573100 0.0979577824473381 0.05196249857544899 -0.00027670711278915405 0.015343168750405312 0 0 0 0
2527295184 0.12718290090560913 0.049934618175029755 0.0023562395945191383 0.015055481344461441 0 0 0 0
2531017268 0.1557794064283371 0.042077913880348206 0.005430625751614571 0.014175230637192726 0 0 0 0
2534739352 0.18073223531246185 0.031329527497291565 0.008087817579507828 0.012379243969917297 0 0 0 0
2538461436 0.2031453251838684 0.01772906258702278 0.010047048330307007 0.009856754913926125 0 0 0 0
2542183520 0.22299912571907043 -0.0025562047958374023 0.01130585465580225 0.007195550948381424 0 0 0 0
2545905604 0.2387618124485016 -0.02050849050283432 0.011911810375750065 0.004544238559901714 0 0 0 0
2549627688 0.2514590620994568 -0.04233263432979584 0.011856971308588982 0.0020993081852793694 0 0 0 0
2553349772 0.26306280493736267 -0.06349753588438034 0.011367715895175934 -0.00033936090767383575 0 0 0 0
2557071856 0.26719146966934204 -0.09062860906124115 0.01003102958202362 -0.0026948321610689163 0 0 0 0
2560793940 0.27120596170425415 -0.11391054093837738 0.008460471406579018 -0.003949583508074284 0 0 0 0
2564516024 0.2696082592010498 -0.1389540731906891 0.0073087746277451515 -0.004518469795584679 0 0 0 0
2568238108 0.264726847410202 -0.16057054698467255 0.006368049420416355 -0.005227782763540745 0 0 0 0
2571960192 0.25485241413116455 -0.1833043098449707 0.00527585856616497 -0.005717691965401173 0 0 0 0
2575682276 0.2440393716096878 -0.20281386375427246 0.004541166126728058 -0.0061673251911997795 0 0 0 0
2579404360 0.23009814321994781 -0.2189328968524933 0.003729148767888546 -0.006732160225510597 0 0 0 0
2583126444 0.2132178544998169 -0.234089195728302 0.0026714401319622993 -0.007416918873786926 0 0 0 0
2586848528 0.19900886714458466 -0.24355748295783997 0.0012672226876020432 -0.0078200101852417 0 0 0 0
2590570612 0.18097160756587982 -0.2532598674297333 -0.0002408018335700035 -0.007801552303135395 0 0 0 0
2594292696 0.16268591582775116 -0.2598544955253601 -0.001440439373254776 -0.007292472757399082 0 0 0 0
2598014780 0.1438819169998169 -0.2643624246120453 -0.0025357669219374657 -0.007034242153167725 0 0 0 0
2601736864 0.12558375298976898 -0.26668021082878113 -0.0035070469602942467 -0.006316348910331726 0 0 0 0
2605458948 0.10366356372833252 -0.26526641845703125 -0.004350867122411728 -0.005016891285777092 0 0 0 0
2609181032 0.0834689810872078 -0.26067352294921875 -0.004412099719047546 -0.003923768177628517 0 0 0 0
2612903116 0.06786079704761505 -0.25184008479118347 -0.004370412789285183 -0.003463790751993656 0 0 0 0
2616625200 0.04803132265806198 -0.24269819259643555 -0.004500312730669975 -0.002983671613037586 0 0 0 0
2620347284 0.03698036074638367 -0.2292080968618393 -0.004609975032508373 -0.002514162100851536 0 0 0 0
2624069368 0.02546045184135437 -0.2153390794992447 -0.004565638490021229 -0.0020038383081555367 0 0 0 0
2627791452 0.01799384504556656 -0.19796361029148102 -0.004767582751810551 -0.0019149081781506538 0 0 0 0
2631513536 0.013310694135725498 -0.1808217316865921 -0.005037256516516209 -0.0017298776656389236 0 0 0 0
2635235620 0.011434025131165981 -0.16400377452373505 -0.005617481656372547 -0.0010978840291500092 0 0 0 0
2638957704 0.011386601254343987 -0.1456456333398819 -0.00586230494081974 1.8494203686714172e-05 0 0 0 0
2642679788 0.016932960599660873 -0.1303849220275879 -0.00566491112112999 0.000933326780796051 0 0 0 0
2646401872 0.02289951778948307 -0.1161726713180542 -0.005181727930903435 0.001722392626106739 0 0 0 0
2650123956 0.03299825266003609 -0.10384567081928253 -0.0046064527705311775 0.0025485800579190254 0 0 0 0
2653846040 0.042552363127470016 -0.09433633089065552 -0.0036903787404298782 0.002969205379486084 0 0 0 0
2657568124 0.05676250532269478 -0.08637775480747223 -0.0031034406274557114 0.0028061140328645706 0 0 0 0
2661290208 0.07054220885038376 -0.08229084312915802 -0.002761315554380417 0.0026524215936660767 0 0 0 0
2665012292 0.08432044833898544 -0.08108414709568024 -0.0028312113136053085 0.0029250886291265488 0 0 0 0
2668734376 0.09829367697238922 -0.08302628248929977 -0.002375253476202488 0.0032952502369880676 0 0 0 0
2672456460 0.11092765629291534 -0.08656711131334305 -0.0019987374544143677 0.003427201882004738 0 0 0 0
2676178544 0.12093786895275116 -0.09633658081293106 -0.001680135726928711 0.0036865156143903732 0 0 0 0
2679900628 0.12908457219600677 -0.10572026669979095 -0.0010769739747047424 0.004141016863286495 0 0 0 0
2683622712 0.13618330657482147 -0.1149628609418869 -0.00019197817891836166 0.0044953953474760056 0 0 0 0
2687344796 0.13914461433887482 -0.12770242989063263 0.0010461993515491486 0.004137254320085049 0 0 0 0
2691066880 0.14087113738059998 -0.13949228823184967 0.0016492484137415886 0.0035153422504663467 0 0 0 0
2694788964 0.13882547616958618 -0.1514236330986023 0.0020967265591025352 0.002864687703549862 0 0 0 0
2698511048 0.13524991273880005 -0.1625520884990692 0.002631138078868389 0.0023493580520153046 0 0 0 0
2702233132 0.12930555641651154 -0.17377515137195587 0.003202107734978199 0.001626230776309967 0 0 0 0
2705955216 0.12139187753200531 -0.1824953556060791 0.003156685270369053 0.00044084154069423676 0 0 0 0
2709677300 0.11114546656608582 -0.1911819875240326 0.0027916235849261284 -0.00034376420080661774 0 0 0 0
2713399384 0.09651133418083191 -0.19878318905830383 0.002128743566572666 -0.0009037740528583527 0 0 0 0
2717121468 0.08223416656255722 -0.20168231427669525 0.0014614425599575043 -0.0009138258174061775 0 0 0 0
2720843552 0.0683383047580719 -0.20269544422626495 0.00140407495200634 -0.0008019590750336647 0 0 0 0
2724565636 0.05416109412908554 -0.19945767521858215 0.0011629331856966019 -0.0009164502844214439 0 0 0 0
2728287720 0.03959609568119049 -0.1947374939918518 0.0012043705210089684 -0.0011374717578291893 0 0 0 0
2732009804 0.024183489382267 -0.18703611195087433 0.0009101275354623795 -0.0011533889919519424 0 0 0 0
2735731888 0.011303577572107315 -0.17491024732589722 0.0004928493872284889 -0.0011338582262396812 0 0 0 0
2739453972 0.0015777833759784698 -0.1614939421415329 0.0004766685888171196 -0.0008744718506932259 0 0 0 0
2743176056 -0.008870333433151245 -0.14466622471809387 0.0005381228402256966 -0.0004372512921690941 0 0 0 0
2746898140 -0.014142774045467377 -0.12625548243522644 0.0012492537498474121 -0.00031528249382972717 0 0 0 0
2750620224 -0.015913628041744232 -0.10682465136051178 0.001842874102294445 -0.0010410388931632042 0 0 0 0
2754342308 -0.013146386481821537 -0.08744681626558304 0.0019696541130542755 -0.0020283469930291176 0 0 0 0
2758064392 -0.006855905055999756 -0.06883717328310013 0.001340656541287899 -0.002857162617146969 0 0 0 0
2761786476 0.0004537999629974365 -0.05207526683807373 0.00041537266224622726 -0.0033085960894823074 0 0 0 0
2765508560 0.011002267710864544 -0.03587310388684273 -0.0005982052534818649 -0.003231084905564785 0 0 0 0
2769230644 0.02348448894917965 -0.020994780585169792 -0.0013980548828840256 -0.002856929786503315 0 0 0 0
2772952728 0.039312943816185 -0.007108522579073906 -0.0017910394817590714 -0.0021527186036109924 0 0 0 0
2776674812 0.05819716304540634 0.004056890495121479 -0.001706935465335846 -0.0015940312296152115 0 0 0 0
2780396896 0.07990153878927231 0.011072250083088875 -0.0017207609489560127 -0.0011078417301177979 0 0 0 0
2784118980 0.1024831235408783 0.014810963533818722 -0.0015052501112222672 -0.0008374257013201714 0 0 0 0
2787841064 0.12522029876708984 0.014973998069763184 -0.0011062929406762123 -0.0005869539454579353 0 0 0 0
2791563148 0.14849039912223816 0.010439947247505188 -0.000831112265586853 -0.0007813833653926849 0 0 0 0
2795285232 0.170078307390213 0.002415720373392105 -0.0007073963060975075 -0.0010449625551700592 0 0 0 0
2799007316 0.1908581554889679 -0.009183160960674286 -0.0009067961946129799 -0.0013336027041077614 0 0 0 0
2802729400 0.2099200338125229 -0.021863145753741264 -0.0011612940579652786 -0.0015820376574993134 0 0 0 0
2806451484 0.22607551515102386 -0.041610561311244965 -0.0018140170723199844 -0.0015782834962010384 0 0 0 0
2810173568 0.23989593982696533 -0.057702433317899704 -0.002446923404932022 -0.0011126697063446045 0 0 0 0
2813895652 0.2525240480899811 -0.08153309673070908 -0.0025916993618011475 -0.0004256712272763252 0 0 0 0
2817617736 0.2590999901294708 -0.10627193003892899 -0.0024278471246361732 0.00018051732331514359 0 0 0 0
2821339820 0.26222068071365356 -0.13230331242084503 -0.0022519808262586594 0.0006725629791617393 0 0 0 0
2825061904 0.2636075019836426 -0.1548156589269638 -0.0021587135270237923 0.0012401333078742027 0 0 0 0
2828783988 0.2568351626396179 -0.18241190910339355 -0.0015923678874969482 0.0018716035410761833 0 0 0 0
2832506072 0.25011417269706726 -0.20499184727668762 -0.0007395688444375992 0.002231694757938385 0 0 0 0
2836228156 0.23649010062217712 -0.22733432054519653 7.200147956609726e-05 0.0022096140310168266 0 0 0 0
2839950240 0.22010044753551483 -0.24838276207447052 0.0007786033675074577 0.002006947062909603 0 0 0 0
2843672324 0.20604534447193146 -0.26347899436950684 0.0014468031004071236 0.0014154985547065735 0 0 0 0
2847394408 0.18622636795043945 -0.27912768721580505 0.001840265467762947 0.0007175952196121216 0 0 0 0
2851116492 0.16776588559150696 -0.2933368682861328 0.0018488764762878418 6.476882845163345e-05 0 0 0 0
2854838576 0.14573490619659424 -0.30253610014915466 0.001786423847079277 -0.0005644951015710831 0 0 0 0
2858560660 0.12667396664619446 -0.31110164523124695 0.001679818145930767 -0.0013695089146494865 0 0 0 0
2862282744 0.09910807013511658 -0.31540268659591675 0.0012704282999038696 -0.0016769003123044968 0 0 0 0
2866004828 0.07957667112350464 -0.3165091872215271 0.0007198844105005264 -0.0019348440691828728 0 0 0 0
2869726912 0.05536409094929695 -0.3164964020252228 0.00035967398434877396 -0.001871677115559578 0 0 0 0
2873448996 0.0345805361866951 -0.31285181641578674 2.3278407752513885e-05 -0.0018754815682768822 0 0 0 0
2877171080 0.009250016883015633 -0.30554789304733276 -0.00010181870311498642 -0.001738361082971096 0 0 0 0
2880893164 -0.0169205442070961 -0.29635709524154663 -0.00039597321301698685 -0.0015465868636965752 0 0 0 0
2884615248 -0.03562534600496292 -0.2838582992553711 -0.0005644392222166061 -0.0013138661161065102 0 0 0 0
2888337332 -0.05442551150918007 -0.2688514292240143 -0.0006247824057936668 -0.0013802200555801392 0 0 0 0
2892059416 -0.07447855174541473 -0.2503158152103424 -0.0007831752300262451 -0.0010367343202233315 0 0 0 0
2895781500 -0.08861973881721497 -0.23102767765522003 -0.0009941775351762772 -0.0009882962331175804 0 0 0 0
2899503584 -0.10018633306026459 -0.20917445421218872 -0.0010000262409448624 -0.0006904946640133858 0 0 0 0
2903225668 -0.11258448660373688 -0.18533483147621155 -0.0009944848716259003 -0.0004466138780117035 0 0 0 0
2906947752 -0.11884064972400665 -0.1608269363641739 -0.0009542703628540039 -0.00035763997584581375 0 0 0 0
2910669836 -0.12276683747768402 -0.1347525715827942 -0.0008757375180721283 -2.520717680454254e-05 0 0 0 0
2914391920 -0.12308764457702637 -0.1067141592502594 -0.0009447634220123291 0.00012658443301916122 0 0 0 0
2918114004 -0.1187518984079361 -0.07951213419437408 -0.0007952870801091194 0.00042973924428224564 0 0 0 0
2921836088 -0.11051340401172638 -0.05472507327795029 -0.0006439099088311195 0.0006159283220767975 0 0 0 0
2925558172 -0.1008637398481369 -0.030124593526124954 -0.0003905119374394417 0.0006720274686813354 0 0 0 0
2929280256 -0.08623620867729187 -0.008467014878988266 -0.0002691270783543587 0.000865480862557888 0 0 0 0
2933002340 -0.07087273895740509 0.01114549022167921 -0.00031435489654541016 0.001006857492029667 0 0 0 0
2936724424 -0.052415430545806885 0.029721595346927643 -4.3097883462905884e-05 0.001268354244530201 0 0 0 0
2940446508 -0.031816985458135605 0.045243434607982635 0.00033086352050304413 0.0015756040811538696 0 0 0 0
2944168592 -0.009898011572659016 0.05832965299487114 0.0007277308031916618 0.0017146077007055283 0 0 0 0
2947890676 0.014186862856149673 0.06856917589902878 0.0010809702798724174 0.0016067633405327797 0 0 0 0
2951612760 0.03907787427306175 0.076070137321949 0.0015397816896438599 0.0017685433849692345 0 0 0 0
2955334844 0.0652756616473198 0.0806892141699791 0.0021378910169005394 0.0016775848343968391 0 0 0 0
2959056928 0.09072636812925339 0.08285269886255264 0.002716733142733574 0.001424071379005909 0 0 0 0
2962779012 0.11827400326728821 0.07839260250329971 0.003380589187145233 0.001093503087759018 0 0 0 0
2966501096 0.1446141004562378 0.07207007706165314 0.003885893151164055 0.00045199785381555557 0 0 0 0
2970223180 0.16991423070430756 0.06090614199638367 0.00413106381893158 -0.0005212631076574326 0 0 0 0
2973945264 0.19331252574920654 0.04643523693084717 0.003966860473155975 -0.0014137960970401764 0 0 0 0
2977667348 0.2149733603000641 0.02802117168903351 0.0036787306889891624 -0.002163359895348549 0 0 0 0
2981389432 0.2328224927186966 0.008412250317633152 0.003240685909986496 -0.002797430381178856 0 0 0 0
2985111516 0.2480151653289795 -0.014843501150608063 0.0026783812791109085 -0.003076693043112755 0 0 0 0
2988833600 0.2576141655445099 -0.039657317101955414 0.001974700950086117 -0.0033009331673383713 0 0 0 0
2992555684 0.26654449105262756 -0.06266884505748749 0.0014479532837867737 -0.0037117423489689827 0 0 0 0
2996277768 0.268032431602478 -0.08726838231086731 0.0009097736328840256 -0.0036359578371047974 0 0 0 0
2999999852 0.26948195695877075 -0.11150903254747391 0.00029467232525348663 -0.0035426542162895203 0 0 0 0
