# HZ S RI R 50
1500000000 -0.015273293480277061 -0.048332907259464264 0.03056841529905796 -0.024674203246831894 0 0 0 0
1503722084 -0.005884204991161823 -0.039260607212781906 0.02569069340825081 -0.02880726009607315 0 0 0 0
1507444168 0.006558166816830635 -0.030836578458547592 0.021117553114891052 -0.03174123540520668 0 0 0 0
1511166252 0.021534740924835205 -0.023298462852835655 0.01716598868370056 -0.03447449579834938 0 0 0 0
1514888336 0.03930244594812393 -0.01710250787436962 0.012081485241651535 -0.03788841515779495 0 0 0 0
1518610420 0.059125643223524094 -0.014263385906815529 0.005015007220208645 -0.040484655648469925 0 0 0 0
1522332504 0.07921214401721954 -0.013702237978577614 -0.0030844472348690033 -0.04065464809536934 0 0 0 0
1526054588 0.10029517114162445 -0.014531787484884262 -0.010781037621200085 -0.03821506351232529 0 0 0 0
1529776672 0.12369786947965622 -0.01853354647755623 -0.0166102796792984 -0.034695815294981 0 0 0 0
1533498756 0.14878320693969727 -0.025730900466442108 -0.021643303334712982 -0.030561968684196472 0 0 0 0
1537220840 0.17451359331607819 -0.03658624365925789 -0.02587282843887806 -0.02591707929968834 0 0 0 0
1540942924 0.19987206161022186 -0.052371203899383545 -0.028952566906809807 -0.020295392721891403 0 0 0 0
1544665008 0.22509385645389557 -0.07423756271600723 -0.031057162210345268 -0.014419813640415668 0 0 0 0
1548387092 0.24661102890968323 -0.10160132497549057 -0.031776558607816696 -0.008516065776348114 0 0 0 0
1552109176 0.2648666501045227 -0.1329023689031601 -0.031231366097927094 -0.0029632113873958588 0 0 0 0
1555831260 0.2778298854827881 -0.16701041162014008 -0.029599398374557495 0.0019083814695477486 0 0 0 0
1559553344 0.28491535782814026 -0.20517992973327637 -0.027542149648070335 0.005887131206691265 0 0 0 0
1563275428 0.286182165145874 -0.24604979157447815 -0.02531883306801319 0.009499459527432919 0 0 0 0
1566997512 0.28287273645401 -0.28508442640304565 -0.02267991565167904 0.012834914028644562 0 0 0 0
1570719596 0.27242305874824524 -0.3245798647403717 -0.0191851444542408 0.015611158683896065 0 0 0 0
1574441680 0.2571154236793518 -0.3637818396091461 -0.015475716441869736 0.017169315367937088 0 0 0 0
1578163764 0.23983943462371826 -0.4020126163959503 -0.012209017761051655 0.018016450107097626 0 0 0 0
1581885848 0.2117762267589569 -0.44036662578582764 -0.00915716215968132 0.018290920183062553 0 0 0 0
1585607932 0.17690381407737732 -0.4746047258377075 -0.006519541144371033 0.018320204690098763 0 0 0 0
1589330016 0.1357666552066803 -0.504487156867981 -0.00393742136657238 0.018045224249362946 0 0 0 0
1593052100 0.08468250930309296 -0.5278941988945007 -0.001572582870721817 0.017472919076681137 0 0 0 0
1596774184 0.03715798631310463 -0.541135311126709 0.0002595679834485054 0.016871029511094093 0 0 0 0
1600496268 -0.018279314041137695 -0.5500569939613342 0.0019789915531873703 0.016460096463561058 0 0 0 0
1604218352 -0.06712424755096436 -0.5515892505645752 0.004031783901154995 0.0159711055457592 0 0 0 0
1607940436 -0.12287333607673645 -0.5445783734321594 0.006047314964234829 0.015005440451204777 0 0 0 0
1611662520 -0.17868740856647491 -0.5301634073257446 0.007972542196512222 0.013890385627746582 0 0 0 0
1615384604 -0.232979878783226 -0.5080468654632568 0.00957941822707653 0.012493640184402466 0 0 0 0
1619106688 -0.2890959084033966 -0.472715824842453 0.011297464370727539 0.010813244618475437 0 0 0 0
1622828772 -0.33798882365226746 -0.429839164018631 0.012570040300488472 0.008795598521828651 0 0 0 0
1626550856 -0.3800452649593353 -0.3816240131855011 0.013563459739089012 0.006718859076499939 0 0 0 0
1630272940 -0.4135079085826874 -0.3244321644306183 0.014065817929804325 0.0047051310539245605 0 0 0 0
1633995024 -0.4409247636795044 -0.262458860874176 0.014302004128694534 0.0026367539539933205 0 0 0 0
1637717108 -0.4590068757534027 -0.19157952070236206 0.014464693143963814 0.00042306724935770035 0 0 0 0
1641439192 -0.465803861618042 -0.12042394280433655 0.01408669538795948 -0.0019411742687225342 0 0 0 0
1645161276 -0.46104303002357483 -0.04619754105806351 0.013308098539710045 -0.004372541792690754 0 0 0 0
1648883360 -0.4452660083770752 0.027684539556503296 0.011903434060513973 -0.006196153350174427 0 0 0 0
1652605444 -0.41557809710502625 0.10280300676822662 0.01015475019812584 -0.007297752425074577 0 0 0 0
1656327528 -0.3746822476387024 0.1702260822057724 0.008925254456698895 -0.007828613743185997 0 0 0 0
1660049612 -0.319985032081604 0.2309074103832245 0.008464275859296322 -0.008380170911550522 0 0 0 0
1663771696 -0.25510114431381226 0.2844521403312683 0.007701336406171322 -0.010057236067950726 0 0 0 0
1667493780 -0.18406414985656738 0.326628178358078 0.0060141365975141525 -0.01166578009724617 0 0 0 0
1671215864 -0.10427455604076385 0.3576064705848694 0.003986273892223835 -0.012650036253035069 0 0 0 0
1674937948 -0.02141009271144867 0.37419942021369934 0.0014671804383397102 -0.013296159915626049 0 0 0 0
1678660032 0.0636114627122879 0.37727421522140503 -0.0012860409915447235 -0.013193304650485516 0 0 0 0
1682382116 0.1471645087003708 0.3662354350090027 -0.003768925555050373 -0.012182214297354221 0 0 0 0
1686104200 0.2327253222465515 0.33840781450271606 -0.005713240243494511 -0.01082906499505043 0 0 0 0
1689826284 0.30765992403030396 0.3014180362224579 -0.0073167625814676285 -0.009392721578478813 0 0 0 0
1693548368 0.37538808584213257 0.2500271797180176 -0.00865226797759533 -0.007115581072866917 0 0 0 0
1697270452 0.4323945641517639 0.19366180896759033 -0.009041308425366879 -0.004720047116279602 0 0 0 0
1700992536 0.48188063502311707 0.12515762448310852 -0.008658446371555328 -0.002571425400674343 0 0 0 0
1704714620 0.5198822617530823 0.0522848516702652 -0.007533898577094078 -0.0010622339323163033 0 0 0 0
1708436704 0.5452184081077576 -0.023741915822029114 -0.006449864245951176 -0.000470881350338459 0 0 0 0
1712158788 0.5583780407905579 -0.10370123386383057 -0.005844742991030216 -0.0005240021273493767 0 0 0 0
1715880872 0.5606716871261597 -0.17839793860912323 -0.00576869398355484 -0.0002540871500968933 0 0 0 0
1719602956 0.5478841662406921 -0.2591701149940491 -0.005650089122354984 0.00013457052409648895 0 0 0 0
1723325040 0.5247288942337036 -0.33834728598594666 -0.005331122316420078 0.0005911253392696381 0 0 0 0
1727047124 0.49629199504852295 -0.402169793844223 -0.005191822536289692 0.0008656233549118042 0 0 0 0
1730769208 0.4516220688819885 -0.4668603539466858 -0.0050414325669407845 0.0011476259678602219 0 0 0 0
1734491292 0.39877188205718994 -0.5253733992576599 -0.004833513870835304 0.0015837512910366058 0 0 0 0
1738213376 0.3372529149055481 -0.5727408528327942 -0.004300933331251144 0.0017493870109319687 0 0 0 0
1741935460 0.27057892084121704 -0.6093313694000244 -0.004213307984173298 0.0014597726985812187 0 0 0 0
1745657544 0.20794741809368134 -0.6329249143600464 -0.004588586278259754 0.0014017270877957344 0 0 0 0
1749379628 0.13425810635089874 -0.6487997174263 -0.005183607339859009 0.0017903903499245644 0 0 0 0
1753101712 0.059897661209106445 -0.6519912481307983 -0.0054514845833182335 0.0023709842935204506 0 0 0 0
1756823796 -0.013506203889846802 -0.6447886228561401 -0.005958041176199913 0.0030663926154375076 0 0 0 0
1760545880 -0.07838980108499527 -0.6271885633468628 -0.006392721086740494 0.004243121482431889 0 0 0 0
1764267964 -0.14350587129592896 -0.5966536998748779 -0.006375412456691265 0.005894660018384457 0 0 0 0
1767990048 -0.20340391993522644 -0.5587997436523438 -0.005565733648836613 0.00776358786970377 0 0 0 0
1771712132 -0.2513379454612732 -0.5154696702957153 -0.004238889552652836 0.00893724337220192 0 0 0 0
1775434216 -0.29596754908561707 -0.46336567401885986 -0.0028802212327718735 0.009594004601240158 0 0 0 0
1779156300 -0.32529163360595703 -0.4122571647167206 -0.001752631738781929 0.010109745897352695 0 0 0 0
1782878384 -0.3515470325946808 -0.35260120034217834 -0.0006915237754583359 0.010633789002895355 0 0 0 0
1786600468 -0.36975154280662537 -0.2918608784675598 0.0002984367311000824 0.011435435153543949 0 0 0 0
1790322552 -0.3776223957538605 -0.2276008129119873 0.00211469829082489 0.01255649421364069 0 0 0 0
1794044636 -0.37599021196365356 -0.1653589904308319 0.004543870687484741 0.013444925658404827 0 0 0 0
1797766720 -0.3640356957912445 -0.10363733768463135 0.007644745521247387 0.013197636231780052 0 0 0 0
1801488804 -0.3433181345462799 -0.04757305979728699 0.01047330629080534 0.012478693388402462 0 0 0 0
1805210888 -0.31521469354629517 0.00631318986415863 0.01309117116034031 0.010767228901386261 0 0 0 0
1808932972 -0.2804936170578003 0.053826846182346344 0.01569529063999653 0.009114216081798077 0 0 0 0
1812655056 -0.2385815978050232 0.09676986932754517 0.01808062754571438 0.006408650428056717 0 0 0 0
1816377140 -0.19115616381168365 0.13132554292678833 0.019911743700504303 0.0034750737249851227 0 0 0 0
1820099224 -0.13766880333423615 0.15886512398719788 0.02148663066327572 -0.00030511245131492615 0 0 0 0
1823821308 -0.08261553198099136 0.17587651312351227 0.022255510091781616 -0.004850972443819046 0 0 0 0
1827543392 -0.025375813245773315 0.18402118980884552 0.02145209163427353 -0.009437106549739838 0 0 0 0
1831265476 0.029413726180791855 0.182587131857872 0.020210396498441696 -0.013605184853076935 0 0 0 0
1834987560 0.08547665178775787 0.17201127111911774 0.017903603613376617 -0.018441736698150635 0 0 0 0
1838709644 0.13491185009479523 0.15464112162590027 0.014109404757618904 -0.022593608126044273 0 0 0 0
1842431728 0.1813051700592041 0.13058505952358246 0.009016940370202065 -0.02534162811934948 0 0 0 0
1846153812 0.22306153178215027 0.09728284925222397 0.004048255272209644 -0.026702480390667915 0 0 0 0
1849875896 0.25741046667099 0.05918256193399429 -0.0010606879368424416 -0.02722163498401642 0 0 0 0
1853597980 0.28435054421424866 0.015632562339305878 -0.006574107334017754 -0.026612145826220512 0 0 0 0
1857320064 0.3017842471599579 -0.025813043117523193 -0.011209151707589626 -0.024704668670892715 0 0 0 0
1861042148 0.31232360005378723 -0.07255623489618301 -0.015351532027125359 -0.022526293992996216 0 0 0 0
1864764232 0.31488141417503357 -0.12012840807437897 -0.019193757325410843 -0.019532447680830956 0 0 0 0
1868486316 0.31003260612487793 -0.16363507509231567 -0.02239244431257248 -0.016310183331370354 0 0 0 0
1872208400 0.3003521263599396 -0.20373548567295074 -0.025438474491238594 -0.01264982670545578 0 0 0 0
1875930484 0.2803412079811096 -0.23985055088996887 -0.02766844630241394 -0.008295607753098011 0 0 0 0
1879652568 0.25575438141822815 -0.27406585216522217 -0.029357455670833588 -0.0024336790665984154 0 0 0 0
1883374652 0.22674882411956787 -0.30199235677719116 -0.029813937842845917 0.0036189714446663857 0 0 0 0
1887096736 0.19671711325645447 -0.32195132970809937 -0.02870546281337738 0.009507542476058006 0 0 0 0
1890818820 0.16246426105499268 -0.33669963479042053 -0.02571561001241207 0.015087468549609184 0 0 0 0
1894540904 0.13039137423038483 -0.344666063785553 -0.021865280345082283 0.018885675817728043 0 0 0 0
1898262988 0.09731300175189972 -0.34770166873931885 -0.017882658168673515 0.02150961384177208 0 0 0 0
1901985072 0.06564834713935852 -0.3460942804813385 -0.014391724951565266 0.02344394288957119 0 0 0 0
1905707156 0.03602190315723419 -0.3400678038597107 -0.010889514349400997 0.025367021560668945 0 0 0 0
1909429240 0.005343295633792877 -0.3264584243297577 -0.006942852400243282 0.027230964973568916 0 0 0 0
1913151324 -0.01951274275779724 -0.309853732585907 -0.0025532757863402367 0.028982600197196007 0 0 0 0
1916873408 -0.04218190163373947 -0.29022249579429626 0.0026202192530035973 0.03003625199198723 0 0 0 0
1920595492 -0.06071555241942406 -0.26679643988609314 0.008613462559878826 0.030039703473448753 0 0 0 0
1924317576 -0.07429343461990356 -0.2400798499584198 0.014990345574915409 0.028394430875778198 0 0 0 0
1928039660 -0.0819004476070404 -0.21246308088302612 0.02079653926193714 0.025103693827986717 0 0 0 0
1931761744 -0.08608895540237427 -0.1846989095211029 0.026139575988054276 0.02034994214773178 0 0 0 0
1935483828 -0.0859392061829567 -0.15419131517410278 0.029942147433757782 0.013581784442067146 0 0 0 0
1939205912 -0.07877808064222336 -0.1255933940410614 0.031376879662275314 0.00615584384649992 0 0 0 0
1942927996 -0.06558524817228317 -0.09947623312473297 0.030653735622763634 -0.00015366729348897934 0 0 0 0
1946650080 -0.04997831583023071 -0.07637737691402435 0.028716862201690674 -0.005734414793550968 0 0 0 0
1950372164 -0.030271099880337715 -0.056789230555295944 0.02625146508216858 -0.010530463419854641 0 0 0 0
1954094248 -0.006411748006939888 -0.04052843526005745 0.02362065017223358 -0.014486201107501984 0 0 0 0
1957816332 0.019658882170915604 -0.029110370203852654 0.020601727068424225 -0.01801082119345665 0 0 0 0
1961538416 0.048635102808475494 -0.02298108860850334 0.01675914227962494 -0.021361103281378746 0 0 0 0
1965260500 0.0772896260023117 -0.02387501485645771 0.011929098516702652 -0.024029871448874474 0 0 0 0
1968982584 0.1050833985209465 -0.03138960525393486 0.007358183152973652 -0.02533271349966526 0 0 0 0
1972704668 0.12898434698581696 -0.042334895581007004 0.0021081501618027687 -0.025758963078260422 0 0 0 0
1976426752 0.1502510905265808 -0.05754561349749565 -0.002547815442085266 -0.025311702862381935 0 0 0 0
1980148836 0.16949711740016937 -0.07604961097240448 -0.00709398090839386 -0.024389857426285744 0 0 0 0
1983870920 0.18523922562599182 -0.09541233628988266 -0.011362100951373577 -0.022187944501638412 0 0 0 0
1987593004 0.1957484781742096 -0.12119327485561371 -0.015537085011601448 -0.01908154785633087 0 0 0 0
1991315088 0.20077821612358093 -0.149391308426857 -0.018909847363829613 -0.015133336186408997 0 0 0 0
1995037172 0.20197726786136627 -0.17351803183555603 -0.02049633301794529 -0.010740961879491806 0 0 0 0
1998759256 0.19513612985610962 -0.19961702823638916 -0.020699039101600647 -0.006848624907433987 0 0 0 0
2002481340 0.18610435724258423 -0.2223479151725769 -0.020665524527430534 -0.0035673994570970535 0 0 0 0
2006203424 0.17133232951164246 -0.24360927939414978 -0.02071840688586235 -0.00021958351135253906 0 0 0 0
2009925508 0.1572813242673874 -0.2594999074935913 -0.01980697549879551 0.00271689984947443 0 0 0 0
2013647592 0.13839909434318542 -0.2746945023536682 -0.018804343417286873 0.0052795251831412315 0 0 0 0
2017369676 0.11561644077301025 -0.28614500164985657 -0.01795358769595623 0.00783400610089302 0 0 0 0
2021091760 0.09499070048332214 -0.2929738759994507 -0.016921181231737137 0.00987663771957159 0 0 0 0
2024813844 0.07083893567323685 -0.29737478494644165 -0.01586836762726307 0.012153325602412224 0 0 0 0
2028535928 0.04887598007917404 -0.29672113060951233 -0.01469486765563488 0.01496530044823885 0 0 0 0
2032258012 0.02148393914103508 -0.2934962511062622 -0.012371037155389786 0.017923373728990555 0 0 0 0
2035980096 -0.002339877188205719 -0.28554806113243103 -0.009411007165908813 0.020386850461363792 0 0 0 0
2039702180 -0.025949828326702118 -0.2730748951435089 -0.005830761045217514 0.022414855659008026 0 0 0 0
2043424264 -0.04575198516249657 -0.25697511434555054 -0.0016755713149905205 0.023121915757656097 0 0 0 0
2047146348 -0.06391105055809021 -0.23679135739803314 0.0028232932090759277 0.022903358563780785 0 0 0 0
2050868432 -0.0771648958325386 -0.21392999589443207 0.006791134364902973 0.022005248814821243 0 0 0 0
2054590516 -0.08614746481180191 -0.1891794204711914 0.009734143503010273 0.020340558141469955 0 0 0 0
2058312600 -0.09271667897701263 -0.162754088640213 0.013045934028923512 0.018882829695940018 0 0 0 0
2062034684 -0.0959412008523941 -0.1354060024023056 0.01670365035533905 0.0167256947606802 0 0 0 0
2065756768 -0.0933632105588913 -0.10730653256177902 0.020196333527565002 0.013387713581323624 0 0 0 0
2069478852 -0.08732300996780396 -0.07877479493618011 0.022663665935397148 0.009167080745100975 0 0 0 0
2073200936 -0.07561056315898895 -0.050406672060489655 0.02371763065457344 0.004258432425558567 0 0 0 0
2076923020 -0.059644609689712524 -0.02593892067670822 0.023997031152248383 -0.000240204855799675 0 0 0 0
2080645104 -0.04054464027285576 -0.0029975585639476776 0.02318607084453106 -0.005091333761811256 0 0 0 0
2084367188 -0.017563514411449432 0.017608778551220894 0.020935412496328354 -0.009614289738237858 0 0 0 0
2088089272 0.009930333122611046 0.0341540090739727 0.017483297735452652 -0.013059518299996853 0 0 0 0
2091811356 0.03985225036740303 0.04561835527420044 0.014037013985216618 -0.014962670393288136 0 0 0 0
2095533440 0.07181167602539062 0.052024226635694504 0.01109627541154623 -0.0161195769906044 0 0 0 0
2099255524 0.10451687127351761 0.052505288273096085 0.00789509154856205 -0.01689291000366211 0 0 0 0
2102977608 0.1363937258720398 0.048985667526721954 0.005364513024687767 -0.016768377274274826 0 0 0 0
2106699692 0.16790232062339783 0.038417473435401917 0.003485598601400852 -0.01681850478053093 0 0 0 0
2110421776 0.19738443195819855 0.02307109534740448 0.0016316762194037437 -0.01729964278638363 0 0 0 0
2114143860 0.22402143478393555 0.0037938207387924194 -0.0007432568818330765 -0.01796441152691841 0 0 0 0
2117865944 0.2458488643169403 -0.021599814295768738 -0.003971755504608154 -0.018264861777424812 0 0 0 0
2121588028 0.26333656907081604 -0.04736654460430145 -0.007552929222583771 -0.017597351223230362 0 0 0 0
2125310112 0.275511771440506 -0.07612577080726624 -0.010656573809683323 -0.016075875610113144 0 0 0 0
2129032196 0.2840147614479065 -0.10526353865861893 -0.013418777845799923 -0.014056283049285412 0 0 0 0
2132754280 0.2859732508659363 -0.13652820885181427 -0.016278674826025963 -0.01123860664665699 0 0 0 0
2136476364 0.2849558889865875 -0.16519242525100708 -0.018127214163541794 -0.008059225976467133 0 0 0 0
2140198448 0.27825698256492615 -0.19459643959999084 -0.01931791752576828 -0.003915604203939438 0 0 0 0
2143920532 0.2701326012611389 -0.21964018046855927 -0.019024372100830078 -0.0003538411110639572 0 0 0 0
2147642616 0.25341176986694336 -0.24756233394145966 -0.018196500837802887 0.0027181310579180717 0 0 0 0
2151364700 0.2368290275335312 -0.2690225839614868 -0.017263125628232956 0.005290552973747253 0 0 0 0
2155086784 0.2142750322818756 -0.2890574336051941 -0.016205409541726112 0.007870913483202457 0 0 0 0
2158808868 0.18935886025428772 -0.30240723490715027 -0.014816715382039547 0.010299227200448513 0 0 0 0
2162530952 0.16552840173244476 -0.3134843707084656 -0.013000596314668655 0.012761139310896397 0 0 0 0
2166253036 0.14032000303268433 -0.31975603103637695 -0.010470842942595482 0.015129408799111843 0 0 0 0
2169975120 0.1149715781211853 -0.3229718506336212 -0.007351381704211235 0.016723738983273506 0 0 0 0
2173697204 0.08757638186216354 -0.3233826756477356 -0.003711877390742302 0.017166975885629654 0 0 0 0
2177419288 0.06315034627914429 -0.31991004943847656 -0.000887630507349968 0.01680242270231247 0 0 0 0
2181141372 0.03543753921985626 -0.3138338327407837 0.0015709176659584045 0.016063999384641647 0 0 0 0
2184863456 0.01127459853887558 -0.30124133825302124 0.003599800169467926 0.015151632018387318 0 0 0 0
2188585540 -0.012918688356876373 -0.2848625183105469 0.005658251233398914 0.014545442536473274 0 0 0 0
2192307624 -0.033305197954177856 -0.2636478543281555 0.007757451385259628 0.013479490764439106 0 0 0 0
2196029708 -0.05027495324611664 -0.2384347915649414 0.009730677120387554 0.012109681963920593 0 0 0 0
2199751792 -0.06159968674182892 -0.21169215440750122 0.011625440791249275 0.01055739726871252 0 0 0 0
2203473876 -0.06795451045036316 -0.1816541999578476 0.013625032268464565 0.008384248241782188 0 0 0 0
2207195960 -0.0684128925204277 -0.15486641228199005 0.015283701941370964 0.005342656746506691 0 0 0 0
2210918044 -0.06446047127246857 -0.12821848690509796 0.015546906739473343 0.0014855554327368736 0 0 0 0
2214640128 -0.05658109113574028 -0.10393261909484863 0.014262208715081215 -0.0018156496807932854 0 0 0 0
2218362212 -0.04633982852101326 -0.08165277540683746 0.01226617582142353 -0.0037578539922833443 0 0 0 0
2222084296 -0.03368600830435753 -0.06023409217596054 0.010590589605271816 -0.00489943940192461 0 0 0 0
2225806380 -0.0186005849391222 -0.03888950124382973 0.00950859859585762 -0.0057075126096606255 0 0 0 0
2229528464 0.0025398405268788338 -0.02055676095187664 0.008682511746883392 -0.006518589332699776 0 0 0 0
2233250548 0.02643120475113392 -0.006497285328805447 0.007812279276549816 -0.00748202670365572 0 0 0 0
2236972632 0.053060561418533325 0.0023051053285598755 0.006934409029781818 -0.008641158230602741 0 0 0 0
2240694716 0.0796113833785057 0.0071748485788702965 0.005508254282176495 -0.009921026416122913 0 0 0 0
2244416800 0.10683925449848175 0.007320178672671318 0.003612787462770939 -0.010967809706926346 0 0 0 0
2248138884 0.13404090702533722 0.001476118341088295 0.0013064984232187271 -0.011380748823285103 0 0 0 0
2251860968 0.16164162755012512 -0.009572850540280342 -0.0010324008762836456 -0.00971943512558937 0 0 0 0
2255583052 0.18506048619747162 -0.02486591413617134 -0.0020033279433846474 -0.008929586037993431 0 0 0 0
2259305136 0.20346349477767944 -0.04338482767343521 -0.0028251949697732925 -0.00839685183018446 0 0 0 0
2263027220 0.21558906137943268 -0.06916412711143494 -0.0036762598901987076 -0.00820238422602415 0 0 0 0
2266749304 0.22272402048110962 -0.09515731781721115 -0.00485560018569231 -0.007712452672421932 0 0 0 0
2270471388 0.22736191749572754 -0.11431939899921417 -0.005907870829105377 -0.007089894264936447 0 0 0 0
2274193472 0.2254420965909958 -0.13745032250881195 -0.006505390629172325 -0.006084431894123554 0 0 0 0
2277915556 0.22056841850280762 -0.1610676497220993 -0.007184243761003017 -0.005177144892513752 0 0 0 0
2281637640 0.21777428686618805 -0.17707817256450653 -0.0075748395174741745 -0.004642262123525143 0 0 0 0
2285359724 0.20607376098632812 -0.19820718467235565 -0.008259402588009834 -0.0038558198139071465 0 0 0 0
2289081808 0.1950671672821045 -0.21468664705753326 -0.008807456120848656 -0.003136647865176201 0 0 0 0
2292803892 0.18349075317382812 -0.2268693745136261 -0.009433996863663197 -0.0022954270243644714 0 0 0 0
2296525976 0.15853245556354523 -0.24186989665031433 -0.009895559400320053 -0.0011743111535906792 0 0 0 0
2300248060 0.14593054354190826 -0.24729354679584503 -0.010102803818881512 -0.00016096141189336777 0 0 0 0
2303970144 0.11892537772655487 -0.2588907778263092 -0.010262705385684967 0.0012015001848340034 0 0 0 0
2307692228 0.10087929666042328 -0.2559479773044586 -0.010598670691251755 0.002206874080002308 0 0 0 0
2311414312 0.08030343055725098 -0.25318029522895813 -0.010701223276555538 0.003896924667060375 0 0 0 0
2315136396 0.05525597184896469 -0.24785709381103516 -0.010379194281995296 0.005767441354691982 0 0 0 0
2318858480 0.03453974425792694 -0.2388552725315094 -0.009331904351711273 0.00774934608489275 0 0 0 0
2322580564 0.0232611782848835 -0.2236323207616806 -0.00815637968480587 0.009078566916286945 0 0 0 0
2326302648 0.003926645964384079 -0.20742779970169067 -0.0066049471497535706 0.010284649208188057 0 0 0 0
2330024732 -0.004220880568027496 -0.18864449858665466 -0.004919911734759808 0.010682822205126286 0 0 0 0
2333746816 -0.012461833655834198 -0.1697186678647995 -0.003642236813902855 0.01099538616836071 0 0 0 0
2337468900 -0.01894659548997879 -0.14748859405517578 -0.0020034369081258774 0.011340206488966942 0 0 0 0
2341190984 -0.022073451429605484 -0.12371743470430374 -0.00026564206928014755 0.011333097703754902 0 0 0 0
2344913068 -0.016943585127592087 -0.10095331072807312 0.0016388287767767906 0.010872701182961464 0 0 0 0
2348635152 -0.012170055881142616 -0.07765372842550278 0.0032285181805491447 0.009951356798410416 0 0 0 0
2352357236 -0.0003475956618785858 -0.056640513241291046 0.0040021976456046104 0.008735510520637035 0 0 0 0
2356079320 0.014448940753936768 -0.03643380105495453 0.004337468184530735 0.007781608961522579 0 0 0 0
2359801404 0.032367683947086334 -0.020966850221157074 0.004901757463812828 0.007232201285660267 0 0 0 0
2363523488 0.053194426000118256 -0.008141586557030678 0.00560116209089756 0.006847633980214596 0 0 0 0
2367245572 0.0754367932677269 0.002039412036538124 0.006645140238106251 0.006138036958873272 0 0 0 0
2370967656 0.09855618327856064 0.005783189088106155 0.007744583301246166 0.004638807848095894 0 0 0 0
2374689740 0.12289482355117798 0.007834918797016144 0.007959194481372833 0.0029718205332756042 0 0 0 0
2378411824 0.1457296907901764 0.004641810432076454 0.0075433384627103806 0.0012795645743608475 0 0 0 0
2382133908 0.16878217458724976 -0.0010235309600830078 0.006912725977599621 0.00048724841326475143 0 0 0 0
2385855992 0.1907338798046112 -0.009525477886199951 0.006440097466111183 -8.067768067121506e-05 0 0 0 0
2389578076 0.21109932661056519 -0.020633302628993988 0.006427699699997902 -0.00046470388770103455 0 0 0 0
2393300160 0.22978205978870392 -0.03752240538597107 0.0064208004623651505 -0.001201581209897995 0 0 0 0
2397022244 0.2465171217918396 -0.054783619940280914 0.006208501756191254 -0.0022143321111798286 0 0 0 0
2400744328 0.2615429759025574 -0.07559936493635178 0.0055620018392801285 -0.0032579582184553146 0 0 0 0
2404466412 0.2696918845176697 -0.10025019943714142 0.004922879859805107 -0.003977576270699501 0 0 0 0
2408188496 0.27821338176727295 -0.12321051955223083 0.0041472455486655235 -0.004475225694477558 0 0 0 0
2411910580 0.27934950590133667 -0.15138256549835205 0.0034328075125813484 -0.005085630342364311 0 0 0 0
2415632664 0.2765101492404938 -0.17845827341079712 0.00247139111161232 -0.005750042386353016 0 0 0 0
2419354748 0.2697388827800751 -0.20307719707489014 0.0012626750394701958 -0.006026926450431347 0 0 0 0
2423076832 0.259910523891449 -0.2286330908536911 0.00024017225950956345 -0.0059658233076334 0 0 0 0
2426798916 0.2454613447189331 -0.25166213512420654 -0.0009476691484451294 -0.005850737914443016 0 0 0 0
2430521000 0.22974756360054016 -0.26976150274276733 -0.0018843309953808784 -0.005426635034382343 0 0 0 0
2434243084 0.20948675274848938 -0.28738442063331604 -0.0028866082429885864 -0.005063267424702644 0 0 0 0
2437965168 0.18966495990753174 -0.30053871870040894 -0.003952952101826668 -0.004405817948281765 0 0 0 0
2441687252 0.16099438071250916 -0.3121597170829773 -0.0047900378704071045 -0.003203466534614563 0 0 0 0
2445409336 0.13887840509414673 -0.31828761100769043 -0.0050177788361907005 -0.0015798797830939293 0 0 0 0
2449131420 0.11024892330169678 -0.3215996325016022 -0.004680243320763111 -0.00021379906684160233 0 0 0 0
2452853504 0.08755842596292496 -0.3202245235443115 -0.0037380438297986984 0.0007163239642977715 0 0 0 0
2456575588 0.05672884359955788 -0.31869593262672424 -0.0026405490934848785 0.0009563583880662918 0 0 0 0
2460297672 0.030927857384085655 -0.309914231300354 -0.0020680883899331093 0.0008288566023111343 0 0 0 0
2464019756 0.00734332948923111 -0.29987242817878723 -0.0016762679442763329 0.0006280122324824333 0 0 0 0
2467741840 -0.01736496388912201 -0.28409290313720703 -0.0015600360929965973 0.0004763556644320488 0 0 0 0
2471463924 -0.039601825177669525 -0.2659704089164734 -0.0010899556800723076 0.0005831308662891388 0 0 0 0
2475186008 -0.059533849358558655 -0.24301482737064362 -0.0006034485995769501 0.00043962057679891586 0 0 0 0
2478908092 -0.07584193348884583 -0.21692821383476257 -0.0003348691388964653 -0.0001690806820988655 0 0 0 0
2482630176 -0.0885966569185257 -0.18709327280521393 -0.00028703268617391586 -0.001011689193546772 0 0 0 0
2486352260 -0.09498802572488785 -0.15614677965641022 -0.0007158936932682991 -0.001573159359395504 0 0 0 0
2490074344 -0.09673237055540085 -0.12457085400819778 -0.0013739066198468208 -0.0015572793781757355 0 0 0 0
2493796428 -0.09352141618728638 -0.09199833124876022 -0.0016838815063238144 -0.001526697538793087 0 0 0 0
2497518512 -0.08555515855550766 -0.06017177179455757 -0.001855321228504181 -0.0016205161809921265 0 0 0 0
2501240596 -0.07132843881845474 -0.030440598726272583 -0.0021284352988004684 -0.0017340350896120071 0 0 0 0
2504962680 -0.05296401306986809 -0.003078056499361992 -0.0025946060195565224 -0.002031717449426651 0 0 0 0
2508684764 -0.030140157788991928 0.020785264670848846 -0.003618847578763962 -0.0019756807014346123 0 0 0 0
2512406848 -0.003430653363466263 0.040677014738321304 -0.004435648210346699 -0.0014972835779190063 0 0 0 0
2516128932 0.025550981983542442 0.05603916198015213 -0.004950935952365398 -0.0007405346259474754 0 0 0 0
2519851016 0.057701461017131805 0.06699621677398682 -0.005382073111832142 0.0002104220911860466 0 0 0 0
2523573100 0.09001194685697556 0.0720219761133194 -0.00543596874922514 0.001088576391339302 0 0 0 0
2527295184 0.12423539906740189 0.07114867120981216 -0.005114424042403698 0.002105904743075371 0 0 0 0
2531017268 0.15691493451595306 0.06440848857164383 -0.004601223394274712 0.0027040205895900726 0 0 0 0
2534739352 0.18727056682109833 0.05244811251759529 -0.004150079563260078 0.003227436915040016 0 0 0 0
2538461436 0.21498996019363403 0.03622669726610184 -0.0036776848137378693 0.0033536702394485474 0 0 0 0
2542183520 0.2390221357345581 0.013286605477333069 -0.0033918162807822227 0.00346283707767725 0 0 0 0
2545905604 0.25865861773490906 -0.01055578887462616 -0.0034524286165833473 0.003765994682908058 0 0 0 0
2549627688 0.2739720642566681 -0.03529579937458038 -0.0035441070795059204 0.004336709156632423 0 0 0 0
2553349772 0.2841072380542755 -0.0666879415512085 -0.003156355582177639 0.005392047576606274 0 0 0 0
2557071856 0.29113125801086426 -0.09236721694469452 -0.002332211472094059 0.006273964419960976 0 0 0 0
2560793940 0.28995823860168457 -0.1205802857875824 -0.0012076636776328087 0.0068430220708251 0 0 0 0
2564516024 0.2854158580303192 -0.1499796360731125 -0.0001660659909248352 0.007314824499189854 0 0 0 0
2568238108 0.2800910174846649 -0.17178016901016235 0.0011695390567183495 0.007484407164156437 0 0 0 0
2571960192 0.26780959963798523 -0.1981959342956543 0.0027005337178707123 0.007466001436114311 0 0 0 0
2575682276 0.2527899444103241 -0.21943607926368713 0.004120613448321819 0.007198762148618698 0 0 0 0
2579404360 0.23547229170799255 -0.2391228973865509 0.005824502557516098 0.006460743956267834 0 0 0 0
2583126444 0.21489104628562927 -0.2566105127334595 0.007299385033547878 0.005122087895870209 0 0 0 0
2586848528 0.1936144232749939 -0.26717156171798706 0.008278746157884598 0.0033254679292440414 0 0 0 0
2590570612 0.1720447987318039 -0.27427318692207336 0.008506394922733307 0.0015139048919081688 0 0 0 0
2594292696 0.14971792697906494 -0.2784225344657898 0.00838453322649002 0.0001547904685139656 0 0 0 0
2598014780 0.12666510045528412 -0.27893784642219543 0.008447626605629921 -0.001114032231271267 0 0 0 0
2601736864 0.10457158088684082 -0.2743472158908844 0.008432798087596893 -0.0024467622861266136 0 0 0 0
2605458948 0.08278100192546844 -0.2700973451137543 0.00829332321882248 -0.004015238024294376 0 0 0 0
2609181032 0.06249725818634033 -0.25960204005241394 0.007606505416333675 -0.005579635500907898 0 0 0 0
2612903116 0.04683036357164383 -0.2462863326072693 0.006518763490021229 -0.0071647269651293755 0 0 0 0
2616625200 0.031640127301216125 -0.23081931471824646 0.005113209597766399 -0.008336850441992283 0 0 0 0
2620347284 0.020862409844994545 -0.21581801772117615 0.003382905386388302 -0.009090041741728783 0 0 0 0
2624069368 0.011797435581684113 -0.19858528673648834 0.0019891783595085144 -0.009207503870129585 0 0 0 0
2627791452 0.008086681365966797 -0.17945371568202972 0.0005721244961023331 -0.009326430037617683 0 0 0 0
2631513536 0.005898766219615936 -0.15918022394180298 -0.000529005192220211 -0.009275835007429123 0 0 0 0
2635235620 0.008792705833911896 -0.14060238003730774 -0.0014976011589169502 -0.009460140019655228 0 0 0 0
2638957704 0.015757692977786064 -0.12318895757198334 -0.0025566713884472847 -0.009634174406528473 0 0 0 0
2642679788 0.02367076277732849 -0.10922247171401978 -0.004170125350356102 -0.01001100242137909 0 0 0 0
2646401872 0.03565577417612076 -0.09697023779153824 -0.006008765660226345 -0.010087067261338234 0 0 0 0
2650123956 0.04874233901500702 -0.08778034150600433 -0.008408302441239357 -0.009571697562932968 0 0 0 0
2653846040 0.0632980465888977 -0.08103962242603302 -0.010554053820669651 -0.008196578361093998 0 0 0 0
2657568124 0.07764334231615067 -0.07696889340877533 -0.012516000308096409 -0.00585442129522562 0 0 0 0
2661290208 0.09424173831939697 -0.07623390853404999 -0.013287607580423355 -0.0032275570556521416 0 0 0 0
2665012292 0.11013224720954895 -0.07978937029838562 -0.01337910071015358 -0.0005694525316357613 0 0 0 0
2668734376 0.1232820451259613 -0.08857287466526031 -0.013022223487496376 0.0014808950945734978 0 0 0 0
2672456460 0.13589993119239807 -0.0983692854642868 -0.012598318979144096 0.0031032469123601913 0 0 0 0
2676178544 0.14280642569065094 -0.11114489287137985 -0.012334007769823074 0.005210121162235737 0 0 0 0
2679900628 0.14681512117385864 -0.12529125809669495 -0.011612164787948132 0.0077306954190135 0 0 0 0
2683622712 0.14959225058555603 -0.13821811974048615 -0.009706276468932629 0.010241685435175896 0 0 0 0
2687344796 0.14684763550758362 -0.15227854251861572 -0.0070189908146858215 0.011619744822382927 0 0 0 0
2691066880 0.14102786779403687 -0.1666029393672943 -0.004424139857292175 0.012321032583713531 0 0 0 0
2694788964 0.13536782562732697 -0.17718631029129028 -0.002146441489458084 0.012298105284571648 0 0 0 0
2698511048 0.12599579989910126 -0.1866728961467743 -3.381259739398956e-05 0.012115261517465115 0 0 0 0
2702233132 0.11374440789222717 -0.19446860253810883 0.0017778407782316208 0.011736651882529259 0 0 0 0
2705955216 0.10410847514867783 -0.2000218629837036 0.0034213969483971596 0.011264958418905735 0 0 0 0
2709677300 0.09016922861337662 -0.20477166771888733 0.005715073086321354 0.010677103884518147 0 0 0 0
2713399384 0.07729983329772949 -0.20671387016773224 0.007889253087341785 0.009699095040559769 0 0 0 0
2717121468 0.060112036764621735 -0.2052832692861557 0.00986296683549881 0.007551640272140503 0 0 0 0
2720843552 0.043842390179634094 -0.20310036838054657 0.01090589351952076 0.005266441963613033 0 0 0 0
2724565636 0.02926449477672577 -0.195448100566864 0.011437585577368736 0.0032008783891797066 0 0 0 0
2728287720 0.017598040401935577 -0.18377986550331116 0.011788216419517994 0.0012122485786676407 0 0 0 0
2732009804 0.004827052354812622 -0.17076684534549713 0.012144885025918484 -0.0010650642216205597 0 0 0 0
2735731888 -0.002870570868253708 -0.1549055576324463 0.012066369876265526 -0.003370407037436962 0 0 0 0
2739453972 -0.007596693933010101 -0.14021900296211243 0.011270890012383461 -0.006369768641889095 0 0 0 0
2743176056 -0.011896695010364056 -0.12372879683971405 0.009504791349172592 -0.008595515973865986 0 0 0 0
2746898140 -0.012881165370345116 -0.10688269883394241 0.007271154783666134 -0.01026154588907957 0 0 0 0
2750620224 -0.01168908178806305 -0.08876563608646393 0.005038943141698837 -0.011426720768213272 0 0 0 0
2754342308 -0.008246583864092827 -0.0703536868095398 0.002598586492240429 -0.01213819906115532 0 0 0 0
2758064392 0.0004069916903972626 -0.05312280356884003 0.000187678262591362 -0.012364005669951439 0 0 0 0
2761786476 0.011838864535093307 -0.03701256215572357 -0.0022519445046782494 -0.011838671751320362 0 0 0 0
2765508560 0.025700131431221962 -0.023655306547880173 -0.004403597675263882 -0.010938309133052826 0 0 0 0
2769230644 0.04097862169146538 -0.01204756647348404 -0.006065537221729755 -0.009627269580960274 0 0 0 0
2772952728 0.05813135951757431 -0.0034250495955348015 -0.0075201718136668205 -0.008135237731039524 0 0 0 0
2776674812 0.0771108940243721 0.002980303019285202 -0.008658384904265404 -0.006654179655015469 0 0 0 0
2780396896 0.09588611125946045 0.00712159276008606 -0.00958490651100874 -0.005322755314409733 0 0 0 0
2784118980 0.1157684475183487 0.007970277220010757 -0.010641410946846008 -0.003415296785533428 0 0 0 0
2787841064 0.13634976744651794 0.0060398392379283905 -0.011186747811734676 -0.000954953022301197 0 0 0 0
2791563148 0.1571885347366333 0.0018193162977695465 -0.010866026394069195 0.0016874643042683601 0 0 0 0
2795285232 0.17772436141967773 -0.006348114460706711 -0.009692692197859287 0.0038439780473709106 0 0 0 0
2799007316 0.19719626009464264 -0.01999017596244812 -0.007967229001224041 0.005399213172495365 0 0 0 0
2802729400 0.2144232541322708 -0.03431963175535202 -0.00653874222189188 0.006434333510696888 0 0 0 0
2806451484 0.22790181636810303 -0.05488676577806473 -0.005016806535422802 0.007227402180433273 0 0 0 0
2810173568 0.2385467141866684 -0.07312853634357452 -0.00334780290722847 0.007727470248937607 0 0 0 0
2813895652 0.2483413815498352 -0.0938657894730568 -0.001588725484907627 0.00788729079067707 0 0 0 0
2817617736 0.2515963017940521 -0.1179976537823677 2.974551171064377e-05 0.007734861224889755 0 0 0 0
2821339820 0.2529177963733673 -0.14201317727565765 0.0015203272923827171 0.007198064588010311 0 0 0 0
2825061904 0.24951037764549255 -0.16521216928958893 0.0027560386806726456 0.006256289780139923 0 0 0 0
2828783988 0.24434009194374084 -0.18698108196258545 0.003578750416636467 0.005391370505094528 0 0 0 0
2832506072 0.23750698566436768 -0.20525747537612915 0.004334940575063229 0.004328749142587185 0 0 0 0
2836228156 0.22359806299209595 -0.22582264244556427 0.004591264761984348 0.00332057848572731 0 0 0 0
2839950240 0.21220245957374573 -0.24361209571361542 0.004862317815423012 0.0025713397189974785 0 0 0 0
2843672324 0.19745686650276184 -0.258365273475647 0.004993579350411892 0.0018544290214776993 0 0 0 0
2847394408 0.18055252730846405 -0.2716088891029358 0.005234931595623493 0.0011569671332836151 0 0 0 0
2851116492 0.1630389541387558 -0.28510913252830505 0.0054281167685985565 0.0005941307172179222 0 0 0 0
2854838576 0.14422599971294403 -0.29271185398101807 0.005765535868704319 -0.00032342225313186646 0 0 0 0
2858560660 0.1252375841140747 -0.30115365982055664 0.006182115525007248 -0.0017139110714197159 0 0 0 0
2862282744 0.10048197954893112 -0.3082968294620514 0.005769970826804638 -0.0031034694984555244 0 0 0 0
2866004828 0.08341316133737564 -0.3074290156364441 0.005242794752120972 -0.004115983843803406 0 0 0 0
2869726912 0.06105416268110275 -0.3083336651325226 0.004362422972917557 -0.005016260780394077 0 0 0 0
2873448996 0.03854615241289139 -0.30578434467315674 0.0034313322976231575 -0.005734596401453018 0 0 0 0
2877171080 0.01113630086183548 -0.30041876435279846 0.0021587060764431953 -0.006301702931523323 0 0 0 0
2880893164 -0.007855288684368134 -0.2923427224159241 0.000957263633608818 -0.006206459365785122 0 0 0 0
2884615248 -0.029459714889526367 -0.28059032559394836 -0.00012009218335151672 -0.006010124459862709 0 0 0 0
2888337332 -0.04648754745721817 -0.2663077116012573 -0.0007831128314137459 -0.0057618385180830956 0 0 0 0
2892059416 -0.06483957916498184 -0.24862229824066162 -0.0017254529520869255 -0.0055128419771790504 0 0 0 0
2895781500 -0.07887385785579681 -0.23045116662979126 -0.0025543980300426483 -0.005135588347911835 0 0 0 0
2899503584 -0.09169289469718933 -0.20899654924869537 -0.003303714096546173 -0.004364863969385624 0 0 0 0
2903225668 -0.10356941819190979 -0.18588639795780182 -0.003980504348874092 -0.003292410634458065 0 0 0 0
2906947752 -0.11024809628725052 -0.16253410279750824 -0.00422168243676424 -0.002320457249879837 0 0 0 0
2910669836 -0.1141447126865387 -0.1376747190952301 -0.004113960079848766 -0.0013062544167041779 0 0 0 0
2914391920 -0.1149262934923172 -0.11181860417127609 -0.0037206048145890236 -0.0004638358950614929 0 0 0 0
2918114004 -0.110775887966156 -0.0871887132525444 -0.0032290546223521233 0.000167209655046463 0 0 0 0
2921836088 -0.10421504825353622 -0.0628950372338295 -0.002965676598250866 0.0005090516060590744 0 0 0 0
2925558172 -0.09500429779291153 -0.03998976945877075 -0.0025824187323451042 0.0006585158407688141 0 0 0 0
2929280256 -0.08259519934654236 -0.018876072019338608 -0.002381635829806328 0.00097690150141716 0 0 0 0
2933002340 -0.06828999519348145 -0.0005928687751293182 -0.002308693714439869 0.0013170773163437843 0 0 0 0
2936724424 -0.051996808499097824 0.017268076539039612 -0.0021786587312817574 0.001761120744049549 0 0 0 0
2940446508 -0.03384433314204216 0.032283950597047806 -0.001963813789188862 0.002174338325858116 0 0 0 0
2944168592 -0.01324386615306139 0.045151542872190475 -0.0013758037239313126 0.003006073646247387 0 0 0 0
2947890676 0.007072458043694496 0.05571598559617996 -0.0004923008382320404 0.003522097133100033 0 0 0 0
2951612760 0.028403667733073235 0.06378260999917984 0.000712057575583458 0.0037678061053156853 0 0 0 0
2955334844 0.05225271359086037 0.06902478635311127 0.0018427316099405289 0.003138495609164238 0 0 0 0
2959056928 0.07488789409399033 0.07334687560796738 0.0024595269933342934 0.0024364907294511795 0 0 0 0
2962779012 0.10018396377563477 0.0724872425198555 0.0028983717784285545 0.001986313611268997 0 0 0 0
2966501096 0.12644977867603302 0.06819963455200195 0.0030813049525022507 0.001322498545050621 0 0 0 0
2970223180 0.15047036111354828 0.06612804532051086 0.003246900625526905 0.0010049641132354736 0 0 0 0
2973945264 0.17569276690483093 0.05582398176193237 0.0034774430096149445 0.0006960630416870117 0 0 0 0
2977667348 0.20042890310287476 0.03929993137717247 0.003962939605116844 9.520072489976883e-05 0 0 0 0
2981389432 0.22043755650520325 0.020380310714244843 0.004233792424201965 -0.0006268471479415894 0 0 0 0
2985111516 0.23856210708618164 -0.00022589415311813354 0.00415007583796978 -0.0015637390315532684 0 0 0 0
2988833600 0.25070255994796753 -0.02347266674041748 0.003877568058669567 -0.002438505180180073 0 0 0 0
2992555684 0.260608971118927 -0.04767342656850815 0.003239487297832966 -0.0033513540402054787 0 0 0 0
2996277768 0.2661149203777313 -0.07074572145938873 0.0025646062567830086 -0.003950260579586029 0 0 0 0
2999999852 0.2695883810520172 -0.09788892418146133 0.001641303300857544 -0.004261329770088196 0 0 0 0
