# HZ S RI R 50
1500000000 -0.10685877501964569 -0.03143049776554108 0.031814806163311005 -0.027277566492557526 0 0 0 0
1503722084 -0.08977970480918884 -0.006507672369480133 0.02622036263346672 -0.03256542235612869 0 0 0 0
1507444168 -0.0686129778623581 0.015513487160205841 0.019474873319268227 -0.03618692606687546 0 0 0 0
1511166252 -0.043655481189489365 0.03578502684831619 0.012466217391192913 -0.03829285502433777 0 0 0 0
1514888336 -0.015257053077220917 0.053179603070020676 0.005109190940856934 -0.03886532783508301 0 0 0 0
1518610420 0.018390066921710968 0.0669674500823021 -0.001617778092622757 -0.03764195740222931 0 0 0 0
1522332504 0.056242622435092926 0.07523300498723984 -0.007702610455453396 -0.035225674510002136 0 0 0 0
1526054588 0.09712100028991699 0.07762110233306885 -0.012862897478044033 -0.032171204686164856 0 0 0 0
1529776672 0.13993015885353088 0.07351364940404892 -0.016884388402104378 -0.02871350757777691 0 0 0 0
1533498756 0.1838839054107666 0.060666974633932114 -0.020375151187181473 -0.024299100041389465 0 0 0 0
1537220840 0.22574689984321594 0.040416304022073746 -0.022537849843502045 -0.020010091364383698 0 0 0 0
1540942924 0.26510846614837646 0.010087855160236359 -0.02380077913403511 -0.015826895833015442 0 0 0 0
1544665008 0.30008506774902344 -0.026653088629245758 -0.02478221245110035 -0.012094439938664436 0 0 0 0
1548387092 0.3286246359348297 -0.06852656602859497 -0.025679295882582664 -0.008353601209819317 0 0 0 0
1552109176 0.35052645206451416 -0.11702224612236023 -0.025956524536013603 -0.004130632616579533 0 0 0 0
1555831260 0.36632686853408813 -0.16747575998306274 -0.02510356903076172 8.427537977695465e-06 0 0 0 0
1559553344 0.3713952302932739 -0.22344443202018738 -0.023363135755062103 0.0033701248466968536 0 0 0 0
1563275428 0.3695346713066101 -0.2795758843421936 -0.021628815680742264 0.00584074854850769 0 0 0 0
1566997512 0.3569782078266144 -0.3362298309803009 -0.020219266414642334 0.008281142450869083 0 0 0 0
1570719596 0.33543023467063904 -0.3917384445667267 -0.018121100962162018 0.01066590566188097 0 0 0 0
1574441680 0.3023960590362549 -0.4458630383014679 -0.01568290963768959 0.012468846514821053 0 0 0 0
1578163764 0.26550984382629395 -0.4905812740325928 -0.013579749502241611 0.013598697260022163 0 0 0 0
1581885848 0.2156982272863388 -0.5300748944282532 -0.011363120749592781 0.014511478133499622 0 0 0 0
1585607932 0.16320672631263733 -0.5608230829238892 -0.009086212143301964 0.015211781486868858 0 0 0 0
1589330016 0.10731689631938934 -0.5840973258018494 -0.007123145274817944 0.015426545403897762 0 0 0 0
1593052100 0.04488307237625122 -0.5995792150497437 -0.005552518181502819 0.015618357807397842 0 0 0 0
1596774184 -0.017170287668704987 -0.6059074401855469 -0.004280282184481621 0.0162213034927845 0 0 0 0
1600496268 -0.08122565597295761 -0.6018695831298828 -0.0025927191600203514 0.01719588413834572 0 0 0 0
1604218352 -0.1440490335226059 -0.5875463485717773 -0.00010734423995018005 0.017982395365834236 0 0 0 0
1607940436 -0.2046738564968109 -0.5642330646514893 0.002724170684814453 0.018017608672380447 0 0 0 0
1611662520 -0.2623096704483032 -0.5340560078620911 0.005564642138779163 0.017521748319268227 0 0 0 0
1615384604 -0.3169657588005066 -0.49365025758743286 0.008159124292433262 0.016582388430833817 0 0 0 0
1619106688 -0.36117830872535706 -0.4461212754249573 0.010418646037578583 0.015501976013183594 0 0 0 0
1622828772 -0.4046033024787903 -0.3919445872306824 0.013153476640582085 0.014121650718152523 0 0 0 0
1626550856 -0.4384504556655884 -0.32879018783569336 0.01575353741645813 0.011920000426471233 0 0 0 0
1630272940 -0.4596862494945526 -0.2649388611316681 0.01789833791553974 0.009387778118252754 0 0 0 0
1633995024 -0.4762169122695923 -0.19257698953151703 0.01965930312871933 0.006288974545896053 0 0 0 0
1637717108 -0.4806431829929352 -0.11756277084350586 0.020910486578941345 0.002584228292107582 0 0 0 0
1641439192 -0.4739570617675781 -0.04647780954837799 0.02153022214770317 -0.0012265024706721306 0 0 0 0
1645161276 -0.4542219340801239 0.02998972311615944 0.021206574514508247 -0.0057046134024858475 0 0 0 0
1648883360 -0.42257609963417053 0.10034620016813278 0.01995609886944294 -0.009940733201801777 0 0 0 0
1652605444 -0.38050195574760437 0.1671319305896759 0.01769237406551838 -0.0140097476541996 0 0 0 0
1656327528 -0.3269006609916687 0.22641435265541077 0.014376694336533546 -0.01735110767185688 0 0 0 0
1660049612 -0.26571333408355713 0.2759741544723511 0.01037827879190445 -0.019965725019574165 0 0 0 0
1663771696 -0.19671790301799774 0.3159562945365906 0.005589676089584827 -0.02127963677048683 0 0 0 0
1667493780 -0.12297037243843079 0.34645795822143555 0.0009904634207487106 -0.02154010534286499 0 0 0 0
1671215864 -0.044453199952840805 0.3649730384349823 -0.0033519845455884933 -0.020878203213214874 0 0 0 0
1674937948 0.039349764585494995 0.371737003326416 -0.00786161981523037 -0.019359324127435684 0 0 0 0
1678660032 0.11900905519723892 0.366545706987381 -0.011448610574007034 -0.016659751534461975 0 0 0 0
1682382116 0.2007802426815033 0.34685856103897095 -0.01420019194483757 -0.013032185845077038 0 0 0 0
1686104200 0.27886539697647095 0.3142337501049042 -0.01571766473352909 -0.009127017110586166 0 0 0 0
1689826284 0.3481506407260895 0.2712302803993225 -0.016300298273563385 -0.005215884186327457 0 0 0 0
1693548368 0.41264599561691284 0.21570754051208496 -0.01579291932284832 -0.0015855217352509499 0 0 0 0
1697270452 0.46501457691192627 0.15018706023693085 -0.014656438492238522 0.0015431642532348633 0 0 0 0
1700992536 0.5071043968200684 0.08286456763744354 -0.012959949672222137 0.003662165254354477 0 0 0 0
1704714620 0.5366998314857483 0.0017987638711929321 -0.011208925396203995 0.005340253002941608 0 0 0 0
1708436704 0.5540559887886047 -0.07742565870285034 -0.00979386456310749 0.006816348060965538 0 0 0 0
1712158788 0.5587459206581116 -0.15514811873435974 -0.007971587590873241 0.008318731561303139 0 0 0 0
1715880872 0.5503244400024414 -0.2373344451189041 -0.005428744480013847 0.009324774146080017 0 0 0 0
1719602956 0.5320158004760742 -0.3133266866207123 -0.0027685537934303284 0.00938398763537407 0 0 0 0
1723325040 0.5001688599586487 -0.38344281911849976 -0.0005748290568590164 0.008510518819093704 0 0 0 0
1727047124 0.4587773382663727 -0.44847583770751953 0.0008576512336730957 0.00715363584458828 0 0 0 0
1730769208 0.40598392486572266 -0.5065045356750488 0.0016520386561751366 0.005932467989623547 0 0 0 0
1734491292 0.3467661142349243 -0.5549359321594238 0.002149590291082859 0.004893426783382893 0 0 0 0
1738213376 0.28531181812286377 -0.5913888812065125 0.0023899637162685394 0.0039040446281433105 0 0 0 0
1741935460 0.2174016833305359 -0.6176152229309082 0.0024380506947636604 0.002882130444049835 0 0 0 0
1745657544 0.1483030766248703 -0.6333268880844116 0.0019678249955177307 0.0022306572645902634 0 0 0 0
1749379628 0.07372461259365082 -0.6387965679168701 0.001635134220123291 0.0021279118955135345 0 0 0 0
1753101712 0.008194983005523682 -0.6310071349143982 0.0015399539843201637 0.0021374784409999847 0 0 0 0
1756823796 -0.06319862604141235 -0.614883542060852 0.0017239740118384361 0.0021083569154143333 0 0 0 0
1760545880 -0.12135672569274902 -0.5876137018203735 0.0020145103335380554 0.0018808860331773758 0 0 0 0
1764267964 -0.17492903769016266 -0.5546892285346985 0.0022245803847908974 0.001667930744588375 0 0 0 0
1767990048 -0.22637666761875153 -0.5131950974464417 0.0024707233533263206 0.0010429490357637405 0 0 0 0
1771712132 -0.26622170209884644 -0.46793967485427856 0.0024623246863484383 0.0001297546550631523 0 0 0 0
1775434216 -0.3007132112979889 -0.4163636863231659 0.0017187725752592087 -0.0006728731095790863 0 0 0 0
1779156300 -0.32578304409980774 -0.36231470108032227 0.0005450025200843811 -0.0009310627356171608 0 0 0 0
1782878384 -0.343362957239151 -0.3064005672931671 -0.0005240719765424728 -0.0005375882610678673 0 0 0 0
1786600468 -0.3542598485946655 -0.24789680540561676 -0.001258116215467453 0.00035472121089696884 0 0 0 0
1790322552 -0.35476407408714294 -0.1883934885263443 -0.001475752331316471 0.0014558155089616776 0 0 0 0
1794044636 -0.348310649394989 -0.1318947672843933 -0.0012829545885324478 0.0023382846266031265 0 0 0 0
1797766720 -0.33324384689331055 -0.07697989791631699 -0.001268407329916954 0.0034111421555280685 0 0 0 0
1801488804 -0.31054580211639404 -0.025280434638261795 -0.000745648518204689 0.004908035509288311 0 0 0 0
1805210888 -0.281471848487854 0.02182120829820633 0.0007715504616498947 0.0062708621844649315 0 0 0 0
1808932972 -0.2455502450466156 0.06523939222097397 0.0029859719797968864 0.006999519653618336 0 0 0 0
1812655056 -0.2022862285375595 0.10379785299301147 0.005230125971138477 0.006670825183391571 0 0 0 0
1816377140 -0.1540452241897583 0.13354304432868958 0.0075734276324510574 0.006146310828626156 0 0 0 0
1820099224 -0.10063736140727997 0.15447136759757996 0.010125258937478065 0.0047948332503438 0 0 0 0
1823821308 -0.045322831720113754 0.16596758365631104 0.012365083210170269 0.0016220305114984512 0 0 0 0
1827543392 0.009194917976856232 0.16746225953102112 0.01287030428647995 -0.0019304808229207993 0 0 0 0
1831265476 0.061443157494068146 0.1598118245601654 0.01233471930027008 -0.005453913472592831 0 0 0 0
1834987560 0.1100156307220459 0.14397823810577393 0.01058912742882967 -0.008405035361647606 0 0 0 0
1838709644 0.15436378121376038 0.12217709422111511 0.00808480754494667 -0.010584307834506035 0 0 0 0
1842431728 0.1931755095720291 0.0959397479891777 0.005298435688018799 -0.011709654703736305 0 0 0 0
1846153812 0.2270088791847229 0.06370466947555542 0.0027358615770936012 -0.011722472496330738 0 0 0 0
1849875896 0.2553810775279999 0.02635735087096691 0.0007135262712836266 -0.011432151310145855 0 0 0 0
1853597980 0.27668067812919617 -0.012928439304232597 -0.0007302602753043175 -0.010858854278922081 0 0 0 0
1857320064 0.2916020154953003 -0.05078611150383949 -0.0014459006488323212 -0.010678218677639961 0 0 0 0
1861042148 0.29932692646980286 -0.09390246868133545 -0.002556215040385723 -0.011151300743222237 0 0 0 0
1864764232 0.2986612319946289 -0.13660240173339844 -0.004485034383833408 -0.011401679366827011 0 0 0 0
1868486316 0.2928929328918457 -0.17652834951877594 -0.006824782118201256 -0.010838605463504791 0 0 0 0
1872208400 0.27968335151672363 -0.21517571806907654 -0.008825771510601044 -0.009589467197656631 0 0 0 0
1875930484 0.26386556029319763 -0.2483031451702118 -0.01003332156687975 -0.008100840263068676 0 0 0 0
1879652568 0.24034836888313293 -0.2802446782588959 -0.010701977647840977 -0.007250245660543442 0 0 0 0
1883374652 0.213670015335083 -0.3075341582298279 -0.012207282707095146 -0.006895663216710091 0 0 0 0
1887096736 0.18123993277549744 -0.3286603093147278 -0.014994396828114986 -0.005899003706872463 0 0 0 0
1890818820 0.14716632664203644 -0.3427467942237854 -0.017993424087762833 -0.003182956948876381 0 0 0 0
1894540904 0.11010350286960602 -0.34905481338500977 -0.020067738369107246 0.0012841960415244102 0 0 0 0
1898262988 0.07733182609081268 -0.34756892919540405 -0.020161645486950874 0.00659844558686018 0 0 0 0
1901985072 0.04222578555345535 -0.3419550657272339 -0.018362587317824364 0.011347334831953049 0 0 0 0
1905707156 0.013076141476631165 -0.3289859890937805 -0.015596158802509308 0.015184633433818817 0 0 0 0
1909429240 -0.010489534586668015 -0.3147384822368622 -0.012177979573607445 0.018442969769239426 0 0 0 0
1913151324 -0.03369148075580597 -0.2956933081150055 -0.00847664475440979 0.020771240815520287 0 0 0 0
1916873408 -0.053430601954460144 -0.2733381688594818 -0.0036925887688994408 0.02247842587530613 0 0 0 0
1920595492 -0.06818031519651413 -0.24771656095981598 0.00148098636418581 0.022702479735016823 0 0 0 0
1924317576 -0.07797554135322571 -0.22028496861457825 0.006710736081004143 0.021414348855614662 0 0 0 0
1928039660 -0.08257870376110077 -0.19363275170326233 0.010930443182587624 0.019051283597946167 0 0 0 0
1931761744 -0.0821928158402443 -0.16822487115859985 0.014535071328282356 0.015258959494531155 0 0 0 0
1935483828 -0.07800672948360443 -0.1434134691953659 0.016558481380343437 0.01109263300895691 0 0 0 0
1939205912 -0.07108642905950546 -0.11938924342393875 0.016887091100215912 0.007225624285638332 0 0 0 0
1942927996 -0.06106867641210556 -0.09559561312198639 0.016248945146799088 0.004383089020848274 0 0 0 0
1946650080 -0.046683818101882935 -0.0733889490365982 0.01574994996190071 0.002458326518535614 0 0 0 0
1950372164 -0.027907095849514008 -0.053922101855278015 0.015921737998723984 0.0007796240970492363 0 0 0 0
1954094248 -0.006197606213390827 -0.038107115775346756 0.016323644667863846 -0.001280766911804676 0 0 0 0
1957816332 0.018588947132229805 -0.026590481400489807 0.01632273569703102 -0.003873228095471859 0 0 0 0
1961538416 0.04553205519914627 -0.018676383420825005 0.01584884338080883 -0.006644614972174168 0 0 0 0
1965260500 0.07434754818677902 -0.016921859234571457 0.014813804998993874 -0.009278209879994392 0 0 0 0
1968982584 0.10401938110589981 -0.021318331360816956 0.014050876721739769 -0.01174472738057375 0 0 0 0
1972704668 0.130802184343338 -0.03178410977125168 0.012505602091550827 -0.015190934762358665 0 0 0 0
1976426752 0.1548229306936264 -0.04703779146075249 0.009849434718489647 -0.018511241301894188 0 0 0 0
1980148836 0.17586366832256317 -0.0652155876159668 0.005357309244573116 -0.020918676629662514 0 0 0 0
1983870920 0.19164375960826874 -0.08970913290977478 0.00019954238086938858 -0.022163506597280502 0 0 0 0
1987593004 0.20268890261650085 -0.11473052203655243 -0.004951491020619869 -0.02161266654729843 0 0 0 0
1991315088 0.2081364095211029 -0.1410449743270874 -0.009394802153110504 -0.019986750558018684 0 0 0 0
1995037172 0.20996195077896118 -0.16598670184612274 -0.013352466747164726 -0.017084866762161255 0 0 0 0
1998759256 0.20706287026405334 -0.19139426946640015 -0.015765372663736343 -0.013100143522024155 0 0 0 0
2002481340 0.2005988359451294 -0.21634118258953094 -0.016862308606505394 -0.009883730672299862 0 0 0 0
2006203424 0.18985456228256226 -0.24017611145973206 -0.017552252858877182 -0.007359765470027924 0 0 0 0
2009925508 0.17361396551132202 -0.2614060342311859 -0.01844504475593567 -0.004805641248822212 0 0 0 0
2013647592 0.15670810639858246 -0.2784147262573242 -0.019618432968854904 -0.0024509215727448463 0 0 0 0
2017369676 0.135454922914505 -0.294845849275589 -0.02050010859966278 0.00026519782841205597 0 0 0 0
2021091760 0.10983529686927795 -0.30635952949523926 -0.021648850291967392 0.003859694115817547 0 0 0 0
2024813844 0.08337397873401642 -0.31273144483566284 -0.02130180038511753 0.008715120144188404 0 0 0 0
2028535928 0.05463326722383499 -0.31437215209007263 -0.019793283194303513 0.013520636595785618 0 0 0 0
2032258012 0.027836181223392487 -0.31159842014312744 -0.01676384173333645 0.017444781959056854 0 0 0 0
2035980096 0.0034593194723129272 -0.304729163646698 -0.012972122058272362 0.020604435354471207 0 0 0 0
2039702180 -0.02258884161710739 -0.29371964931488037 -0.008391506038606167 0.022986529394984245 0 0 0 0
2043424264 -0.04605443775653839 -0.27816829085350037 -0.0036227991804480553 0.023830607533454895 0 0 0 0
2047146348 -0.06726107746362686 -0.2586975693702698 0.0010135965421795845 0.023603174835443497 0 0 0 0
2050868432 -0.08702214807271957 -0.2368413209915161 0.0050163837149739265 0.022352071478962898 0 0 0 0
2054590516 -0.10203258693218231 -0.21162055432796478 0.008664893917739391 0.020726466551423073 0 0 0 0
2058312600 -0.11327254772186279 -0.18247133493423462 0.012005271390080452 0.018779342994093895 0 0 0 0
2062034684 -0.1201772689819336 -0.15153759717941284 0.01449691504240036 0.016445022076368332 0 0 0 0
2065756768 -0.122055783867836 -0.11923092603683472 0.0171905979514122 0.013479768298566341 0 0 0 0
2069478852 -0.1179409921169281 -0.08547158539295197 0.019412066787481308 0.010323799215257168 0 0 0 0
2073200936 -0.10912542790174484 -0.050978608429431915 0.020607294514775276 0.006070403382182121 0 0 0 0
2076923020 -0.09370773285627365 -0.018637724220752716 0.02065129205584526 0.0021168412640690804 0 0 0 0
2080645104 -0.07165786623954773 0.0113472118973732 0.019979624077677727 -0.0013861320912837982 0 0 0 0
2084367188 -0.044514480978250504 0.03747076168656349 0.018710581585764885 -0.004438714124262333 0 0 0 0
2088089272 -0.012138978578150272 0.05891004204750061 0.017375236377120018 -0.006893805228173733 0 0 0 0
2091811356 0.022946033626794815 0.07286912202835083 0.01583494059741497 -0.009006910026073456 0 0 0 0
2095533440 0.059639424085617065 0.08160694688558578 0.01493370532989502 -0.011238668113946915 0 0 0 0
2099255524 0.09743230789899826 0.08446907997131348 0.013349597342312336 -0.01395345851778984 0 0 0 0
2102977608 0.13610786199569702 0.08084169030189514 0.010683978907763958 -0.01692925952374935 0 0 0 0
2106699692 0.17331427335739136 0.06968212127685547 0.006724684499204159 -0.018867071717977524 0 0 0 0
2110421776 0.20963752269744873 0.05312344431877136 0.002469991333782673 -0.019773367792367935 0 0 0 0
2114143860 0.24103398621082306 0.030608393251895905 -0.0015443088486790657 -0.01873365417122841 0 0 0 0
2117865944 0.26690468192100525 -0.000649377703666687 -0.004832151345908642 -0.017619984224438667 0 0 0 0
2121588028 0.28684353828430176 -0.028980597853660583 -0.007207936607301235 -0.01620497927069664 0 0 0 0
2125310112 0.3011547327041626 -0.0633283331990242 -0.009793000295758247 -0.01476529985666275 0 0 0 0
2129032196 0.30955618619918823 -0.09889593720436096 -0.012700969353318214 -0.012627200223505497 0 0 0 0
2132754280 0.3142370283603668 -0.13254258036613464 -0.01491439901292324 -0.00965460017323494 0 0 0 0
2136476364 0.31361931562423706 -0.16714529693126678 -0.01606367900967598 -0.005854549817740917 0 0 0 0
2140198448 0.3062216341495514 -0.20073752105236053 -0.015837514773011208 -0.0022208960726857185 0 0 0 0
2143920532 0.2945244312286377 -0.23235471546649933 -0.014742311090230942 0.0007189614698290825 0 0 0 0
2147642616 0.2747438848018646 -0.26554393768310547 -0.013268901035189629 0.00293069239705801 0 0 0 0
2151364700 0.25270164012908936 -0.29053881764411926 -0.011649693362414837 0.0044563086703419685 0 0 0 0
2155086784 0.22822123765945435 -0.310960590839386 -0.010203352198004723 0.005396927706897259 0 0 0 0
2158808868 0.19991141557693481 -0.3273158669471741 -0.00915819313377142 0.005862584337592125 0 0 0 0
2162530952 0.16932952404022217 -0.34004953503608704 -0.0084320567548275 0.006346173584461212 0 0 0 0
2166253036 0.1407935619354248 -0.34622126817703247 -0.008085506036877632 0.00683199055492878 0 0 0 0
2169975120 0.10597018897533417 -0.35009175539016724 -0.00768797192722559 0.008133853785693645 0 0 0 0
2173697204 0.0748685821890831 -0.34699589014053345 -0.006638990715146065 0.00956675224006176 0 0 0 0
2177419288 0.04179323837161064 -0.33903825283050537 -0.005045987665653229 0.010489932261407375 0 0 0 0
2181141372 0.014562912285327911 -0.3267728388309479 -0.0038821781054139137 0.011067477986216545 0 0 0 0
2184863456 -0.011248044669628143 -0.3099674880504608 -0.002421976998448372 0.011982183903455734 0 0 0 0
2188585540 -0.032689742743968964 -0.2900371253490448 -0.0004567950963973999 0.012819175608456135 0 0 0 0
2192307624 -0.055162277072668076 -0.26520639657974243 0.0018116505816578865 0.013162913732230663 0 0 0 0
2196029708 -0.06930382549762726 -0.23851850628852844 0.004666479304432869 0.01296419557183981 0 0 0 0
2199751792 -0.08105991780757904 -0.20949822664260864 0.007359716109931469 0.01175557542592287 0 0 0 0
2203473876 -0.08623772859573364 -0.17789238691329956 0.009315017610788345 0.009836779907345772 0 0 0 0
2207195960 -0.08674094825983047 -0.1471843272447586 0.010571939870715141 0.007809523493051529 0 0 0 0
2210918044 -0.08152705430984497 -0.11725329607725143 0.011582452803850174 0.005900495685636997 0 0 0 0
2214640128 -0.07322483509778976 -0.08726125955581665 0.012559834867715836 0.0037971027195453644 0 0 0 0
2218362212 -0.05910855159163475 -0.060910969972610474 0.013187561184167862 0.0015532216057181358 0 0 0 0
2222084296 -0.04128722473978996 -0.03617921844124794 0.01345943845808506 -0.0010197609663009644 0 0 0 0
2225806380 -0.01946927420794964 -0.014934010803699493 0.013183807954192162 -0.0041224174201488495 0 0 0 0
2229528464 0.006528723984956741 0.0017898734658956528 0.012224426493048668 -0.007040171884000301 0 0 0 0
2233250548 0.03465484827756882 0.013902557082474232 0.01018587313592434 -0.009793350473046303 0 0 0 0
2236972632 0.06474979221820831 0.01958678476512432 0.007100705988705158 -0.011976677924394608 0 0 0 0
2240694716 0.09446901082992554 0.021866150200366974 0.0039405496791005135 -0.0127320047467947 0 0 0 0
2244416800 0.12413918972015381 0.017273955047130585 0.0008590221405029297 -0.012761670164763927 0 0 0 0
2248138884 0.15151870250701904 0.006778668612241745 -0.002170370891690254 -0.012107732705771923 0 0 0 0
2251860968 0.17640995979309082 -0.008725665509700775 -0.0045975930988788605 -0.010469269007444382 0 0 0 0
2255583052 0.1973758041858673 -0.02606576681137085 -0.006417535245418549 -0.008420777507126331 0 0 0 0
2259305136 0.21418806910514832 -0.048877544701099396 -0.007457029074430466 -0.006643279455602169 0 0 0 0
2263027220 0.22692732512950897 -0.07107334583997726 -0.008056470192968845 -0.004591579549014568 0 0 0 0
2266749304 0.23424296081066132 -0.09758956730365753 -0.008139295503497124 -0.002732396125793457 0 0 0 0
2270471388 0.2365494817495346 -0.12272234261035919 -0.007499277591705322 -0.0010672518983483315 0 0 0 0
2274193472 0.23520977795124054 -0.14759767055511475 -0.006687725894153118 0.00022292695939540863 0 0 0 0
2277915556 0.23256134986877441 -0.17199182510375977 -0.005720230750739574 0.000795118510723114 0 0 0 0
2281637640 0.22090356051921844 -0.19854778051376343 -0.004731513559818268 0.0009897705167531967 0 0 0 0
2285359724 0.21311356127262115 -0.21182508766651154 -0.004280309192836285 0.0007280921563506126 0 0 0 0
2289081808 0.18707610666751862 -0.23527203500270844 -0.004128709435462952 0.0006140284240245819 0 0 0 0
2292803892 0.17033204436302185 -0.2462562471628189 -0.004281841218471527 0.0006927531212568283 0 0 0 0
2296525976 0.15236732363700867 -0.2517642378807068 -0.004673071205615997 0.0007184091955423355 0 0 0 0
2300248060 0.1279844343662262 -0.25995752215385437 -0.005158730782568455 0.0009958334267139435 0 0 0 0
2303970144 0.11192275583744049 -0.26369890570640564 -0.0054990630596876144 0.001969418488442898 0 0 0 0
2307692228 0.08879175782203674 -0.26185843348503113 -0.005277177318930626 0.0033446811139583588 0 0 0 0
2311414312 0.06319279968738556 -0.2580527365207672 -0.004091727547347546 0.004014461301267147 0 0 0 0
2315136396 0.04017738997936249 -0.24901358783245087 -0.002941735088825226 0.004131916910409927 0 0 0 0
2318858480 0.022499624639749527 -0.23695123195648193 -0.0021643098443746567 0.0037460438907146454 0 0 0 0
2322580564 0.0004833117127418518 -0.21919633448123932 -0.0016401167958974838 0.0032052574679255486 0 0 0 0
2326302648 -0.012565918266773224 -0.19973520934581757 -0.0016341209411621094 0.0026892637833952904 0 0 0 0
2330024732 -0.01944177970290184 -0.17797183990478516 -0.0019603027030825615 0.0023340731859207153 0 0 0 0
2333746816 -0.029668211936950684 -0.1543773114681244 -0.002350844442844391 0.0025011617690324783 0 0 0 0
2337468900 -0.02870069071650505 -0.13117961585521698 -0.0025560911744832993 0.002798217348754406 0 0 0 0
2341190984 -0.029391568154096603 -0.10487237572669983 -0.0026319483295083046 0.0031774919480085373 0 0 0 0
2344913068 -0.023139730095863342 -0.0801190659403801 -0.0026864567771553993 0.003433993086218834 0 0 0 0
2348635152 -0.01129152998328209 -0.05718027055263519 -0.002671683207154274 0.0037911860272288322 0 0 0 0
2352357236 0.0028816722333431244 -0.03616431728005409 -0.002543744631111622 0.004515526816248894 0 0 0 0
2356079320 0.02111957035958767 -0.017785847187042236 -0.0019732648506760597 0.004968659952282906 0 0 0 0
2359801404 0.041857898235321045 -0.0033846255391836166 -0.00093831866979599 0.005301210097968578 0 0 0 0
2363523488 0.06486528366804123 0.00823286548256874 -0.0003710482269525528 0.005042442120611668 0 0 0 0
2367245572 0.09015468508005142 0.015886574983596802 -0.0003426922485232353 0.004523180425167084 0 0 0 0
2370967656 0.11645246297121048 0.019233323633670807 -0.000390518456697464 0.004745016805827618 0 0 0 0
2374689740 0.14408786594867706 0.01748892478644848 -0.00022723618894815445 0.005241909064352512 0 0 0 0
2378411824 0.1700880229473114 0.010527774691581726 0.00021265726536512375 0.00569250900298357 0 0 0 0
2382133908 0.19401293992996216 -0.0006423890590667725 0.0006912136450409889 0.005884071812033653 0 0 0 0
2385855992 0.21640461683273315 -0.014537006616592407 0.001567099243402481 0.0060721756890416145 0 0 0 0
2389578076 0.23473601043224335 -0.034422263503074646 0.002142510376870632 0.006276525557041168 0 0 0 0
2393300160 0.2501310110092163 -0.05492255464196205 0.0029942337423563004 0.006446287035942078 0 0 0 0
2397022244 0.26134154200553894 -0.07756507396697998 0.004127039574086666 0.006653130054473877 0 0 0 0
2400744328 0.2697918117046356 -0.10265889763832092 0.005685699172317982 0.00655859149992466 0 0 0 0
2404466412 0.2741932272911072 -0.12413293868303299 0.007381202653050423 0.005499404855072498 0 0 0 0
2408188496 0.27591443061828613 -0.149562805891037 0.008694281801581383 0.004059125669300556 0 0 0 0
2411910580 0.27615559101104736 -0.17101150751113892 0.009517453610897064 0.0025731343775987625 0 0 0 0
2415632664 0.2696714997291565 -0.1971239298582077 0.009977628476917744 0.0006996793672442436 0 0 0 0
2419354748 0.25800588726997375 -0.22194917500019073 0.010272725485265255 -0.0010412167757749557 0 0 0 0
2423076832 0.2467268407344818 -0.2429540604352951 0.01352383941411972 -0.002162378281354904 0 0 0 0
2426798916 0.22985585033893585 -0.26512497663497925 0.009228633716702461 -0.005321170203387737 0 0 0 0
2430521000 0.2108364850282669 -0.28115546703338623 0.007886188104748726 -0.006993626244366169 0 0 0 0
2434243084 0.19006995856761932 -0.2956046462059021 0.006340917199850082 -0.007941504009068012 0 0 0 0
2437965168 0.16529801487922668 -0.3087432086467743 0.004727913066744804 -0.008705268613994122 0 0 0 0
2441687252 0.14307747781276703 -0.31569236516952515 0.003507806919515133 -0.009051098488271236 0 0 0 0
2445409336 0.11733822524547577 -0.31995901465415955 0.0026372550055384636 -0.009305319748818874 0 0 0 0
2449131420 0.08868211507797241 -0.32014191150665283 0.0014016935601830482 -0.009957080706954002 0 0 0 0
2452853504 0.06139563024044037 -0.31680190563201904 2.2156164050102234e-05 -0.010499317198991776 0 0 0 0
2456575588 0.034765295684337616 -0.30593788623809814 -0.0013317493721842766 -0.010960101149976254 0 0 0 0
2460297672 0.009045824408531189 -0.2954667806625366 -0.0033204397186636925 -0.011224611662328243 0 0 0 0
2464019756 -0.012674957513809204 -0.27964040637016296 -0.005423886701464653 -0.011220595799386501 0 0 0 0
2467741840 -0.03342282772064209 -0.2599150836467743 -0.007501536048948765 -0.010516834445297718 0 0 0 0
2471463924 -0.04767069220542908 -0.23816713690757751 -0.009290184825658798 -0.009478174149990082 0 0 0 0
2475186008 -0.06424376368522644 -0.21403954923152924 -0.011321037076413631 -0.00794831570237875 0 0 0 0
2478908092 -0.0725322812795639 -0.18860501050949097 -0.012908663600683212 -0.006015384569764137 0 0 0 0
2482630176 -0.07983995974063873 -0.16133195161819458 -0.014083510264754295 -0.0038572782650589943 0 0 0 0
2486352260 -0.0815986841917038 -0.13328483700752258 -0.014709768816828728 -0.0013595959171652794 0 0 0 0
2490074344 -0.07967452704906464 -0.10449186712503433 -0.015039331279695034 0.0012562461197376251 0 0 0 0
2493796428 -0.07320251315832138 -0.07565714418888092 -0.014542960561811924 0.004226531833410263 0 0 0 0
2497518512 -0.06257011741399765 -0.04861342906951904 -0.013324178755283356 0.00678909569978714 0 0 0 0
2501240596 -0.04651421681046486 -0.024085966870188713 -0.011999856680631638 0.008602438494563103 0 0 0 0
2504962680 -0.027987947687506676 -0.002227618359029293 -0.01047857478260994 0.010272164829075336 0 0 0 0
2508684764 -0.0059404997155070305 0.016621779650449753 -0.008646722882986069 0.01198677346110344 0 0 0 0
2512406848 0.0182639192789793 0.031367335468530655 -0.006462444551289082 0.013384430669248104 0 0 0 0
2516128932 0.04498615115880966 0.042947135865688324 -0.003812544047832489 0.014176720753312111 0 0 0 0
2519851016 0.07326115667819977 0.050818197429180145 -0.001089382916688919 0.014365767128765583 0 0 0 0
2523573100 0.10339680314064026 0.05252137407660484 0.001430697739124298 0.01408875361084938 0 0 0 0
2527295184 0.13272351026535034 0.04947566241025925 0.003958247601985931 0.013493405655026436 0 0 0 0
2531017268 0.16043290495872498 0.04124493524432182 0.006328113377094269 0.012244220823049545 0 0 0 0
2534739352 0.18521808087825775 0.027578717097640038 0.008381323888897896 0.010216813534498215 0 0 0 0
2538461436 0.20732221007347107 0.011275075376033783 0.009853602387011051 0.007840256206691265 0 0 0 0
2542183520 0.2255888283252716 -0.00556134432554245 0.010617963038384914 0.005519543774425983 0 0 0 0
2545905604 0.24041253328323364 -0.026384390890598297 0.010972852818667889 0.0033787433058023453 0 0 0 0
2549627688 0.25204503536224365 -0.047676071524620056 0.01103337574750185 0.0012403763830661774 0 0 0 0
2553349772 0.26184648275375366 -0.0703863725066185 0.010563704185187817 -0.0009397417306900024 0 0 0 0
2557071856 0.266435444355011 -0.09390146285295486 0.009488135576248169 -0.0029889559373259544 0 0 0 0
2560793940 0.267490029335022 -0.12098103016614914 0.007859967648983002 -0.004511140286922455 0 0 0 0
2564516024 0.2660338878631592 -0.1419984996318817 0.006672394461929798 -0.004896101541817188 0 0 0 0
2568238108 0.2603036165237427 -0.16314053535461426 0.005625665187835693 -0.005653210915625095 0 0 0 0
2571960192 0.2507435381412506 -0.18418028950691223 0.004508910700678825 -0.00583210214972496 0 0 0 0
2575682276 0.24041405320167542 -0.2025127410888672 0.00347193144261837 -0.006049070507287979 0 0 0 0
2579404360 0.2268858104944229 -0.2175939828157425 0.002781584858894348 -0.00628008134663105 0 0 0 0
2583126444 0.2085440754890442 -0.2325112521648407 0.0021138079464435577 -0.006621621549129486 0 0 0 0
2586848528 0.19262105226516724 -0.24378113448619843 0.0011238502338528633 -0.0071455445140600204 0 0 0 0
2590570612 0.17780619859695435 -0.250992089509964 -0.00012391060590744019 -0.007266439497470856 0 0 0 0
2594292696 0.1577589213848114 -0.25892966985702515 -0.0012662019580602646 -0.007032805122435093 0 0 0 0
2598014780 0.13975748419761658 -0.26289454102516174 -0.0022895783185958862 -0.006478128023445606 0 0 0 0
2601736864 0.12229938060045242 -0.2643844187259674 -0.003396201878786087 -0.0060477228835225105 0 0 0 0
2605458948 0.10368447005748749 -0.26234808564186096 -0.004018425941467285 -0.0049748169258236885 0 0 0 0
2609181032 0.08447032421827316 -0.2575761675834656 -0.004339949227869511 -0.003875516355037689 0 0 0 0
2612903116 0.06600356101989746 -0.25057485699653625 -0.004490772262215614 -0.0033747609704732895 0 0 0 0
2616625200 0.05040223151445389 -0.23916095495224 -0.004710754379630089 -0.0027857087552547455 0 0 0 0
2620347284 0.03583540767431259 -0.22712445259094238 -0.004853532649576664 -0.002251449041068554 0 0 0 0
2624069368 0.025504060089588165 -0.212236225605011 -0.004736275412142277 -0.001560288481414318 0 0 0 0
2627791452 0.018572360277175903 -0.1957130879163742 -0.004518585279583931 -0.0011876355856657028 0 0 0 0
2631513536 0.012729838490486145 -0.1785394847393036 -0.004558905027806759 -0.001074344851076603 0 0 0 0
2635235620 0.011974823661148548 -0.16141147911548615 -0.0049033332616090775 -0.0005096159875392914 0 0 0 0
2638957704 0.013492840342223644 -0.1435905545949936 -0.004873747006058693 0.0001825392246246338 0 0 0 0
2642679788 0.01837051659822464 -0.12842883169651031 -0.004640396684408188 0.0008070487529039383 0 0 0 0
2646401872 0.025148484855890274 -0.11491679400205612 -0.004338587634265423 0.00129633117467165 0 0 0 0
2650123956 0.03545276075601578 -0.10231299698352814 -0.004054642282426357 0.001631295308470726 0 0 0 0
2653846040 0.04691217094659805 -0.0927957072854042 -0.003619118593633175 0.002078820951282978 0 0 0 0
2657568124 0.05914577096700668 -0.08631919324398041 -0.0029261745512485504 0.002175605855882168 0 0 0 0
2661290208 0.07510066777467728 -0.0821399912238121 -0.002777485176920891 0.001919780857861042 0 0 0 0
2665012292 0.08913544565439224 -0.08273644745349884 -0.0028055263683199883 0.002039920538663864 0 0 0 0
2668734376 0.10087332129478455 -0.08665125072002411 -0.002789696678519249 0.0025475770235061646 0 0 0 0
2672456460 0.11491232365369797 -0.0902063399553299 -0.0024335505440831184 0.0029058177024126053 0 0 0 0
2676178544 0.12348315119743347 -0.10018564015626907 -0.0021434323862195015 0.003344610333442688 0 0 0 0
2679900628 0.1313828080892563 -0.11041747778654099 -0.0015428289771080017 0.0037003187462687492 0 0 0 0
2683622712 0.13562920689582825 -0.12111738324165344 -0.0006629694253206253 0.004025071859359741 0 0 0 0
2687344796 0.13810504972934723 -0.13358527421951294 0.00033371709287166595 0.0038979295641183853 0 0 0 0
2691066880 0.1391488015651703 -0.1440872699022293 0.0010056383907794952 0.003354262560606003 0 0 0 0
2694788964 0.1374688446521759 -0.15578170120716095 0.0014245901256799698 0.0029331520199775696 0 0 0 0
2698511048 0.13199487328529358 -0.1669260859489441 0.001856282353401184 0.002774801105260849 0 0 0 0
2702233132 0.12427940964698792 -0.17702101171016693 0.0023758402094244957 0.0020761890336871147 0 0 0 0
2705955216 0.11733507364988327 -0.18423041701316833 0.0026621660217642784 0.0013389065861701965 0 0 0 0
2709677300 0.10488873720169067 -0.19236727058887482 0.0027237040922045708 0.0006597265601158142 0 0 0 0
2713399384 0.09022711217403412 -0.1978374570608139 0.002390515059232712 -5.939695984125137e-05 0 0 0 0
2717121468 0.07773105800151825 -0.2001202553510666 0.00192242581397295 -0.00041703134775161743 0 0 0 0
2720843552 0.06353580951690674 -0.19772186875343323 0.0018542995676398277 -0.0006552096456289291 0 0 0 0
2724565636 0.04648353159427643 -0.19547998905181885 0.0014461781829595566 -0.001019323244690895 0 0 0 0
2728287720 0.0366508774459362 -0.18836642801761627 0.0011449949815869331 -0.0009171487763524055 0 0 0 0
2732009804 0.021928589791059494 -0.1796446591615677 0.0009979698807001114 -0.0008491836488246918 0 0 0 0
2735731888 0.011101987212896347 -0.1678457260131836 0.0010215817019343376 -0.0007033767178654671 0 0 0 0
2739453972 0.001981385052204132 -0.15500867366790771 0.0010609319433569908 -0.0007834024727344513 0 0 0 0
2743176056 -0.006587316282093525 -0.13900229334831238 0.0010395413264632225 -0.0006528804078698158 0 0 0 0
2746898140 -0.010972969233989716 -0.12156938761472702 0.0013666339218616486 -0.000638977624475956 0 0 0 0
2750620224 -0.010678038001060486 -0.10353678464889526 0.0019668862223625183 -0.0009860116988420486 0 0 0 0
2754342308 -0.008623537607491016 -0.08593475073575974 0.0021098507568240166 -0.0018589980900287628 0 0 0 0
2758064392 -0.0029478659853339195 -0.06851619482040405 0.0018829666078090668 -0.00274740532040596 0 0 0 0
2761786476 0.004312451928853989 -0.051870256662368774 0.0010813362896442413 -0.003607657738029957 0 0 0 0
2765508560 0.014458492398262024 -0.03600665181875229 8.992105722427368e-05 -0.004028959199786186 0 0 0 0
2769230644 0.027381310239434242 -0.02113027311861515 -0.000994197092950344 -0.003921298310160637 0 0 0 0
2772952728 0.04361830651760101 -0.008301516063511372 -0.0018725711852312088 -0.0034968508407473564 0 0 0 0
2776674812 0.06260217726230621 0.001554945483803749 -0.002629064954817295 -0.002702353522181511 0 0 0 0
2780396896 0.08407596498727798 0.009083106182515621 -0.0028382660821080208 -0.0017813006415963173 0 0 0 0
2784118980 0.1050313413143158 0.010891079902648926 -0.0026418743655085564 -0.001051018014550209 0 0 0 0
2787841064 0.1272432655096054 0.009312115609645844 -0.0023293262347579002 -0.00045347120612859726 0 0 0 0
2791563148 0.14851731061935425 0.00653422623872757 -0.0018967082723975182 -0.00039441417902708054 0 0 0 0
2795285232 0.16916272044181824 -0.0016894936561584473 -0.001581038348376751 -0.0004307953640818596 0 0 0 0
2799007316 0.19016775488853455 -0.012424618005752563 -0.001460229977965355 -0.00041257962584495544 0 0 0 0
2802729400 0.20843888819217682 -0.026601620018482208 -0.0015561757609248161 -0.0004871189594268799 0 0 0 0
2806451484 0.22450992465019226 -0.04388082027435303 -0.001931603066623211 -0.000502539798617363 0 0 0 0
2810173568 0.23738303780555725 -0.06060885265469551 -0.0022129304707050323 -5.878973752260208e-05 0 0 0 0
2813895652 0.24816641211509705 -0.08211159706115723 -0.0022285208106040955 0.0005472442135214806 0 0 0 0
2817617736 0.25575917959213257 -0.10678744316101074 -0.001959153451025486 0.0010525314137339592 0 0 0 0
2821339820 0.2572687566280365 -0.13315148651599884 -0.0016566142439842224 0.0014969203621149063 0 0 0 0
2825061904 0.2575695514678955 -0.15679118037223816 -0.0011702058836817741 0.0019557420164346695 0 0 0 0
2828783988 0.2521423399448395 -0.18113045394420624 -0.0004407241940498352 0.0023508230224251747 0 0 0 0
2832506072 0.2449372261762619 -0.20092403888702393 0.0005339337512850761 0.002292162738740444 0 0 0 0
2836228156 0.23172837495803833 -0.22512204945087433 0.001344042830169201 0.0019816989079117775 0 0 0 0
2839950240 0.22042062878608704 -0.24391789734363556 0.0017361976206302643 0.0013241823762655258 0 0 0 0
2843672324 0.20516157150268555 -0.25926679372787476 0.002222539857029915 0.0004533780738711357 0 0 0 0
2847394408 0.18611618876457214 -0.2773667871952057 0.002261253073811531 -0.0002818834036588669 0 0 0 0
2851116492 0.16856515407562256 -0.28972816467285156 0.0019599320366978645 -0.0009119519963860512 0 0 0 0
2854838576 0.14670726656913757 -0.29951998591423035 0.001535673625767231 -0.0013301149010658264 0 0 0 0
2858560660 0.12955760955810547 -0.3060489892959595 0.0013334555551409721 -0.0018875496461987495 0 0 0 0
2862282744 0.10477298498153687 -0.31192225217819214 0.0010056765750050545 -0.002076275646686554 0 0 0 0
2866004828 0.08105207979679108 -0.3155117630958557 0.0007056668400764465 -0.002156398259103298 0 0 0 0
2869726912 0.058329902589321136 -0.3156547546386719 0.0004577990621328354 -0.002253340557217598 0 0 0 0
2873448996 0.035583123564720154 -0.31206071376800537 0.0001617753878235817 -0.0023576142266392708 0 0 0 0
2877171080 0.012325823307037354 -0.30553552508354187 -0.00011848472058773041 -0.0024769995361566544 0 0 0 0
2880893164 -0.010720580816268921 -0.296650767326355 -0.0006809365004301071 -0.00242023728787899 0 0 0 0
2884615248 -0.0357867032289505 -0.2841796278953552 -0.0011375127360224724 -0.0023538796231150627 0 0 0 0
2888337332 -0.05213463306427002 -0.2694563567638397 -0.001544238068163395 -0.0019693076610565186 0 0 0 0
2892059416 -0.069113589823246 -0.253307580947876 -0.001798952929675579 -0.0016187801957130432 0 0 0 0
2895781500 -0.08448702096939087 -0.23508653044700623 -0.0018868781626224518 -0.0012261737138032913 0 0 0 0
2899503584 -0.09808351844549179 -0.21306201815605164 -0.002030998468399048 -0.0007208194583654404 0 0 0 0
2903225668 -0.11220715194940567 -0.1883835792541504 -0.001993793062865734 -0.0002200063318014145 0 0 0 0
2906947752 -0.12001272290945053 -0.16322627663612366 -0.0019440650939941406 0.00020716898143291473 0 0 0 0
2910669836 -0.12528960406780243 -0.13558919727802277 -0.001949826255440712 0.0006360532715916634 0 0 0 0
2914391920 -0.1238076463341713 -0.1089654266834259 -0.0018473826348781586 0.0010856837034225464 0 0 0 0
2918114004 -0.12078404426574707 -0.08090657740831375 -0.0013099731877446175 0.0016827471554279327 0 0 0 0
2921836088 -0.11345908045768738 -0.05554682016372681 -0.0007886597886681557 0.0018593762069940567 0 0 0 0
2925558172 -0.10293443500995636 -0.032520540058612823 -0.0002482505515217781 0.0020384956151247025 0 0 0 0
2929280256 -0.0904460996389389 -0.010756976902484894 0.0002525337040424347 0.0019056973978877068 0 0 0 0
2933002340 -0.07501453161239624 0.01133264135569334 0.000588209368288517 0.0018037492409348488 0 0 0 0
2936724424 -0.057074278593063354 0.030940767377614975 0.0009019840508699417 0.0018704244866967201 0 0 0 0
2940446508 -0.03696851432323456 0.04724540561437607 0.001230727881193161 0.0018693134188652039 0 0 0 0
2944168592 -0.01442204974591732 0.06232686713337898 0.001599157229065895 0.001669619232416153 0 0 0 0
2947890676 0.011501559056341648 0.07374237477779388 0.0018075443804264069 0.0015849871560931206 0 0 0 0
2951612760 0.037062324583530426 0.0827188491821289 0.0021967580541968346 0.0014426624402403831 0 0 0 0
2955334844 0.06605257093906403 0.08646398782730103 0.002603151835501194 0.0013657491654157639 0 0 0 0
2959056928 0.09349025040864944 0.08799929916858673 0.003330049104988575 0.0011864583939313889 0 0 0 0
2962779012 0.122499480843544 0.08254390954971313 0.003886546939611435 0.0009008543565869331 0 0 0 0
2966501096 0.14895197749137878 0.07289782911539078 0.0043192654848098755 0.00018752459436655045 0 0 0 0
2970223180 0.17343902587890625 0.06391353905200958 0.004637623205780983 -0.0009992960840463638 0 0 0 0
2973945264 0.19649706780910492 0.04791867733001709 0.004344015382230282 -0.001980101689696312 0 0 0 0
2977667348 0.2182069718837738 0.029434986412525177 0.0038876524195075035 -0.002667452208697796 0 0 0 0
2981389432 0.2352001667022705 0.009554662741720676 0.0033891387283802032 -0.003356737084686756 0 0 0 0
2985111516 0.2505711615085602 -0.014213873073458672 0.00261567160487175 -0.003993313759565353 0 0 0 0
2988833600 0.2599612772464752 -0.04033960402011871 0.0017893528565764427 -0.004416144452989101 0 0 0 0
2992555684 0.26782751083374023 -0.06415554136037827 0.0009711617603898048 -0.004474653862416744 0 0 0 0
2996277768 0.2707644999027252 -0.08728682994842529 -1.3772398233413696e-05 -0.004261543974280357 0 0 0 0
2999999852 0.27150121331214905 -0.11329518258571625 -0.0006649177521467209 -0.004002882167696953 0 0 0 0
