# HZ S RI R 50
1500000000 -0.1324985772371292 -0.05421132594347 0.04142998531460762 -0.029949817806482315 0 0 0 0
1503722084 -0.11969512701034546 -0.021918106824159622 0.03522450849413872 -0.03764274716377258 0 0 0 0
1507444168 -0.1017053872346878 0.008956968784332275 0.026148991659283638 -0.0450725220143795 0 0 0 0
1511166252 -0.07761242240667343 0.0360548160970211 0.01734246127307415 -0.04860537871718407 0 0 0 0
1514888336 -0.0456526093184948 0.06080329045653343 0.007253704592585564 -0.050270311534404755 0 0 0 0
1518610420 -0.007072567939758301 0.08029521256685257 -0.002284696325659752 -0.0493713840842247 0 0 0 0
1522332504 0.036718860268592834 0.0925934761762619 -0.01102448534220457 -0.04665754735469818 0 0 0 0
1526054588 0.08256710320711136 0.09714727848768234 -0.018525749444961548 -0.042230863124132156 0 0 0 0
1529776672 0.13049545884132385 0.09341078996658325 -0.02490943856537342 -0.03676317632198334 0 0 0 0
1533498756 0.17990742623806 0.07772668451070786 -0.029489759355783463 -0.029477616772055626 0 0 0 0
1537220840 0.22539135813713074 0.05601897090673447 -0.03186362609267235 -0.022224850952625275 0 0 0 0
1540942924 0.26741912961006165 0.02437625825405121 -0.032563891261816025 -0.015484636649489403 0 0 0 0
1544665008 0.3025929033756256 -0.012627881020307541 -0.03241244703531265 -0.010216903872787952 0 0 0 0
1548387092 0.3330484926700592 -0.056281328201293945 -0.03223922476172447 -0.005474117584526539 0 0 0 0
1552109176 0.35676613450050354 -0.10530412197113037 -0.031459368765354156 -0.0009511811658740044 0 0 0 0
1555831260 0.3731357157230377 -0.15945550799369812 -0.02988719753921032 0.0037256423383951187 0 0 0 0
1559553344 0.3791137635707855 -0.21570342779159546 -0.02722274139523506 0.007793659344315529 0 0 0 0
1563275428 0.3783644437789917 -0.2745994031429291 -0.024364802986383438 0.010565889067947865 0 0 0 0
1566997512 0.36566221714019775 -0.3325430154800415 -0.021282166242599487 0.013323159888386726 0 0 0 0
1570719596 0.3424221873283386 -0.3880031108856201 -0.01791558414697647 0.015296936966478825 0 0 0 0
1574441680 0.30875909328460693 -0.4406422972679138 -0.014630272053182125 0.01662769913673401 0 0 0 0
1578163764 0.2721799910068512 -0.4853222072124481 -0.011646538972854614 0.017323775216937065 0 0 0 0
1581885848 0.22503019869327545 -0.5245653390884399 -0.00912034884095192 0.017628071829676628 0 0 0 0
1585607932 0.1697661280632019 -0.556772768497467 -0.006650511175394058 0.017735708504915237 0 0 0 0
1589330016 0.11829197406768799 -0.5811913013458252 -0.004869706928730011 0.017594121396541595 0 0 0 0
1593052100 0.05288247764110565 -0.598804235458374 -0.0032334821298718452 0.017479445785284042 0 0 0 0
1596774184 -0.0067804716527462006 -0.6055796146392822 -0.001469641923904419 0.017835738137364388 0 0 0 0
1600496268 -0.0697401762008667 -0.6034759879112244 0.0007953988388180733 0.018008548766374588 0 0 0 0
1604218352 -0.13078349828720093 -0.5935482978820801 0.0034327758476138115 0.0176217220723629 0 0 0 0
1607940436 -0.1934150606393814 -0.5736349821090698 0.0057645635679364204 0.016531212255358696 0 0 0 0
1611662520 -0.25308114290237427 -0.5453528165817261 0.007797187194228172 0.015471993014216423 0 0 0 0
1615384604 -0.3099896311759949 -0.5070921182632446 0.009419826790690422 0.014342926442623138 0 0 0 0
1619106688 -0.3599850535392761 -0.46114835143089294 0.011137048713862896 0.013375816866755486 0 0 0 0
1622828772 -0.4039073586463928 -0.40502840280532837 0.013019528239965439 0.012322768568992615 0 0 0 0
1626550856 -0.43955349922180176 -0.3430042564868927 0.015298601239919662 0.010453224182128906 0 0 0 0
1630272940 -0.46433785557746887 -0.2739609479904175 0.01712416484951973 0.007941557094454765 0 0 0 0
1633995024 -0.48151975870132446 -0.20182424783706665 0.01879904232919216 0.004882412031292915 0 0 0 0
1637717108 -0.4858860373497009 -0.12781979143619537 0.019696630537509918 0.001319953240454197 0 0 0 0
1641439192 -0.4800344705581665 -0.054964691400527954 0.019797589629888535 -0.002182045951485634 0 0 0 0
1645161276 -0.4622584879398346 0.0207500122487545 0.019445279613137245 -0.005475332960486412 0 0 0 0
1648883360 -0.4323329031467438 0.09498602151870728 0.018460819497704506 -0.00903435330837965 0 0 0 0
1652605444 -0.39155590534210205 0.16136521100997925 0.016846852377057076 -0.012385345064103603 0 0 0 0
1656327528 -0.33824414014816284 0.2234189361333847 0.014055517502129078 -0.01593506895005703 0 0 0 0
1660049612 -0.2770785391330719 0.2754259705543518 0.010189682245254517 -0.018694700673222542 0 0 0 0
1663771696 -0.20739692449569702 0.31765177845954895 0.005585306324064732 -0.01994076929986477 0 0 0 0
1667493780 -0.13378725945949554 0.349662184715271 0.001420566812157631 -0.02006574347615242 0 0 0 0
1671215864 -0.053270190954208374 0.37014198303222656 -0.002691797912120819 -0.019344471395015717 0 0 0 0
1674937948 0.031382784247398376 0.3792566955089569 -0.006383966654539108 -0.017577651888132095 0 0 0 0
1678660032 0.11731673777103424 0.3736438453197479 -0.009332403540611267 -0.015187786892056465 0 0 0 0
1682382116 0.19886347651481628 0.35465291142463684 -0.011216552928090096 -0.012268340215086937 0 0 0 0
1686104200 0.27655765414237976 0.3214948773384094 -0.012385794892907143 -0.009380211122334003 0 0 0 0
1689826284 0.34857451915740967 0.2777565121650696 -0.013043737038969994 -0.006737525574862957 0 0 0 0
1693548368 0.41280603408813477 0.2215137779712677 -0.013413408771157265 -0.004255334846675396 0 0 0 0
1697270452 0.4651888608932495 0.1577143371105194 -0.013271513395011425 -0.0017199553549289703 0 0 0 0
1700992536 0.5084673166275024 0.085286945104599 -0.012916488572955132 0.0006914613768458366 0 0 0 0
1704714620 0.539159893989563 0.009157538414001465 -0.012176970951259136 0.002972177229821682 0 0 0 0
1708436704 0.5570783615112305 -0.06955906748771667 -0.011100669391453266 0.005193931981921196 0 0 0 0
1712158788 0.5625686049461365 -0.1515711098909378 -0.008965001441538334 0.007189377211034298 0 0 0 0
1715880872 0.5547851324081421 -0.2325662225484848 -0.006470163352787495 0.008417671546339989 0 0 0 0
1719602956 0.5379677414894104 -0.3089267611503601 -0.0038618603721261024 0.008479316718876362 0 0 0 0
1723325040 0.5075052976608276 -0.3798162043094635 -0.0017503751441836357 0.007908323779702187 0 0 0 0
1727047124 0.46559473872184753 -0.447112500667572 -0.0002660844475030899 0.006992891430854797 0 0 0 0
1730769208 0.41729211807250977 -0.5031906962394714 0.0008202595636248589 0.005849476903676987 0 0 0 0
1734491292 0.35372665524482727 -0.5553960204124451 0.0014242557808756828 0.004802417941391468 0 0 0 0
1738213376 0.2914443016052246 -0.5918951034545898 0.0018252227455377579 0.0038064997643232346 0 0 0 0
1741935460 0.22649580240249634 -0.6193094849586487 0.00186246819794178 0.0027629733085632324 0 0 0 0
1745657544 0.15348568558692932 -0.636695384979248 0.0014493083581328392 0.0020183706656098366 0 0 0 0
1749379628 0.07917095720767975 -0.6432784795761108 0.0010719774290919304 0.0017344560474157333 0 0 0 0
1753101712 0.011130034923553467 -0.6356730461120605 0.0008443165570497513 0.0017342101782560349 0 0 0 0
1756823796 -0.0561283677816391 -0.6211116313934326 0.000980667769908905 0.0018039913848042488 0 0 0 0
1760545880 -0.1172565445303917 -0.5956900119781494 0.0011009983718395233 0.0017026904970407486 0 0 0 0
1764267964 -0.1747620552778244 -0.5605866312980652 0.001252526417374611 0.0013378402218222618 0 0 0 0
1767990048 -0.2248525321483612 -0.5213268995285034 0.0012858044356107712 0.0009213006123900414 0 0 0 0
1771712132 -0.2666359543800354 -0.47369131445884705 0.0010590041056275368 0.00040638726204633713 0 0 0 0
1775434216 -0.3038173019886017 -0.4209703803062439 0.00040523987263441086 -0.00014562718570232391 0 0 0 0
1779156300 -0.32817772030830383 -0.3664983808994293 -0.0006870068609714508 -0.0002898387610912323 0 0 0 0
1782878384 -0.34432268142700195 -0.3118545413017273 -0.0017140591517090797 0.0001946697011590004 0 0 0 0
1786600468 -0.3552999198436737 -0.2532746493816376 -0.002662649378180504 0.0011607417836785316 0 0 0 0
1790322552 -0.3585745692253113 -0.19334331154823303 -0.002935160882771015 0.002749207429587841 0 0 0 0
1794044636 -0.3522188067436218 -0.13514739274978638 -0.002446252852678299 0.0041254181414842606 0 0 0 0
1797766720 -0.33621862530708313 -0.08009204268455505 -0.0020248116925358772 0.005285215564072132 0 0 0 0
1801488804 -0.31386467814445496 -0.02756759524345398 -0.001224505715072155 0.007143685594201088 0 0 0 0
1805210888 -0.28412100672721863 0.020476065576076508 0.0006622606888413429 0.00879619549959898 0 0 0 0
1808932972 -0.24853365123271942 0.06386559456586838 0.003404674120247364 0.009694341570138931 0 0 0 0
1812655056 -0.20565363764762878 0.10327418148517609 0.006100799888372421 0.009251439943909645 0 0 0 0
1816377140 -0.15647584199905396 0.13251665234565735 0.008764363825321198 0.008764015510678291 0 0 0 0
1820099224 -0.10341023653745651 0.15355929732322693 0.01213828381150961 0.007315150462090969 0 0 0 0
1823821308 -0.049085818231105804 0.16435395181179047 0.014972034841775894 0.0036903321743011475 0 0 0 0
1827543392 0.00464276410639286 0.1666107177734375 0.015849390998482704 -0.0006560692563652992 0 0 0 0
1831265476 0.05584161728620529 0.1596834808588028 0.015166143886744976 -0.004608489573001862 0 0 0 0
1834987560 0.10366901755332947 0.14522387087345123 0.013418370857834816 -0.00812721811234951 0 0 0 0
1838709644 0.14756563305854797 0.1257304549217224 0.011068670079112053 -0.010490207001566887 0 0 0 0
1842431728 0.18753907084465027 0.09988398849964142 0.00830017775297165 -0.011854181997478008 0 0 0 0
1846153812 0.22148968279361725 0.06971269100904465 0.006137893535196781 -0.012088569812476635 0 0 0 0
1849875896 0.25151166319847107 0.03439348191022873 0.004732780158519745 -0.01240156777203083 0 0 0 0
1853597980 0.27420473098754883 -0.0051565393805503845 0.003397863358259201 -0.013064257800579071 0 0 0 0
1857320064 0.2916722893714905 -0.04373016953468323 0.0020504258573055267 -0.014019395224750042 0 0 0 0
1861042148 0.3016413450241089 -0.08628632128238678 0.00010123662650585175 -0.015086939558386803 0 0 0 0
1864764232 0.30385908484458923 -0.13067331910133362 -0.003060581162571907 -0.01587291620671749 0 0 0 0
1868486316 0.2989844083786011 -0.17106637358665466 -0.0063698310405015945 -0.015398587100207806 0 0 0 0
1872208400 0.2869581878185272 -0.2099505513906479 -0.009171193465590477 -0.01405887771397829 0 0 0 0
1875930484 0.2689468264579773 -0.24641375243663788 -0.010876472108066082 -0.012734746560454369 0 0 0 0
1879652568 0.24689656496047974 -0.2790813744068146 -0.01275637373328209 -0.011291533708572388 0 0 0 0
1883374652 0.21970543265342712 -0.3067008852958679 -0.014667334035038948 -0.010287605226039886 0 0 0 0
1887096736 0.18800921738147736 -0.3271406888961792 -0.017506452277302742 -0.00879841297864914 0 0 0 0
1890818820 0.15291985869407654 -0.3418077826499939 -0.020612716674804688 -0.00614595040678978 0 0 0 0
1894540904 0.1166936457157135 -0.34904688596725464 -0.023274626582860947 -0.0016368990764021873 0 0 0 0
1898262988 0.08467639982700348 -0.34888145327568054 -0.024236608296632767 0.003998374566435814 0 0 0 0
1901985072 0.0500950887799263 -0.34392502903938293 -0.02290344424545765 0.009236634708940983 0 0 0 0
1905707156 0.021424725651741028 -0.3334698975086212 -0.020742492750287056 0.013544789515435696 0 0 0 0
1909429240 -0.005578726530075073 -0.321393758058548 -0.0183660089969635 0.017452917993068695 0 0 0 0
1913151324 -0.030592091381549835 -0.3038789629936218 -0.015029789879918098 0.021328091621398926 0 0 0 0
1916873408 -0.05149146914482117 -0.28298938274383545 -0.010537082329392433 0.024635743349790573 0 0 0 0
1920595492 -0.06990738958120346 -0.2582920491695404 -0.00507805310189724 0.02668309584259987 0 0 0 0
1924317576 -0.08153364062309265 -0.23045136034488678 0.0005150754004716873 0.027358945459127426 0 0 0 0
1928039660 -0.08722417056560516 -0.20330177247524261 0.0060605257749557495 0.02692052535712719 0 0 0 0
1931761744 -0.09078194200992584 -0.17567016184329987 0.011951201595366001 0.025049204006791115 0 0 0 0
1935483828 -0.08773565292358398 -0.14697733521461487 0.01692521758377552 0.02103468030691147 0 0 0 0
1939205912 -0.0821063295006752 -0.11872825026512146 0.020240020006895065 0.016059648245573044 0 0 0 0
1942927996 -0.07025714218616486 -0.09225846827030182 0.02143758349120617 0.011037270538508892 0 0 0 0
1946650080 -0.05405900254845619 -0.06899350881576538 0.021478818729519844 0.007326682098209858 0 0 0 0
1950372164 -0.03316204994916916 -0.04786209017038345 0.021557560190558434 0.004103453829884529 0 0 0 0
1954094248 -0.008890479803085327 -0.031195461750030518 0.02204889804124832 0.0012360243126749992 0 0 0 0
1957816332 0.018026605248451233 -0.019029418006539345 0.02245284989476204 -0.0022784238681197166 0 0 0 0
1961538416 0.04675593227148056 -0.012428442016243935 0.02187691070139408 -0.006375348195433617 0 0 0 0
1965260500 0.07667367905378342 -0.01051868312060833 0.020452389493584633 -0.00952557846903801 0 0 0 0
1968982584 0.1072724461555481 -0.016990579664707184 0.019289635121822357 -0.012856857851147652 0 0 0 0
1972704668 0.1354159414768219 -0.028075553476810455 0.017521703615784645 -0.016404515132308006 0 0 0 0
1976426752 0.15992334485054016 -0.045394934713840485 0.01494743674993515 -0.02059224247932434 0 0 0 0
1980148836 0.17995640635490417 -0.06557303667068481 0.010798626579344273 -0.024040067568421364 0 0 0 0
1983870920 0.19629564881324768 -0.08928463608026505 0.005075331777334213 -0.02669411525130272 0 0 0 0
1987593004 0.20774999260902405 -0.11464504897594452 -0.0010715378448367119 -0.027585767209529877 0 0 0 0
1991315088 0.21333536505699158 -0.14188145101070404 -0.0070602260529994965 -0.026429299265146255 0 0 0 0
1995037172 0.21433277428150177 -0.16919028759002686 -0.012411425821483135 -0.023735541850328445 0 0 0 0
1998759256 0.2091890424489975 -0.19652843475341797 -0.016293710097670555 -0.020006535574793816 0 0 0 0
2002481340 0.20088563859462738 -0.2224135398864746 -0.018876785412430763 -0.016095053404569626 0 0 0 0
2006203424 0.18853498995304108 -0.24553170800209045 -0.020852990448474884 -0.012821927666664124 0 0 0 0
2009925508 0.17026002705097198 -0.2653595507144928 -0.022466782480478287 -0.009513607248663902 0 0 0 0
2013647592 0.1542247235774994 -0.2802289128303528 -0.02401663176715374 -0.0064893485978245735 0 0 0 0
2017369676 0.13076816499233246 -0.29590633511543274 -0.025634871795773506 -0.0022661397233605385 0 0 0 0
2021091760 0.10501588881015778 -0.3073839843273163 -0.02686428651213646 0.0027416814118623734 0 0 0 0
2024813844 0.08075546473264694 -0.31221064925193787 -0.026631716638803482 0.008679067716002464 0 0 0 0
2028535928 0.053890034556388855 -0.3135565519332886 -0.024191325530409813 0.01432330347597599 0 0 0 0
2032258012 0.0265706405043602 -0.3094515800476074 -0.02039732038974762 0.018475890159606934 0 0 0 0
2035980096 -7.625669240951538e-05 -0.3018718659877777 -0.016243884339928627 0.02154332399368286 0 0 0 0
2039702180 -0.022908776998519897 -0.29014575481414795 -0.01192736066877842 0.023675190284848213 0 0 0 0
2043424264 -0.04451073706150055 -0.27428388595581055 -0.007293073460459709 0.024737520143389702 0 0 0 0
2047146348 -0.06537775695323944 -0.2561248540878296 -0.0029280753806233406 0.025135982781648636 0 0 0 0
2050868432 -0.08300445973873138 -0.2342197597026825 0.0015315134078264236 0.02512354403734207 0 0 0 0
2054590516 -0.09748169034719467 -0.20982900261878967 0.005525704473257065 0.02416093647480011 0 0 0 0
2058312600 -0.1084759533405304 -0.18129973113536835 0.009248338639736176 0.02296384610235691 0 0 0 0
2062034684 -0.11516626179218292 -0.15102684497833252 0.013219131156802177 0.0208444707095623 0 0 0 0
2065756768 -0.11636346578598022 -0.11964774876832962 0.016257937997579575 0.01809006743133068 0 0 0 0
2069478852 -0.11341507732868195 -0.08659818023443222 0.018855445086956024 0.014603858813643456 0 0 0 0
2073200936 -0.10451336205005646 -0.05375191196799278 0.02053169533610344 0.010847901925444603 0 0 0 0
2076923020 -0.08971431851387024 -0.022165078669786453 0.02168068289756775 0.006746274419128895 0 0 0 0
2080645104 -0.06876888871192932 0.006107565015554428 0.02171960100531578 0.003598252311348915 0 0 0 0
2084367188 -0.04290733486413956 0.03175104036927223 0.021315092220902443 0.0001815222203731537 0 0 0 0
2088089272 -0.013024931773543358 0.052556056529283524 0.020992428064346313 -0.0023658154532313347 0 0 0 0
2091811356 0.02131376788020134 0.06883768737316132 0.020901884883642197 -0.005180634558200836 0 0 0 0
2095533440 0.056935083121061325 0.07871845364570618 0.020867645740509033 -0.008659216575324535 0 0 0 0
2099255524 0.09442637115716934 0.0821816474199295 0.019496290013194084 -0.012919953092932701 0 0 0 0
2102977608 0.13345137238502502 0.07891649007797241 0.016961142420768738 -0.01687023974955082 0 0 0 0
2106699692 0.17055484652519226 0.07014808058738708 0.013369575142860413 -0.019910143688321114 0 0 0 0
2110421776 0.2063770443201065 0.055728815495967865 0.009123860858380795 -0.022354882210493088 0 0 0 0
2114143860 0.23956257104873657 0.029061615467071533 0.004262538626790047 -0.023616991937160492 0 0 0 0
2117865944 0.2659600079059601 0.001278892159461975 -0.0003858618438243866 -0.0236654169857502 0 0 0 0
2121588028 0.28582531213760376 -0.030121803283691406 -0.005007448606193066 -0.023059913888573647 0 0 0 0
2125310112 0.2998426854610443 -0.06358888745307922 -0.009241858497262001 -0.021588167175650597 0 0 0 0
2129032196 0.30829423666000366 -0.1004260927438736 -0.013702470809221268 -0.018790023401379585 0 0 0 0
2132754280 0.31087467074394226 -0.1326526403427124 -0.017299357801675797 -0.014705701731145382 0 0 0 0
2136476364 0.30959561467170715 -0.16668616235256195 -0.018962090834975243 -0.009954938665032387 0 0 0 0
2140198448 0.3025471270084381 -0.1999060958623886 -0.018911955878138542 -0.005445840768516064 0 0 0 0
2143920532 0.288754940032959 -0.23287788033485413 -0.017888346686959267 -0.002186439000070095 0 0 0 0
2147642616 0.2703419327735901 -0.2618975043296814 -0.016763366758823395 0.00016838405281305313 0 0 0 0
2151364700 0.2520788013935089 -0.28408315777778625 -0.01601254567503929 0.001940382644534111 0 0 0 0
2155086784 0.22629410028457642 -0.3054907023906708 -0.015157715417444706 0.003835550509393215 0 0 0 0
2158808868 0.19748356938362122 -0.3241501748561859 -0.014231976121664047 0.005780371837317944 0 0 0 0
2162530952 0.17046338319778442 -0.33341965079307556 -0.01342204213142395 0.007158222608268261 0 0 0 0
2166253036 0.13802051544189453 -0.3406562805175781 -0.01253526285290718 0.009020055644214153 0 0 0 0
2169975120 0.10819653421640396 -0.34221574664115906 -0.01155092753469944 0.011230231262743473 0 0 0 0
2173697204 0.07792077958583832 -0.3397446274757385 -0.009594221599400043 0.013481810688972473 0 0 0 0
2177419288 0.052275151014328 -0.3325100541114807 -0.006881234236061573 0.01489945501089096 0 0 0 0
2181141372 0.02718987688422203 -0.32285788655281067 -0.00414398405700922 0.015658501535654068 0 0 0 0
2184863456 0.0015822798013687134 -0.30958184599876404 -0.0013014106079936028 0.015821024775505066 0 0 0 0
2188585540 -0.024041064083576202 -0.2928917109966278 0.0011442601680755615 0.01575014926493168 0 0 0 0
2192307624 -0.046402424573898315 -0.2704392075538635 0.00365628395229578 0.015317950397729874 0 0 0 0
2196029708 -0.06447941064834595 -0.24392201006412506 0.006560700014233589 0.014617379754781723 0 0 0 0
2199751792 -0.07764122635126114 -0.21585457026958466 0.009336765855550766 0.012920725159347057 0 0 0 0
2203473876 -0.08263221383094788 -0.18436075747013092 0.011537515558302402 0.010644598864018917 0 0 0 0
2207195960 -0.08444717526435852 -0.1539289653301239 0.01278669573366642 0.00796869583427906 0 0 0 0
2210918044 -0.0804562121629715 -0.12388798594474792 0.013442901894450188 0.00543889869004488 0 0 0 0
2214640128 -0.07367867231369019 -0.0947156772017479 0.013743361458182335 0.0031626038253307343 0 0 0 0
2218362212 -0.0593164898455143 -0.0697653666138649 0.013749374076724052 0.0006945105269551277 0 0 0 0
2222084296 -0.04451441019773483 -0.04423174262046814 0.013531632721424103 -0.0017553837969899178 0 0 0 0
2225806380 -0.024159761145710945 -0.0221724770963192 0.012872436083853245 -0.004212913103401661 0 0 0 0
2229528464 -0.000712299719452858 -0.003580399788916111 0.011735592037439346 -0.0066667236387729645 0 0 0 0
2233250548 0.026401109993457794 0.009754693135619164 0.010206655599176884 -0.009068990126252174 0 0 0 0
2236972632 0.0551561675965786 0.01882474310696125 0.007782544009387493 -0.010963233187794685 0 0 0 0
2240694716 0.08467411249876022 0.023646151646971703 0.004952718503773212 -0.012121769599616528 0 0 0 0
2244416800 0.11480266600847244 0.02051592618227005 0.001856987364590168 -0.012475007213652134 0 0 0 0
2248138884 0.14390185475349426 0.01326768845319748 -0.0012358464300632477 -0.011840371415019035 0 0 0 0
2251860968 0.17030002176761627 -0.001146409660577774 -0.0037401262670755386 -0.010203097015619278 0 0 0 0
2255583052 0.19437828660011292 -0.018925238400697708 -0.004917210899293423 -0.008501495234668255 0 0 0 0
2259305136 0.2151678204536438 -0.036250337958335876 -0.005735923536121845 -0.0069387489929795265 0 0 0 0
2263027220 0.2299722284078598 -0.06269153952598572 -0.006158608011901379 -0.005388996563851833 0 0 0 0
2266749304 0.23852580785751343 -0.08997273445129395 -0.0062935128808021545 -0.0038563814014196396 0 0 0 0
2270471388 0.24332912266254425 -0.1169571578502655 -0.005948496051132679 -0.0027434881776571274 0 0 0 0
2274193472 0.24777814745903015 -0.1395394653081894 -0.005404209718108177 -0.00216775294393301 0 0 0 0
2277915556 0.24107635021209717 -0.16875052452087402 -0.00500316359102726 -0.001764693297445774 0 0 0 0
2281637640 0.23190690577030182 -0.19576910138130188 -0.004769675433635712 -0.001731867901980877 0 0 0 0
2285359724 0.21685394644737244 -0.2191040962934494 -0.0049898456782102585 -0.0018712393939495087 0 0 0 0
2289081808 0.19852840900421143 -0.23749391734600067 -0.005530831404030323 -0.0020110178738832474 0 0 0 0
2292803892 0.17786157131195068 -0.2525881230831146 -0.006306024268269539 -0.001795419491827488 0 0 0 0
2296525976 0.15556220710277557 -0.2617541253566742 -0.0069808755069971085 -0.001155611127614975 0 0 0 0
2300248060 0.13340726494789124 -0.26694050431251526 -0.007786520756781101 -0.00039131101220846176 0 0 0 0
2303970144 0.11831021308898926 -0.2699907124042511 -0.008272354491055012 0.0011240439489483833 0 0 0 0
2307692228 0.08697162568569183 -0.26946815848350525 -0.008206499740481377 0.0028581349179148674 0 0 0 0
2311414312 0.06750988215208054 -0.26378247141838074 -0.0071135470643639565 0.0046424251049757 0 0 0 0
2315136396 0.04244401678442955 -0.2559517025947571 -0.005681408569216728 0.005635506473481655 0 0 0 0
2318858480 0.019625600427389145 -0.24269001185894012 -0.0043731918558478355 0.0055902693420648575 0 0 0 0
2322580564 -0.00664888322353363 -0.22570043802261353 -0.003334648907184601 0.0053168004378676414 0 0 0 0
2326302648 -0.01476123183965683 -0.204560786485672 -0.0028140638023614883 0.004955565556883812 0 0 0 0
2330024732 -0.030563388019800186 -0.180605947971344 -0.0028286417946219444 0.004782970063388348 0 0 0 0
2333746816 -0.035534802824258804 -0.15623065829277039 -0.0028186338022351265 0.004919970408082008 0 0 0 0
2337468900 -0.03870111331343651 -0.13033905625343323 -0.0025725839659571648 0.005233731120824814 0 0 0 0
2341190984 -0.03573833778500557 -0.10324528068304062 -0.0023025544360280037 0.005407754331827164 0 0 0 0
2344913068 -0.028371591120958328 -0.0770127922296524 -0.001837792806327343 0.005612725391983986 0 0 0 0
2348635152 -0.01632796972990036 -0.05351228266954422 -0.0013715792447328568 0.005931279622018337 0 0 0 0
2352357236 -0.0014455672353506088 -0.03257268667221069 -0.0007940027862787247 0.0061712441965937614 0 0 0 0
2356079320 0.01716628670692444 -0.013644751161336899 -0.00010549742728471756 0.005876458249986172 0 0 0 0
2359801404 0.039093174040317535 0.002308228984475136 0.0004487819969654083 0.005812632851302624 0 0 0 0
2363523488 0.06350155919790268 0.013933895155787468 0.0010642753913998604 0.005486796610057354 0 0 0 0
2367245572 0.08991594612598419 0.022236071527004242 0.0012585418298840523 0.005249754525721073 0 0 0 0
2370967656 0.1187860444188118 0.024391498416662216 0.0016725491732358932 0.005285611376166344 0 0 0 0
2374689740 0.14634551107883453 0.021481212228536606 0.002043241634964943 0.005101769231259823 0 0 0 0
2378411824 0.17177486419677734 0.013649016618728638 0.002538318745791912 0.004605135880410671 0 0 0 0
2382133908 0.1965162754058838 0.0037611108273267746 0.002693207934498787 0.004421945661306381 0 0 0 0
2385855992 0.21807363629341125 -0.013398885726928711 0.0028677480295300484 0.004112713970243931 0 0 0 0
2389578076 0.23795151710510254 -0.03062719851732254 0.0028358539566397667 0.004138806834816933 0 0 0 0
2393300160 0.2539215385913849 -0.0502343624830246 0.0029666703194379807 0.0045246463268995285 0 0 0 0
2397022244 0.26635003089904785 -0.07312771677970886 0.003668546676635742 0.0050828661769628525 0 0 0 0
2400744328 0.27209755778312683 -0.09891658276319504 0.00515768863260746 0.005027715116739273 0 0 0 0
2404466412 0.2784148156642914 -0.12245894968509674 0.006685398519039154 0.0043477388098835945 0 0 0 0
2408188496 0.2801441550254822 -0.1466243863105774 0.007644227705895901 0.0033327555283904076 0 0 0 0
2411910580 0.2779719829559326 -0.17443174123764038 0.00845060870051384 0.0022067250683903694 0 0 0 0
2415632664 0.2736150920391083 -0.19704093039035797 0.00925527885556221 0.0006473027169704437 0 0 0 0
2419354748 0.26298031210899353 -0.22182533144950867 0.009863553568720818 -0.0008176621049642563 0 0 0 0
2423076832 0.2522156536579132 -0.2441762387752533 0.010289081372320652 -0.0030237725004553795 0 0 0 0
2426798916 0.2364848256111145 -0.2663980722427368 0.00976487435400486 -0.005270058289170265 0 0 0 0
2430521000 0.21497505903244019 -0.28464609384536743 0.008367613889276981 -0.007352991029620171 0 0 0 0
2434243084 0.19307377934455872 -0.29950758814811707 0.006605787202715874 -0.008686656132340431 0 0 0 0
2437965168 0.17134889960289001 -0.3121909499168396 0.004937882535159588 -0.009541354142129421 0 0 0 0
2441687252 0.14731629192829132 -0.32003793120384216 0.003580937162041664 -0.010185785591602325 0 0 0 0
2445409336 0.11421559751033783 -0.3271960914134979 0.0020457273349165916 -0.010588188655674458 0 0 0 0
2449131420 0.08943869173526764 -0.32719969749450684 0.0007313424721360207 -0.01137584913522005 0 0 0 0
2452853504 0.06053870916366577 -0.322832852602005 -0.001238333061337471 -0.011715943925082684 0 0 0 0
2456575588 0.031271323561668396 -0.3145754635334015 -0.0029490673914551735 -0.011701095849275589 0 0 0 0
2460297672 0.008639708161354065 -0.30018001794815063 -0.004623690620064735 -0.011410143226385117 0 0 0 0
2464019756 -0.01673951745033264 -0.2846073806285858 -0.006836174055933952 -0.010926508344709873 0 0 0 0
2467741840 -0.03496444225311279 -0.2647145092487335 -0.008627262897789478 -0.010088478215038776 0 0 0 0
2471463924 -0.05665846914052963 -0.2410794347524643 -0.010350222699344158 -0.008964085020124912 0 0 0 0
2475186008 -0.06693767011165619 -0.2167430818080902 -0.011986854486167431 -0.007418732158839703 0 0 0 0
2478908092 -0.07740962505340576 -0.18879351019859314 -0.013528850860893726 -0.005500948987901211 0 0 0 0
2482630176 -0.08436989784240723 -0.15960630774497986 -0.014464199542999268 -0.0031017307192087173 0 0 0 0
2486352260 -0.08665579557418823 -0.13135217130184174 -0.015152588486671448 -0.0008980808779597282 0 0 0 0
2490074344 -0.0839318037033081 -0.10221607238054276 -0.015665944665670395 0.001690261997282505 0 0 0 0
2493796428 -0.07654740661382675 -0.07263888418674469 -0.015651052817702293 0.004664387553930283 0 0 0 0
2497518512 -0.06472243368625641 -0.0458834171295166 -0.014519204385578632 0.007761351764202118 0 0 0 0
2501240596 -0.04882746934890747 -0.021277692168951035 -0.012961803004145622 0.009970366023480892 0 0 0 0
2504962680 -0.02893836237490177 0.0014518648386001587 -0.011014759540557861 0.012082064524292946 0 0 0 0
2508684764 -0.0060358671471476555 0.019703945145010948 -0.009086130186915398 0.01406099833548069 0 0 0 0
2512406848 0.019233625382184982 0.03451942652463913 -0.006359510123729706 0.015901342034339905 0 0 0 0
2516128932 0.046268243342638016 0.04548831656575203 -0.003027224913239479 0.0168797317892313 0 0 0 0
2519851016 0.07491837441921234 0.052067529410123825 0.000743434764444828 0.01680176891386509 0 0 0 0
2523573100 0.10425430536270142 0.05202198773622513 0.004208278842270374 0.01574241928756237 0 0 0 0
2527295184 0.13312584161758423 0.04863842576742172 0.007001967169344425 0.014192887581884861 0 0 0 0
2531017268 0.16042962670326233 0.04123406857252121 0.009497974067926407 0.012220929376780987 0 0 0 0
2534739352 0.18448379635810852 0.02653127908706665 0.011345668695867062 0.009437773376703262 0 0 0 0
2538461436 0.20670711994171143 0.013294987380504608 0.012417968362569809 0.006548278033733368 0 0 0 0
2542183520 0.22481685876846313 -0.004688620567321777 0.012751134112477303 0.0035821422934532166 0 0 0 0
2545905604 0.24050357937812805 -0.02421554923057556 0.012579429894685745 0.0010445984080433846 0 0 0 0
2549627688 0.25224992632865906 -0.04893984645605087 0.011811524629592896 -0.001356811262667179 0 0 0 0
2553349772 0.26152536273002625 -0.07172518223524094 0.010821904987096786 -0.003659452311694622 0 0 0 0
2557071856 0.26851558685302734 -0.09441013634204865 0.008973297663033009 -0.005511638708412647 0 0 0 0
2560793940 0.26801156997680664 -0.11592615395784378 0.006864177994430065 -0.006314785219728947 0 0 0 0
2564516024 0.26590633392333984 -0.1416989266872406 0.005096958018839359 -0.0065855421125888824 0 0 0 0
2568238108 0.2601964473724365 -0.1619868278503418 0.0038298508152365685 -0.0064445985481143 0 0 0 0
2571960192 0.25296926498413086 -0.1805306375026703 0.002963874489068985 -0.0061851926147937775 0 0 0 0
2575682276 0.24064229428768158 -0.2012319713830948 0.0023910431191325188 -0.0061532314866781235 0 0 0 0
2579404360 0.2264307588338852 -0.2180209904909134 0.0019245492294430733 -0.006214816123247147 0 0 0 0
2583126444 0.2143317610025406 -0.230885848402977 0.0015102820470929146 -0.006693125702440739 0 0 0 0
2586848528 0.19740763306617737 -0.2424548864364624 0.0004577804356813431 -0.007130369544029236 0 0 0 0
2590570612 0.18128053843975067 -0.2512425184249878 -0.0006985394284129143 -0.007278327830135822 0 0 0 0
2594292696 0.16385215520858765 -0.2584410011768341 -0.0017262743785977364 -0.00721339974552393 0 0 0 0
2598014780 0.14517809450626373 -0.2639743983745575 -0.003019937314093113 -0.006961866281926632 0 0 0 0
2601736864 0.1284511238336563 -0.26579928398132324 -0.004207935184240341 -0.006493347696959972 0 0 0 0
2605458948 0.1053042784333229 -0.26539674401283264 -0.005204177461564541 -0.004961652681231499 0 0 0 0
2609181032 0.08760682493448257 -0.2609630823135376 -0.005571275949478149 -0.0038264691829681396 0 0 0 0
2612903116 0.06939608603715897 -0.2539733648300171 -0.005597333423793316 -0.0027964022010564804 0 0 0 0
2616625200 0.0528397336602211 -0.24310022592544556 -0.005558539181947708 -0.002003973349928856 0 0 0 0
2620347284 0.03786647319793701 -0.23215311765670776 -0.005359998904168606 -0.001226329244673252 0 0 0 0
2624069368 0.024946220219135284 -0.21821728348731995 -0.0048262570053339005 -0.0005530836060643196 0 0 0 0
2627791452 0.01869863085448742 -0.2013818919658661 -0.004408127628266811 -0.0006010299548506737 0 0 0 0
2631513536 0.011908616870641708 -0.1843911111354828 -0.004500498063862324 -0.000586874783039093 0 0 0 0
2635235620 0.007889673113822937 -0.16734051704406738 -0.004789008758962154 -0.00030225515365600586 0 0 0 0
2638957704 0.009282071143388748 -0.14831140637397766 -0.005112897604703903 0.0003336481750011444 0 0 0 0
2642679788 0.013358473777770996 -0.13238763809204102 -0.005009475164115429 0.0009918073192238808 0 0 0 0
2646401872 0.018952546641230583 -0.11815454810857773 -0.004718679003417492 0.001866648904979229 0 0 0 0
2650123956 0.02876291237771511 -0.1046658307313919 -0.004361153580248356 0.0025299200788140297 0 0 0 0
2653846040 0.0392853245139122 -0.09377104789018631 -0.0035870568826794624 0.003202850930392742 0 0 0 0
2657568124 0.05257005989551544 -0.08500482141971588 -0.0028891582041978836 0.003282018005847931 0 0 0 0
2661290208 0.06715024262666702 -0.07955457270145416 -0.002534586936235428 0.003396211192011833 0 0 0 0
2665012292 0.08125246316194534 -0.07807714492082596 -0.0022567715495824814 0.0035633081570267677 0 0 0 0
2668734376 0.09550518542528152 -0.07930151373147964 -0.001607411541044712 0.0037597324699163437 0 0 0 0
2672456460 0.11005779355764389 -0.08322077244520187 -0.0008238805457949638 0.0038076266646385193 0 0 0 0
2676178544 0.1216549277305603 -0.09110752493143082 -0.0002032564952969551 0.0037501053884625435 0 0 0 0
2679900628 0.13156315684318542 -0.10061471909284592 0.0003299582749605179 0.0034725507721304893 0 0 0 0
2683622712 0.13976441323757172 -0.11212734133005142 0.0007895799353718758 0.0031674448400735855 0 0 0 0
2687344796 0.14322078227996826 -0.12512889504432678 0.001351875253021717 0.0027772188186645508 0 0 0 0
2691066880 0.1450396180152893 -0.13857552409172058 0.001534600742161274 0.00224186759442091 0 0 0 0
2694788964 0.14288833737373352 -0.15178516507148743 0.0017091529443860054 0.0019949786365032196 0 0 0 0
2698511048 0.13775888085365295 -0.1651323139667511 0.001972959376871586 0.0017928313463926315 0 0 0 0
2702233132 0.133722722530365 -0.17454056441783905 0.0024697184562683105 0.0015421900898218155 0 0 0 0
2705955216 0.12289958447217941 -0.1862291395664215 0.002680051140487194 0.0006122924387454987 0 0 0 0
2709677300 0.11374954134225845 -0.19377025961875916 0.002644936554133892 -0.00027832668274641037 0 0 0 0
2713399384 0.09904280304908752 -0.2007477581501007 0.002396051771938801 -0.00088451337069273 0 0 0 0
2717121468 0.0828562006354332 -0.2042517364025116 0.001998663879930973 -0.0013407794758677483 0 0 0 0
2720843552 0.06869273632764816 -0.2065628468990326 0.0016379570588469505 -0.0014477791264653206 0 0 0 0
2724565636 0.05334439128637314 -0.2033463567495346 0.0011341553181409836 -0.0018071075901389122 0 0 0 0
2728287720 0.03911609202623367 -0.19816213846206665 0.000628977082669735 -0.0018491707742214203 0 0 0 0
2732009804 0.022689124569296837 -0.1896400898694992 0.00013059191405773163 -0.0015877969563007355 0 0 0 0
2735731888 0.008145108819007874 -0.17797863483428955 -8.736923336982727e-05 -0.0011927969753742218 0 0 0 0
2739453972 -0.00037476420402526855 -0.16444270312786102 7.820408791303635e-05 -0.0010171514004468918 0 0 0 0
2743176056 -0.01175081729888916 -0.1477491557598114 0.00011786911636590958 -0.0007640328258275986 0 0 0 0
2746898140 -0.01683230511844158 -0.12866483628749847 0.00047615915536880493 -0.0007150359451770782 0 0 0 0
2750620224 -0.01938851922750473 -0.10825004428625107 0.0007868800312280655 -0.0009642103686928749 0 0 0 0
2754342308 -0.017674455419182777 -0.08849956095218658 0.0009095268324017525 -0.0016838498413562775 0 0 0 0
2758064392 -0.011419936083257198 -0.06984023749828339 0.000626065768301487 -0.0022949855774641037 0 0 0 0
2761786476 -0.004139122553169727 -0.05204065889120102 -8.739717304706573e-05 -0.0026972899213433266 0 0 0 0
2765508560 0.005815938115119934 -0.034504055976867676 -0.0009813522920012474 -0.002520870417356491 0 0 0 0
2769230644 0.01892939582467079 -0.01794588938355446 -0.001402098685503006 -0.0018844055011868477 0 0 0 0
2772952728 0.035049617290496826 -0.0034239627420902252 -0.0016305595636367798 -0.001405598595738411 0 0 0 0
2776674812 0.055239237844944 0.0095480065792799 -0.001669631339609623 -0.0008668806403875351 0 0 0 0
2780396896 0.07781851291656494 0.017522640526294708 -0.0015898160636425018 -0.0005257250741124153 0 0 0 0
2784118980 0.10222093760967255 0.020026706159114838 -0.0012056054547429085 -0.00018660910427570343 0 0 0 0
2787841064 0.12616044282913208 0.01996629498898983 -0.0007972847670316696 -9.532738476991653e-05 0 0 0 0
2791563148 0.1504853069782257 0.017550930380821228 -0.0004629790782928467 -0.0002744775265455246 0 0 0 0
2795285232 0.17397935688495636 0.007858953438699245 -0.00033810269087553024 -0.0005876105278730392 0 0 0 0
2799007316 0.19528789818286896 -0.00497514009475708 -0.00029182620346546173 -0.0007907971739768982 0 0 0 0
2802729400 0.21517503261566162 -0.020916715264320374 -0.0004950240254402161 -0.0009996630251407623 0 0 0 0
2806451484 0.232330322265625 -0.04096037149429321 -0.0008290288969874382 -0.001135319471359253 0 0 0 0
2810173568 0.24578863382339478 -0.06100253388285637 -0.001157483085989952 -0.0009485222399234772 0 0 0 0
2813895652 0.25662073493003845 -0.0855589509010315 -0.0012710001319646835 -0.0006930120289325714 0 0 0 0
2817617736 0.26232385635375977 -0.10884149372577667 -0.0012909891083836555 -0.000435839407145977 0 0 0 0
2821339820 0.2634621858596802 -0.1376640647649765 -0.0013562757521867752 -0.00017400085926055908 0 0 0 0
2825061904 0.26203587651252747 -0.16295947134494781 -0.0014993688091635704 0.00018211547285318375 0 0 0 0
2828783988 0.25537559390068054 -0.18807432055473328 -0.0012036962434649467 0.0007104193791747093 0 0 0 0
2832506072 0.2475113421678543 -0.20874547958374023 -0.0007599825039505959 0.0010656947270035744 0 0 0 0
2836228156 0.23491394519805908 -0.22961795330047607 -0.00017381645739078522 0.0010673953220248222 0 0 0 0
2839950240 0.22135664522647858 -0.2489382028579712 0.0003513842821121216 0.0010157907381653786 0 0 0 0
2843672324 0.2030002623796463 -0.26607927680015564 0.0007180115208029747 0.000681120902299881 0 0 0 0
2847394408 0.18704167008399963 -0.2784796953201294 0.000955335795879364 0.0002732677385210991 0 0 0 0
2851116492 0.16338959336280823 -0.2924579083919525 0.0009425301104784012 -0.00013579335063695908 0 0 0 0
2854838576 0.14389806985855103 -0.30243805050849915 0.0010295761749148369 -0.0005232999101281166 0 0 0 0
2858560660 0.12652918696403503 -0.31116124987602234 0.0008903779089450836 -0.0013107741251587868 0 0 0 0
2862282744 0.10097237676382065 -0.3157016336917877 0.0005628392100334167 -0.0014532450586557388 0 0 0 0
2866004828 0.07639696449041367 -0.31857797503471375 0.0002698218449950218 -0.0014987578615546227 0 0 0 0
2869726912 0.053409844636917114 -0.3168579339981079 3.78219410777092e-05 -0.0015018442645668983 0 0 0 0
2873448996 0.02907422184944153 -0.31314486265182495 -0.00023369770497083664 -0.0014692610129714012 0 0 0 0
2877171080 0.0021656006574630737 -0.30518072843551636 -0.00023752078413963318 -0.001445007510483265 0 0 0 0
2880893164 -0.017828576266765594 -0.2960324287414551 -0.0004991507157683372 -0.001383339986205101 0 0 0 0
2884615248 -0.0368221178650856 -0.2816467881202698 -0.0007049422711133957 -0.001217646524310112 0 0 0 0
2888337332 -0.05792088061571121 -0.26618635654449463 -0.0008157407864928246 -0.0010646265000104904 0 0 0 0
2892059416 -0.07396848499774933 -0.2484656572341919 -0.0008965954184532166 -0.0009169355034828186 0 0 0 0
2895781500 -0.0869498923420906 -0.22962787747383118 -0.0009416071698069572 -0.0006762435659766197 0 0 0 0
2899503584 -0.09984595328569412 -0.2074560672044754 -0.0010023927316069603 -0.00039258692413568497 0 0 0 0
2903225668 -0.10953295230865479 -0.18397213518619537 -0.000925704836845398 -0.00018701516091823578 0 0 0 0
2906947752 -0.11765250563621521 -0.15912023186683655 -0.0009303940460085869 -4.1087158024311066e-05 0 0 0 0
2910669836 -0.12192120403051376 -0.13189354538917542 -0.0009311670437455177 0.00013435352593660355 0 0 0 0
2914391920 -0.12043111771345139 -0.10610857605934143 -0.0010061711072921753 0.00040587596595287323 0 0 0 0
2918114004 -0.11735863238573074 -0.07917073369026184 -0.0007285261526703835 0.0007967045530676842 0 0 0 0
2921836088 -0.10919554531574249 -0.05501539260149002 -0.00039859674870967865 0.0009872820228338242 0 0 0 0
2925558172 -0.09829486161470413 -0.03192707896232605 -2.8957612812519073e-05 0.0009537236765027046 0 0 0 0
2929280256 -0.08611065149307251 -0.009078048169612885 0.0003385022282600403 0.0010309843346476555 0 0 0 0
2933002340 -0.0705442875623703 0.010604264214634895 0.0002855369821190834 0.0010059252381324768 0 0 0 0
2936724424 -0.05227026343345642 0.029314391314983368 0.0005172882229089737 0.0011393027380108833 0 0 0 0
2940446508 -0.03156552463769913 0.04504575580358505 0.0006544077768921852 0.001055401749908924 0 0 0 0
2944168592 -0.009050069376826286 0.058341134339571 0.0009621297940611839 0.001158171333372593 0 0 0 0
2947890676 0.014992998912930489 0.06855235248804092 0.0012796185910701752 0.001214548945426941 0 0 0 0
2951612760 0.04059293121099472 0.0760762020945549 0.0016123903915286064 0.0013200389221310616 0 0 0 0
2955334844 0.06736946851015091 0.07967786490917206 0.0020462805405259132 0.0011410759761929512 0 0 0 0
2959056928 0.09319179505109787 0.08091764897108078 0.0026085488498210907 0.0008851019665598869 0 0 0 0
2962779012 0.1204037144780159 0.07706616818904877 0.002869213931262493 0.0006494857370853424 0 0 0 0
2966501096 0.14748525619506836 0.06747137755155563 0.003281288780272007 0.00014593545347452164 0 0 0 0
2970223180 0.1713847815990448 0.05606082081794739 0.0035711638629436493 -0.0007014675065875053 0 0 0 0
2973945264 0.19194498658180237 0.043123599141836166 0.003505246713757515 -0.0011658119037747383 0 0 0 0
2977667348 0.21227222681045532 0.025775378569960594 0.0033523747697472572 -0.0017790235579013824 0 0 0 0
2981389432 0.22777330875396729 0.007737528532743454 0.0030295271426439285 -0.0023226868361234665 0 0 0 0
2985111516 0.24272538721561432 -0.017303816974163055 0.002576533704996109 -0.0028259558603167534 0 0 0 0
2988833600 0.252724826335907 -0.04085489362478256 0.0020511215552687645 -0.003379569388926029 0 0 0 0
2992555684 0.26028233766555786 -0.062262650579214096 0.001479807309806347 -0.0035711172968149185 0 0 0 0
2996277768 0.26266586780548096 -0.08537596464157104 0.0007786573842167854 -0.0035988958552479744 0 0 0 0
2999999852 0.26608186960220337 -0.10763294994831085 0.00027482770383358 -0.0034835059195756912 0 0 0 0
