# HZ S RI R 50
1500000000 -0.12331359088420868 -0.05301574617624283 0.04104553535580635 -0.037666548043489456 0 0 0 0
1503722084 -0.11049271374940872 -0.02335362136363983 0.03271038085222244 -0.04558427259325981 0 0 0 0
1507444168 -0.09171362221240997 0.004501130431890488 0.022242888808250427 -0.05080508813261986 0 0 0 0
1511166252 -0.06681520491838455 0.029791025444865227 0.010569686070084572 -0.052748650312423706 0 0 0 0
1514888336 -0.03634863719344139 0.052115194499492645 -0.0006807688623666763 -0.05179278552532196 0 0 0 0
1518610420 -0.0005926378071308136 0.06880421936511993 -0.011092554777860641 -0.0477452389895916 0 0 0 0
1522332504 0.03828122466802597 0.07982499897480011 -0.018384704366326332 -0.04189102724194527 0 0 0 0
1526054588 0.08129927515983582 0.08398041874170303 -0.023912496864795685 -0.0353064090013504 0 0 0 0
1529776672 0.12505470216274261 0.080806203186512 -0.02761371247470379 -0.02868669293820858 0 0 0 0
1533498756 0.1700434684753418 0.06999757140874863 -0.02987697161734104 -0.02221495844423771 0 0 0 0
1537220840 0.21427549421787262 0.05181330069899559 -0.03065306320786476 -0.015920553356409073 0 0 0 0
1540942924 0.2564801573753357 0.023569859564304352 -0.030039947479963303 -0.010172934271395206 0 0 0 0
1544665008 0.2938214838504791 -0.010739274322986603 -0.028662770986557007 -0.005663187243044376 0 0 0 0
1548387092 0.32460635900497437 -0.0546073317527771 -0.027185706421732903 -0.00212670024484396 0 0 0 0
1552109176 0.3480370342731476 -0.10301998257637024 -0.02580249309539795 0.0011545922607183456 0 0 0 0
1555831260 0.3644753098487854 -0.15471303462982178 -0.024216990917921066 0.003937140107154846 0 0 0 0
1559553344 0.37400829792022705 -0.209126278758049 -0.02276628278195858 0.0064609358087182045 0 0 0 0
1563275428 0.3709511160850525 -0.2659549415111542 -0.020891470834612846 0.009027374908328056 0 0 0 0
1566997512 0.3618568778038025 -0.3214949369430542 -0.01884138397872448 0.011301775462925434 0 0 0 0
1570719596 0.3415404260158539 -0.3778461813926697 -0.016200607642531395 0.013259973376989365 0 0 0 0
1574441680 0.31112009286880493 -0.4307137429714203 -0.013437658548355103 0.014361022971570492 0 0 0 0
1578163764 0.276592880487442 -0.47759053111076355 -0.011202985420823097 0.014944205991923809 0 0 0 0
1581885848 0.23240181803703308 -0.5187035202980042 -0.008714413270354271 0.015387586317956448 0 0 0 0
1585607932 0.18235820531845093 -0.5519469976425171 -0.006859759800136089 0.015473548322916031 0 0 0 0
1589330016 0.12773361802101135 -0.5790567994117737 -0.0051682135090231895 0.015286771580576897 0 0 0 0
1593052100 0.06503110378980637 -0.5991426706314087 -0.0038500409573316574 0.015286566689610481 0 0 0 0
1596774184 0.003624841570854187 -0.6091415882110596 -0.0024773627519607544 0.0158852431923151 0 0 0 0
1600496268 -0.05900169909000397 -0.609087347984314 -0.0006411178037524223 0.01634659804403782 0 0 0 0
1604218352 -0.12764933705329895 -0.5969642400741577 0.0017221784219145775 0.016417257487773895 0 0 0 0
1607940436 -0.19095589220523834 -0.5784887075424194 0.003945627249777317 0.01607832871377468 0 0 0 0
1611662520 -0.2491050511598587 -0.5518217086791992 0.0059129782021045685 0.015378471463918686 0 0 0 0
1615384604 -0.3080551028251648 -0.5139378905296326 0.007996346801519394 0.014462427236139774 0 0 0 0
1619106688 -0.35753169655799866 -0.4684000015258789 0.009821245446801186 0.013436837121844292 0 0 0 0
1622828772 -0.4044457674026489 -0.409320592880249 0.011669582687318325 0.012396038509905338 0 0 0 0
1626550856 -0.4405626952648163 -0.3492709994316101 0.013756259344518185 0.011164234019815922 0 0 0 0
1630272940 -0.46776658296585083 -0.27994304895401 0.016086049377918243 0.009353015571832657 0 0 0 0
1633995024 -0.48548752069473267 -0.20658010244369507 0.018374327570199966 0.0065539320930838585 0 0 0 0
1637717108 -0.49125128984451294 -0.13040640950202942 0.019986163824796677 0.0028677750378847122 0 0 0 0
1641439192 -0.4852944612503052 -0.05665312707424164 0.020288385450839996 -0.00112837553024292 0 0 0 0
1645161276 -0.4669419825077057 0.02054619789123535 0.019756710156798363 -0.00496279913932085 0 0 0 0
1648883360 -0.4364885091781616 0.09423260390758514 0.018648661673069 -0.00834388006478548 0 0 0 0
1652605444 -0.39556175470352173 0.16318149864673615 0.017068728804588318 -0.011795083060860634 0 0 0 0
1656327528 -0.34332555532455444 0.22482383251190186 0.01473631989210844 -0.015489425510168076 0 0 0 0
1660049612 -0.2801361680030823 0.278565913438797 0.010864234529435635 -0.01854250580072403 0 0 0 0
1663771696 -0.20908719301223755 0.3221176862716675 0.006204457022249699 -0.020085662603378296 0 0 0 0
1667493780 -0.1317371279001236 0.35420528054237366 0.0017387280240654945 -0.020234934985637665 0 0 0 0
1671215864 -0.05231279507279396 0.3738044202327728 -0.002350923605263233 -0.01943996176123619 0 0 0 0
1674937948 0.03288064897060394 0.3809187412261963 -0.006246251054108143 -0.01796691119670868 0 0 0 0
1678660032 0.11768060177564621 0.3736434280872345 -0.009379447437822819 -0.01564723066985607 0 0 0 0
1682382116 0.19751287996768951 0.3537314534187317 -0.01168078277260065 -0.012671085074543953 0 0 0 0
1686104200 0.27926433086395264 0.31875932216644287 -0.013268901035189629 -0.00931096076965332 0 0 0 0
1689826284 0.34949350357055664 0.27553802728652954 -0.013789401389658451 -0.0062081413343548775 0 0 0 0
1693548368 0.41272851824760437 0.21994906663894653 -0.01365716103464365 -0.003290759399533272 0 0 0 0
1697270452 0.46570488810539246 0.15677973628044128 -0.012938112020492554 -0.00063303392380476 0 0 0 0
1700992536 0.5080339312553406 0.08726559579372406 -0.012004826217889786 0.0013633472844958305 0 0 0 0
1704714620 0.5391380786895752 0.009041905403137207 -0.010925358161330223 0.003011179156601429 0 0 0 0
1708436704 0.5572637319564819 -0.07254345715045929 -0.009737889282405376 0.00451344158500433 0 0 0 0
1712158788 0.5642967820167542 -0.14797288179397583 -0.008244425989687443 0.005829973146319389 0 0 0 0
1715880872 0.5561050176620483 -0.230284184217453 -0.0065125636756420135 0.006940659135580063 0 0 0 0
1719602956 0.5388989448547363 -0.30671560764312744 -0.004496471025049686 0.007301846519112587 0 0 0 0
1723325040 0.507239818572998 -0.37979021668434143 -0.0026382673531770706 0.007103352807462215 0 0 0 0
1727047124 0.4662361145019531 -0.4452749788761139 -0.0013093873858451843 0.006421230733394623 0 0 0 0
1730769208 0.41555333137512207 -0.5040788650512695 -0.000370134599506855 0.005592232570052147 0 0 0 0
1734491292 0.35806384682655334 -0.5540626049041748 0.00018589943647384644 0.0049135154113173485 0 0 0 0
1738213376 0.2935800552368164 -0.5927219986915588 0.0007372023537755013 0.00420021265745163 0 0 0 0
1741935460 0.22741100192070007 -0.6203416585922241 0.0010058972984552383 0.0032635899260640144 0 0 0 0
1745657544 0.15527135133743286 -0.6376650333404541 0.0006131306290626526 0.002484658733010292 0 0 0 0
1749379628 0.08186815679073334 -0.6431079506874084 5.512405186891556e-05 0.0022820811718702316 0 0 0 0
1753101712 0.013015717267990112 -0.6365385055541992 -0.000418100506067276 0.00259461160749197 0 0 0 0
1756823796 -0.05766678601503372 -0.6204354166984558 -0.00047680921852588654 0.0031501902267336845 0 0 0 0
1760545880 -0.11859098076820374 -0.5941970348358154 -4.536844789981842e-05 0.0037704305723309517 0 0 0 0
1764267964 -0.17536881566047668 -0.5608185529708862 0.0006567314267158508 0.004177860915660858 0 0 0 0
1767990048 -0.22503843903541565 -0.5194506049156189 0.0016563497483730316 0.004220271483063698 0 0 0 0
1771712132 -0.26215416193008423 -0.47425904870033264 0.0026094699278473854 0.00356210395693779 0 0 0 0
1775434216 -0.298455148935318 -0.4209420084953308 0.0030354205518960953 0.002725031226873398 0 0 0 0
1779156300 -0.3237684965133667 -0.36643075942993164 0.003015010617673397 0.0017847251147031784 0 0 0 0
1782878384 -0.34001803398132324 -0.31314948201179504 0.002805884927511215 0.0010778885334730148 0 0 0 0
1786600468 -0.3510358929634094 -0.25547468662261963 0.0021954774856567383 0.00033289939165115356 0 0 0 0
1790322552 -0.35405826568603516 -0.1989562213420868 0.001198379322886467 0.00014807190746068954 0 0 0 0
1794044636 -0.3486936092376709 -0.14395536482334137 0.00030895229429006577 0.0007030032575130463 0 0 0 0
1797766720 -0.3367447853088379 -0.08664582669734955 -0.00031291414052248 0.0015706662088632584 0 0 0 0
1801488804 -0.3166298270225525 -0.032498084008693695 -0.0006075175479054451 0.0029957303777337074 0 0 0 0
1805210888 -0.2894896864891052 0.014902129769325256 -7.411465048789978e-06 0.004871712066233158 0 0 0 0
1808932972 -0.2538287937641144 0.062387481331825256 0.0016922978684306145 0.006135645322501659 0 0 0 0
1812655056 -0.21174310147762299 0.10038827359676361 0.0037549687549471855 0.006825437769293785 0 0 0 0
1816377140 -0.16295333206653595 0.131447434425354 0.0061569055542349815 0.00718942005187273 0 0 0 0
1820099224 -0.1088508740067482 0.15429797768592834 0.009535891935229301 0.006398503668606281 0 0 0 0
1823821308 -0.05489518865942955 0.16673225164413452 0.012524520047008991 0.0038902731612324715 0 0 0 0
1827543392 9.995698928833008e-05 0.16995732486248016 0.014162730425596237 -4.804972559213638e-05 0 0 0 0
1831265476 0.05310454219579697 0.16507184505462646 0.014164138585329056 -0.0041460515931248665 0 0 0 0
1834987560 0.10306407511234283 0.15082904696464539 0.012822449207305908 -0.007973574101924896 0 0 0 0
1838709644 0.14841948449611664 0.1315726935863495 0.010346857830882072 -0.010697896592319012 0 0 0 0
1842431728 0.19043755531311035 0.10456681251525879 0.007369539700448513 -0.012365632690489292 0 0 0 0
1846153812 0.22644639015197754 0.07317249476909637 0.004479118622839451 -0.012643221765756607 0 0 0 0
1849875896 0.25559037923812866 0.035539910197257996 0.0025253547355532646 -0.012483126483857632 0 0 0 0
1853597980 0.2793726623058319 -0.002885662019252777 0.0010583922266960144 -0.012324832379817963 0 0 0 0
1857320064 0.2961106300354004 -0.044603750109672546 -8.242297917604446e-05 -0.012489319778978825 0 0 0 0
1861042148 0.3054792582988739 -0.08797705173492432 -0.0012115593999624252 -0.01333022490143776 0 0 0 0
1864764232 0.3063967525959015 -0.132854163646698 -0.003535998985171318 -0.014392650686204433 0 0 0 0
1868486316 0.30164623260498047 -0.17117471992969513 -0.006454664282500744 -0.014402796514332294 0 0 0 0
1872208400 0.2877018451690674 -0.21334338188171387 -0.009570174850523472 -0.013453368097543716 0 0 0 0
1875930484 0.2710992693901062 -0.24815765023231506 -0.012241560034453869 -0.011745438911020756 0 0 0 0
1879652568 0.24826285243034363 -0.28001582622528076 -0.014327465556561947 -0.010127154178917408 0 0 0 0
1883374652 0.22086095809936523 -0.30701133608818054 -0.01671157218515873 -0.008495465852320194 0 0 0 0
1887096736 0.18895654380321503 -0.3283657729625702 -0.019518587738275528 -0.005907561630010605 0 0 0 0
1890818820 0.1560671627521515 -0.34289777278900146 -0.02196166291832924 -0.0018234429880976677 0 0 0 0
1894540904 0.12249152362346649 -0.349668949842453 -0.023118874058127403 0.0033637527376413345 0 0 0 0
1898262988 0.08490531891584396 -0.3525873124599457 -0.022257395088672638 0.00923624262213707 0 0 0 0
1901985072 0.05352020263671875 -0.3474523425102234 -0.01946745440363884 0.014127838425338268 0 0 0 0
1905707156 0.021714478731155396 -0.33796489238739014 -0.015860548242926598 0.017528772354125977 0 0 0 0
1909429240 -0.005399944260716438 -0.3253922462463379 -0.012062324211001396 0.020400317385792732 0 0 0 0
1913151324 -0.030299872159957886 -0.3078339695930481 -0.007544920779764652 0.022447532042860985 0 0 0 0
1916873408 -0.05317660793662071 -0.2860542833805084 -0.0031242016702890396 0.023400843143463135 0 0 0 0
1920595492 -0.07205545902252197 -0.2604895830154419 0.0015716608613729477 0.023519113659858704 0 0 0 0
1924317576 -0.08209221810102463 -0.2338508665561676 0.006076768971979618 0.02278583124279976 0 0 0 0
1928039660 -0.0884140282869339 -0.20490662753582 0.01097977627068758 0.021075928583741188 0 0 0 0
1931761744 -0.09097515046596527 -0.17672985792160034 0.015303737483918667 0.01782592386007309 0 0 0 0
1935483828 -0.08925549685955048 -0.14949224889278412 0.01849351078271866 0.013171184808015823 0 0 0 0
1939205912 -0.08434399217367172 -0.12115208804607391 0.019542420282959938 0.008371636271476746 0 0 0 0
1942927996 -0.0730476900935173 -0.09443439543247223 0.019161831587553024 0.004329188726842403 0 0 0 0
1946650080 -0.057177238166332245 -0.0699496790766716 0.018490178510546684 0.0011784592643380165 0 0 0 0
1950372164 -0.03783443942666054 -0.047435611486434937 0.017616063356399536 -0.0016940375789999962 0 0 0 0
1954094248 -0.012659742496907711 -0.029748566448688507 0.016868503764271736 -0.004030638374388218 0 0 0 0
1957816332 0.014910366386175156 -0.016696568578481674 0.016090761870145798 -0.006436421535909176 0 0 0 0
1961538416 0.04478990286588669 -0.008981512859463692 0.014410034753382206 -0.009300821460783482 0 0 0 0
1965260500 0.07643942534923553 -0.0070184580981731415 0.011907244101166725 -0.011151539161801338 0 0 0 0
1968982584 0.10770124942064285 -0.013936219736933708 0.00992865115404129 -0.012379083782434464 0 0 0 0
1972704668 0.13608026504516602 -0.025023486465215683 0.008383270353078842 -0.013402892276644707 0 0 0 0
1976426752 0.16168659925460815 -0.0413714200258255 0.006680546328425407 -0.014710867777466774 0 0 0 0
1980148836 0.18407726287841797 -0.06190004572272301 0.004765894263982773 -0.01606992818415165 0 0 0 0
1983870920 0.20045235753059387 -0.08762342482805252 0.0020434213802218437 -0.017767511308193207 0 0 0 0
1987593004 0.2125699818134308 -0.11354021728038788 -0.0015024803578853607 -0.018726136535406113 0 0 0 0
1991315088 0.2174624502658844 -0.14299491047859192 -0.005310148000717163 -0.018604563549160957 0 0 0 0
1995037172 0.21753481030464172 -0.1719285249710083 -0.009495530277490616 -0.016970613971352577 0 0 0 0
1998759256 0.21274973452091217 -0.19964005053043365 -0.012639494612812996 -0.015163606964051723 0 0 0 0
2002481340 0.2037077695131302 -0.22532813251018524 -0.015138744376599789 -0.012612644582986832 0 0 0 0
2006203424 0.19226637482643127 -0.24732539057731628 -0.017177093774080276 -0.010169253684580326 0 0 0 0
2009925508 0.1724911779165268 -0.26946401596069336 -0.019041121006011963 -0.006863859482109547 0 0 0 0
2013647592 0.15440219640731812 -0.2850238084793091 -0.02070200815796852 -0.003349960781633854 0 0 0 0
2017369676 0.13098342716693878 -0.299936443567276 -0.02147929184138775 0.00012568477541208267 0 0 0 0
2021091760 0.10670321434736252 -0.31008657813072205 -0.022195886820554733 0.004559854045510292 0 0 0 0
2024813844 0.0788484737277031 -0.31680843234062195 -0.02102428302168846 0.009589653462171555 0 0 0 0
2028535928 0.050669580698013306 -0.3161879777908325 -0.01832515560090542 0.014376907609403133 0 0 0 0
2032258012 0.023827195167541504 -0.3119460344314575 -0.014551895670592785 0.017569195479154587 0 0 0 0
2035980096 -0.004102647304534912 -0.30302882194519043 -0.010328193195164204 0.019457140937447548 0 0 0 0
2039702180 -0.027367107570171356 -0.289688378572464 -0.0060295602306723595 0.020384829491376877 0 0 0 0
2043424264 -0.049744993448257446 -0.27211299538612366 -0.002405388280749321 0.020293783396482468 0 0 0 0
2047146348 -0.06922294944524765 -0.250731885433197 0.0012056045234203339 0.019548874348402023 0 0 0 0
2050868432 -0.08432867377996445 -0.2283414602279663 0.003924372605979443 0.018431764096021652 0 0 0 0
2054590516 -0.09713298082351685 -0.20316554605960846 0.006655553355813026 0.01720271445810795 0 0 0 0
2058312600 -0.10531771183013916 -0.1761854887008667 0.009138781577348709 0.016156449913978577 0 0 0 0
2062034684 -0.10967347770929337 -0.14763085544109344 0.011393130756914616 0.01432109996676445 0 0 0 0
2065756768 -0.10945462435483932 -0.11933140456676483 0.01374080777168274 0.011963997967541218 0 0 0 0
2069478852 -0.10751350224018097 -0.08843332529067993 0.015343268401920795 0.009156526997685432 0 0 0 0
2073200936 -0.09944655001163483 -0.058039162307977676 0.01628224179148674 0.005816470831632614 0 0 0 0
2076923020 -0.08539988100528717 -0.0267433263361454 0.016078580170869827 0.0025345105677843094 0 0 0 0
2080645104 -0.06607929617166519 0.0021792668849229813 0.015039673075079918 -0.0002275947481393814 0 0 0 0
2084367188 -0.0409085638821125 0.02719338983297348 0.013887089677155018 -0.00199978519231081 0 0 0 0
2088089272 -0.011155931279063225 0.04798920452594757 0.013025456108152866 -0.00305936299264431 0 0 0 0
2091811356 0.02101062797009945 0.06312942504882812 0.012365365400910378 -0.0037352414801716805 0 0 0 0
2095533440 0.0563657283782959 0.0723872110247612 0.012686174362897873 -0.005033988505601883 0 0 0 0
2099255524 0.09251746535301208 0.0759613886475563 0.012803364545106888 -0.007373341359198093 0 0 0 0
2102977608 0.1293807029724121 0.07330669462680817 0.01174839399755001 -0.010038867592811584 0 0 0 0
2106699692 0.1649123579263687 0.06706398725509644 0.009730637073516846 -0.012674504891037941 0 0 0 0
2110421776 0.20098160207271576 0.052195437252521515 0.007248425856232643 -0.014161632396280766 0 0 0 0
2114143860 0.23337438702583313 0.029082104563713074 0.004416068084537983 -0.015234486199915409 0 0 0 0
2117865944 0.26046493649482727 0.0031546317040920258 0.001514083705842495 -0.01610509119927883 0 0 0 0
2121588028 0.2813558578491211 -0.02585373818874359 -0.0014285966753959656 -0.01637943461537361 0 0 0 0
2125310112 0.29615187644958496 -0.06083974987268448 -0.005181403830647469 -0.015758134424686432 0 0 0 0
2129032196 0.3065390884876251 -0.09309154748916626 -0.008705774322152138 -0.013928382657468319 0 0 0 0
2132754280 0.3109937608242035 -0.12743735313415527 -0.011244852095842361 -0.010904639028012753 0 0 0 0
2136476364 0.3097642958164215 -0.16221177577972412 -0.01230947021394968 -0.00759522058069706 0 0 0 0
2140198448 0.3047805726528168 -0.19635657966136932 -0.012180323712527752 -0.004248174838721752 0 0 0 0
2143920532 0.29288190603256226 -0.22807885706424713 -0.011213086545467377 -0.002158340997993946 0 0 0 0
2147642616 0.277670294046402 -0.2568080425262451 -0.0101266298443079 -0.0010056877508759499 0 0 0 0
2151364700 0.2569875717163086 -0.2840437591075897 -0.009634262882173061 -0.00026323646306991577 0 0 0 0
2155086784 0.23143678903579712 -0.3056607246398926 -0.009193658828735352 0.0004858458414673805 0 0 0 0
2158808868 0.20736795663833618 -0.3217413127422333 -0.008927675895392895 0.0011601783335208893 0 0 0 0
2162530952 0.176554337143898 -0.3370954990386963 -0.008932450786232948 0.0016759438440203667 0 0 0 0
2166253036 0.14679718017578125 -0.34479179978370667 -0.009332193061709404 0.0025329599156975746 0 0 0 0
2169975120 0.11481977999210358 -0.34797996282577515 -0.009353875182569027 0.0038704723119735718 0 0 0 0
2173697204 0.08003454655408859 -0.3471447229385376 -0.009165407158434391 0.005400725640356541 0 0 0 0
2177419288 0.05098125338554382 -0.3398161232471466 -0.008516013622283936 0.006850504316389561 0 0 0 0
2181141372 0.024259261786937714 -0.32930469512939453 -0.007709242403507233 0.008271515369415283 0 0 0 0
2184863456 0.0005487650632858276 -0.31582266092300415 -0.00675462931394577 0.009560138918459415 0 0 0 0
2188585540 -0.027057014405727386 -0.29744401574134827 -0.005384596064686775 0.010984853841364384 0 0 0 0
2192307624 -0.048888035118579865 -0.2748514711856842 -0.003527679480612278 0.012220358476042747 0 0 0 0
2196029708 -0.06750655919313431 -0.24870704114437103 -0.0010691219940781593 0.01301736943423748 0 0 0 0
2199751792 -0.08059217035770416 -0.22030362486839294 0.0015677548944950104 0.012980027124285698 0 0 0 0
2203473876 -0.09019085019826889 -0.18618321418762207 0.0037519754841923714 0.012257114052772522 0 0 0 0
2207195960 -0.08907143026590347 -0.15582309663295746 0.005373667925596237 0.011163315735757351 0 0 0 0
2210918044 -0.08825138956308365 -0.12297108769416809 0.006881238892674446 0.010344123467803001 0 0 0 0
2214640128 -0.07850740104913712 -0.09320034086704254 0.008556274697184563 0.009618621319532394 0 0 0 0
2218362212 -0.06551642715930939 -0.06402480602264404 0.01052593719214201 0.007910755462944508 0 0 0 0
2222084296 -0.047171637415885925 -0.03856990858912468 0.01185691263526678 0.00596113596111536 0 0 0 0
2225806380 -0.024691788479685783 -0.016688194125890732 0.012965898960828781 0.003569534048438072 0 0 0 0
2229528464 0.001425325870513916 0.0020178519189357758 0.013462970033288002 0.0007002558559179306 0 0 0 0
2233250548 0.02999528869986534 0.014897694811224937 0.013174624182283878 -0.0020119408145546913 0 0 0 0
2236972632 0.060002800077199936 0.02155144326388836 0.012299532070755959 -0.0045297760516405106 0 0 0 0
2240694716 0.09040053188800812 0.023017477244138718 0.010905175469815731 -0.006823440082371235 0 0 0 0
2244416800 0.11983497440814972 0.019124163314700127 0.009074680507183075 -0.008812538348138332 0 0 0 0
2248138884 0.14849399030208588 0.012733861804008484 0.006943480111658573 -0.01003152597695589 0 0 0 0
2251860968 0.1753503829240799 -0.0021408572793006897 0.004678983241319656 -0.01087363250553608 0 0 0 0
2255583052 0.19824986159801483 -0.021815530955791473 0.002719624899327755 -0.011112402193248272 0 0 0 0
2259305136 0.21704643964767456 -0.03969547152519226 0.0007869293913245201 -0.011108001694083214 0 0 0 0
2263027220 0.22832617163658142 -0.06822580099105835 -0.0010156454518437386 -0.010393223725259304 0 0 0 0
2266749304 0.23815487325191498 -0.09158973395824432 -0.0019390732049942017 -0.009730956517159939 0 0 0 0
2270471388 0.24262607097625732 -0.11808127909898758 -0.0027516819536685944 -0.00956147350370884 0 0 0 0
2274193472 0.24243836104869843 -0.14414426684379578 -0.0038593150675296783 -0.009840156883001328 0 0 0 0
2277915556 0.23687496781349182 -0.1703912615776062 -0.0057283490896224976 -0.009969867765903473 0 0 0 0
2281637640 0.2303321361541748 -0.19351179897785187 -0.007813743315637112 -0.009544617496430874 0 0 0 0
2285359724 0.2131253033876419 -0.21898101270198822 -0.009992079809308052 -0.00812180619686842 0 0 0 0
2289081808 0.20091775059700012 -0.23285695910453796 -0.011648179963231087 -0.006286781281232834 0 0 0 0
2292803892 0.18184131383895874 -0.2475033849477768 -0.01255336869508028 -0.00429527647793293 0 0 0 0
2296525976 0.1540137529373169 -0.2602665424346924 -0.01315231155604124 -0.002105838619172573 0 0 0 0
2300248060 0.13744434714317322 -0.26524946093559265 -0.013530672527849674 -7.148273289203644e-05 0 0 0 0
2303970144 0.12027271836996078 -0.2713768482208252 -0.013645073398947716 0.0019660647958517075 0 0 0 0
2307692228 0.0883641466498375 -0.2719913721084595 -0.013020024634897709 0.005027782171964645 0 0 0 0
2311414312 0.06947945058345795 -0.2675960063934326 -0.011373625136911869 0.0072439974173903465 0 0 0 0
2315136396 0.043908074498176575 -0.25937914848327637 -0.009459715336561203 0.008554290048778057 0 0 0 0
2318858480 0.016246981918811798 -0.2485729306936264 -0.007427019067108631 0.009436635300517082 0 0 0 0
2322580564 0.002405427396297455 -0.23147255182266235 -0.005762781016528606 0.009431589394807816 0 0 0 0
2326302648 -0.01879245787858963 -0.21051034331321716 -0.004487817175686359 0.00928936991840601 0 0 0 0
2330024732 -0.02979446016252041 -0.18712297081947327 -0.003671761602163315 0.009434466250240803 0 0 0 0
2333746816 -0.032838672399520874 -0.16326817870140076 -0.0027530519291758537 0.009572828188538551 0 0 0 0
2337468900 -0.04059060662984848 -0.13583342730998993 -0.0014480594545602798 0.009793263860046864 0 0 0 0
2341190984 -0.03998212888836861 -0.10801064968109131 -0.00025733187794685364 0.009649831801652908 0 0 0 0
2344913068 -0.033417098224163055 -0.08097805827856064 0.0007749991491436958 0.009301096200942993 0 0 0 0
2348635152 -0.024283619597554207 -0.05483365058898926 0.001588749699294567 0.009077130816876888 0 0 0 0
2352357236 -0.007773540914058685 -0.03175152465701103 0.0025513283908367157 0.00883774645626545 0 0 0 0
2356079320 0.011616852134466171 -0.010734394192695618 0.003778357058763504 0.008490683510899544 0 0 0 0
2359801404 0.03451612964272499 0.005919787101447582 0.0049958666786551476 0.007944745942950249 0 0 0 0
2363523488 0.05998993664979935 0.01905401609838009 0.006302344612777233 0.006479539908468723 0 0 0 0
2367245572 0.08737106621265411 0.028827490285038948 0.006735031493008137 0.004916262812912464 0 0 0 0
2370967656 0.11745068430900574 0.03143607825040817 0.0068655721843242645 0.003523005172610283 0 0 0 0
2374689740 0.14737063646316528 0.028215903788805008 0.0068502724170684814 0.0024518100544810295 0 0 0 0
2378411824 0.1748199760913849 0.021723411977291107 0.0065501658245921135 0.0013303747400641441 0 0 0 0
2382133908 0.20187680423259735 0.008502677083015442 0.00600796565413475 0.00020417943596839905 0 0 0 0
2385855992 0.22627919912338257 -0.00839734822511673 0.005449124611914158 -0.00042034871876239777 0 0 0 0
2389578076 0.24661143124103546 -0.026700496673583984 0.004490066319704056 -0.0007567880675196648 0 0 0 0
2393300160 0.26319214701652527 -0.05215153843164444 0.0037063760682940483 -0.0006181476637721062 0 0 0 0
2397022244 0.27586299180984497 -0.07681796699762344 0.0038021979853510857 -0.00028691161423921585 0 0 0 0
2400744328 0.28251808881759644 -0.10580764710903168 0.0042920950800180435 -0.00041268114000558853 0 0 0 0
2404466412 0.2835400402545929 -0.13235393166542053 0.00475494097918272 -0.001222638413310051 0 0 0 0
2408188496 0.2841431498527527 -0.15518641471862793 0.004455673508346081 -0.0022001629695296288 0 0 0 0
2411910580 0.28034207224845886 -0.18049460649490356 0.003914722241461277 -0.0029154187068343163 0 0 0 0
2415632664 0.27255240082740784 -0.20584997534751892 0.0032931147143244743 -0.003352673724293709 0 0 0 0
2419354748 0.2611677050590515 -0.2293287217617035 0.0027016066014766693 -0.003543239086866379 0 0 0 0
2423076832 0.2489420473575592 -0.2501969635486603 0.0023060720413923264 -0.003908567130565643 0 0 0 0
2426798916 0.2280855029821396 -0.27126389741897583 0.0015999255701899529 -0.004335327073931694 0 0 0 0
2430521000 0.20800146460533142 -0.2869947850704193 0.0006294259801506996 -0.004503228701651096 0 0 0 0
2434243084 0.18586739897727966 -0.29960066080093384 -0.00031348317861557007 -0.003966662101447582 0 0 0 0
2437965168 0.16317865252494812 -0.30907195806503296 -0.0007551908493041992 -0.0031341295689344406 0 0 0 0
2441687252 0.14080876111984253 -0.3159826695919037 -0.00036982353776693344 -0.0025505488738417625 0 0 0 0
2445409336 0.1157630980014801 -0.32107383012771606 0.000249616801738739 -0.0025481004267930984 0 0 0 0
2449131420 0.08569466322660446 -0.3209877610206604 0.0007236525416374207 -0.0029771393164992332 0 0 0 0
2452853504 0.06178468465805054 -0.3167053461074829 0.0006685433909296989 -0.003709603101015091 0 0 0 0
2456575588 0.033866316080093384 -0.30846333503723145 0.00031822919845581055 -0.004348532296717167 0 0 0 0
2460297672 0.011449575424194336 -0.29475027322769165 -0.0001949770376086235 -0.005070307292044163 0 0 0 0
2464019756 -0.010720595717430115 -0.27985092997550964 -0.0009907465428113937 -0.005727056413888931 0 0 0 0
2467741840 -0.032042600214481354 -0.2611173391342163 -0.0020905714482069016 -0.006004316732287407 0 0 0 0
2471463924 -0.049872394651174545 -0.23914672434329987 -0.0033363085240125656 -0.00632133986800909 0 0 0 0
2475186008 -0.06223142147064209 -0.21523451805114746 -0.004629536531865597 -0.006284455768764019 0 0 0 0
2478908092 -0.07290363311767578 -0.1896287202835083 -0.006337142549455166 -0.005711996927857399 0 0 0 0
2482630176 -0.07878901064395905 -0.16186431050300598 -0.007583444006741047 -0.004720938391983509 0 0 0 0
2486352260 -0.08039693534374237 -0.13456808030605316 -0.00847570039331913 -0.0034432588145136833 0 0 0 0
2490074344 -0.0792434811592102 -0.1067090854048729 -0.008983327075839043 -0.002126202918589115 0 0 0 0
2493796428 -0.07264897227287292 -0.07869112491607666 -0.009268797934055328 -0.0006883889436721802 0 0 0 0
2497518512 -0.06276907026767731 -0.05153986066579819 -0.00948423147201538 0.0002727201208472252 0 0 0 0
2501240596 -0.047876812517642975 -0.02638436108827591 -0.009785572066903114 0.0015742555260658264 0 0 0 0
2504962680 -0.028474003076553345 -0.004879172891378403 -0.01000264659523964 0.003260130062699318 0 0 0 0
2508684764 -0.006937658414244652 0.012870017439126968 -0.009649170562624931 0.0053296927362680435 0 0 0 0
2512406848 0.01609310321509838 0.027424311265349388 -0.008486924692988396 0.007069621235132217 0 0 0 0
2516128932 0.040847379714250565 0.03998744487762451 -0.007164637558162212 0.00816251989454031 0 0 0 0
2519851016 0.06757953763008118 0.04899022355675697 -0.005724694579839706 0.009211006574332714 0 0 0 0
2523573100 0.09698306024074554 0.051903411746025085 -0.004429014399647713 0.009852970018982887 0 0 0 0
2527295184 0.12626878917217255 0.052143849432468414 -0.0029421867802739143 0.010492532514035702 0 0 0 0
2531017268 0.15457238256931305 0.04529956728219986 -0.0012620296329259872 0.010973913595080376 0 0 0 0
2534739352 0.18129391968250275 0.03309580683708191 0.0007356265559792519 0.011104893870651722 0 0 0 0
2538461436 0.20456907153129578 0.019461922347545624 0.0025019198656082153 0.01057247444987297 0 0 0 0
2542183520 0.22475898265838623 0.000989481806755066 0.004195483401417732 0.009797037579119205 0 0 0 0
2545905604 0.2412777841091156 -0.019639406353235245 0.0055663101375103 0.008822678588330746 0 0 0 0
2549627688 0.25488027930259705 -0.040559642016887665 0.006756315939128399 0.008001008071005344 0 0 0 0
2553349772 0.26523885130882263 -0.06592126935720444 0.008187162689864635 0.006764735095202923 0 0 0 0
2557071856 0.2717662453651428 -0.08729880303144455 0.009157123044133186 0.005269446410238743 0 0 0 0
2560793940 0.2752384841442108 -0.11403678357601166 0.010028835386037827 0.0037727737799286842 0 0 0 0
2564516024 0.2727951407432556 -0.1413654237985611 0.01051552314311266 0.0020771101117134094 0 0 0 0
2568238108 0.269411563873291 -0.16275152564048767 0.010956548154354095 0.00025639496743679047 0 0 0 0
2571960192 0.2600709795951843 -0.18426230549812317 0.011124862357974052 -0.0016199573874473572 0 0 0 0
2575682276 0.2483384609222412 -0.2049483060836792 0.011005892418324947 -0.0037407008931040764 0 0 0 0
2579404360 0.23212912678718567 -0.22280775010585785 0.010191204957664013 -0.006148660555481911 0 0 0 0
2583126444 0.21541790664196014 -0.23707206547260284 0.008833563886582851 -0.008259519934654236 0 0 0 0
2586848528 0.1989782303571701 -0.24854223430156708 0.006898823194205761 -0.010007545351982117 0 0 0 0
2590570612 0.1834874451160431 -0.2564806044101715 0.004507730714976788 -0.010943622328341007 0 0 0 0
2594292696 0.1639876365661621 -0.26338306069374084 0.002339444123208523 -0.011184061877429485 0 0 0 0
2598014780 0.14306969940662384 -0.2700136601924896 0.00019908323884010315 -0.011018981225788593 0 0 0 0
2601736864 0.12946271896362305 -0.27005043625831604 -0.0015023211017251015 -0.010510479100048542 0 0 0 0
2605458948 0.10556482523679733 -0.2695065438747406 -0.0030820555984973907 -0.009476542472839355 0 0 0 0
2609181032 0.08402474969625473 -0.2660408914089203 -0.004309694282710552 -0.008588192984461784 0 0 0 0
2612903116 0.0651031881570816 -0.25845539569854736 -0.005084393545985222 -0.007580958306789398 0 0 0 0
2616625200 0.047003187239170074 -0.24795544147491455 -0.005747128278017044 -0.006773791275918484 0 0 0 0
2620347284 0.03231745958328247 -0.23389871418476105 -0.006029227748513222 -0.0058741336688399315 0 0 0 0
2624069368 0.017883209511637688 -0.21818166971206665 -0.0064705125987529755 -0.005283551290631294 0 0 0 0
2627791452 0.008808054029941559 -0.1996423602104187 -0.0069051627069711685 -0.004762652330100536 0 0 0 0
2631513536 0.004901668056845665 -0.18030893802642822 -0.007512369193136692 -0.004508948884904385 0 0 0 0
2635235620 0.003101683221757412 -0.16135632991790771 -0.008473822847008705 -0.003914990462362766 0 0 0 0
2638957704 0.004389338195323944 -0.14361602067947388 -0.009387951344251633 -0.0027782153338193893 0 0 0 0
2642679788 0.00989987701177597 -0.12449541687965393 -0.010260887444019318 -0.0012718001380562782 0 0 0 0
2646401872 0.01834060624241829 -0.10923498868942261 -0.010755405761301517 0.000794658437371254 0 0 0 0
2650123956 0.03135622292757034 -0.09498796612024307 -0.010730103589594364 0.002718919888138771 0 0 0 0
2653846040 0.0427209809422493 -0.08527690917253494 -0.009725877083837986 0.00493745319545269 0 0 0 0
2657568124 0.05862414836883545 -0.07695877552032471 -0.008453690446913242 0.006339540705084801 0 0 0 0
2661290208 0.075352743268013 -0.07361838221549988 -0.007178129628300667 0.007410969585180283 0 0 0 0
2665012292 0.09160488843917847 -0.0742160901427269 -0.0059325238689780235 0.008344878442585468 0 0 0 0
2668734376 0.10664453357458115 -0.07840284705162048 -0.004197150468826294 0.00944972038269043 0 0 0 0
2672456460 0.12016315013170242 -0.08572807908058167 -0.0022620540112257004 0.010029932484030724 0 0 0 0
2676178544 0.1307765543460846 -0.09639719128608704 -0.00014431215822696686 0.010169904679059982 0 0 0 0
2679900628 0.1397133767604828 -0.10752798616886139 0.0020592324435710907 0.009602879174053669 0 0 0 0
2683622712 0.14479687809944153 -0.11954420804977417 0.00392573419958353 0.008539421483874321 0 0 0 0
2687344796 0.1475815623998642 -0.13294067978858948 0.005269273184239864 0.007130001671612263 0 0 0 0
2691066880 0.14544568955898285 -0.14875133335590363 0.006201435811817646 0.005660939961671829 0 0 0 0
2694788964 0.14197058975696564 -0.1606043130159378 0.006708639673888683 0.004310703836381435 0 0 0 0
2698511048 0.13414272665977478 -0.17210182547569275 0.007293139584362507 0.002786911092698574 0 0 0 0
2702233132 0.1272328794002533 -0.18155629932880402 0.007754720747470856 0.001374642364680767 0 0 0 0
2705955216 0.11774794012308121 -0.18996010720729828 0.0075871022418141365 -0.00034774839878082275 0 0 0 0
2709677300 0.10415418446063995 -0.19819054007530212 0.006959144026041031 -0.0019620629027485847 0 0 0 0
2713399384 0.09321629256010056 -0.20210815966129303 0.0059049781411886215 -0.003147115930914879 0 0 0 0
2717121468 0.07706713676452637 -0.20292426645755768 0.0052027348428964615 -0.003877970390021801 0 0 0 0
2720843552 0.06111156940460205 -0.20253108441829681 0.004640062339603901 -0.004516265355050564 0 0 0 0
2724565636 0.04849819093942642 -0.19885127246379852 0.0038261068984866142 -0.005400972440838814 0 0 0 0
2728287720 0.034199461340904236 -0.19213049113750458 0.002673099748790264 -0.006243853829801083 0 0 0 0
2732009804 0.021247945725917816 -0.18312197923660278 0.0012526018545031548 -0.006523742340505123 0 0 0 0
2735731888 0.010932162404060364 -0.17222806811332703 -0.00022756680846214294 -0.00650731660425663 0 0 0 0
2739453972 0.0011510178446769714 -0.15828925371170044 -0.0015982752665877342 -0.0058318329975008965 0 0 0 0
2743176056 -0.009016904979944229 -0.14298711717128754 -0.002425801008939743 -0.004957328550517559 0 0 0 0
2746898140 -0.01507711410522461 -0.12446557730436325 -0.0026498427614569664 -0.004114862531423569 0 0 0 0
2750620224 -0.015116475522518158 -0.1053353026509285 -0.0026487717404961586 -0.0038784248754382133 0 0 0 0
2754342308 -0.01320788636803627 -0.08586210757493973 -0.003185049630701542 -0.004034232348203659 0 0 0 0
2758064392 -0.008261287584900856 -0.06762587279081345 -0.004062836058437824 -0.0037870975211262703 0 0 0 0
2761786476 0.0007586730644106865 -0.05004410445690155 -0.005077837035059929 -0.0030781403183937073 0 0 0 0
2765508560 0.011426815763115883 -0.03437855839729309 -0.005794650875031948 -0.0019766446202993393 0 0 0 0
2769230644 0.024955788627266884 -0.018816128373146057 -0.006194240413606167 -0.0006497297435998917 0 0 0 0
2772952728 0.041092634201049805 -0.005362862721085548 -0.006261713802814484 0.0009651016443967819 0 0 0 0
2776674812 0.06014276295900345 0.004960399121046066 -0.0057149240747094154 0.0025873808190226555 0 0 0 0
2780396896 0.08133132755756378 0.012490790337324142 -0.004604239948093891 0.0039041293784976006 0 0 0 0
2784118980 0.10415011644363403 0.01563379541039467 -0.003193272277712822 0.00470112357288599 0 0 0 0
2787841064 0.1270463764667511 0.01561696082353592 -0.0015853065997362137 0.005232824943959713 0 0 0 0
2791563148 0.14952382445335388 0.009339988231658936 -2.0303763449192047e-05 0.005041174590587616 0 0 0 0
2795285232 0.1711196005344391 0.004856392741203308 0.0013732854276895523 0.004543273709714413 0 0 0 0
2799007316 0.1927802711725235 -0.006956331431865692 0.0025001363828778267 0.0037124520167708397 0 0 0 0
2802729400 0.21251046657562256 -0.023887310177087784 0.0031991731375455856 0.0024291500449180603 0 0 0 0
2806451484 0.22877316176891327 -0.03923879563808441 0.003323715180158615 0.0013518212363123894 0 0 0 0
2810173568 0.24312114715576172 -0.05971613526344299 0.0031838323920965195 0.0004424192011356354 0 0 0 0
2813895652 0.25437188148498535 -0.08288128674030304 0.0031486572697758675 -7.191020995378494e-05 0 0 0 0
2817617736 0.2604602575302124 -0.10439594835042953 0.0029438724741339684 -0.00077018141746521 0 0 0 0
2821339820 0.26084104180336 -0.1349514275789261 0.0025464529171586037 -0.0014816075563430786 0 0 0 0
2825061904 0.2616598606109619 -0.1592995971441269 0.0018716724589467049 -0.0017961198464035988 0 0 0 0
2828783988 0.25884169340133667 -0.18129844963550568 0.0014580246061086655 -0.001602507196366787 0 0 0 0
2832506072 0.2482118159532547 -0.20707301795482635 0.0013636443763971329 -0.0016265204176306725 0 0 0 0
2836228156 0.23830586671829224 -0.22584666311740875 0.0014144973829388618 -0.0016943169757723808 0 0 0 0
2839950240 0.22617390751838684 -0.24776576459407806 0.0014631329104304314 -0.001999453641474247 0 0 0 0
2843672324 0.2059592604637146 -0.2665334939956665 0.0013869507238268852 -0.002268722280859947 0 0 0 0
2847394408 0.18782731890678406 -0.28152942657470703 0.0011420566588640213 -0.0027391621842980385 0 0 0 0
2851116492 0.1675017774105072 -0.2950116693973541 0.0007708165794610977 -0.0032231025397777557 0 0 0 0
2854838576 0.14620690047740936 -0.304387629032135 0.0002172393724322319 -0.003554731607437134 0 0 0 0
2858560660 0.12734273076057434 -0.31133878231048584 -0.00029953569173812866 -0.004070091061294079 0 0 0 0
2862282744 0.10054783523082733 -0.3186022639274597 -0.0013216780498623848 -0.0041320305317640305 0 0 0 0
2866004828 0.07647198438644409 -0.32060179114341736 -0.002153436653316021 -0.0036880364641547203 0 0 0 0
2869726912 0.056416064500808716 -0.31736961007118225 -0.0027865152806043625 -0.003138752654194832 0 0 0 0
2873448996 0.031129539012908936 -0.3135325312614441 -0.0032203327864408493 -0.00237308070063591 0 0 0 0
2877171080 0.004887916147708893 -0.30537015199661255 -0.0034532705321907997 -0.0015194723382592201 0 0 0 0
2880893164 -0.016287848353385925 -0.29631373286247253 -0.0034108841791749 -0.0007166936993598938 0 0 0 0
2884615248 -0.03656114265322685 -0.28259003162384033 -0.003283523954451084 -0.00025943573564291 0 0 0 0
2888337332 -0.05793602019548416 -0.2667694091796875 -0.003074510022997856 0.0002617472782731056 0 0 0 0
2892059416 -0.0739784985780716 -0.2502368092536926 -0.0028314413502812386 0.0007331753149628639 0 0 0 0
2895781500 -0.08947785943746567 -0.23026198148727417 -0.0025720596313476562 0.0011863810941576958 0 0 0 0
2899503584 -0.10270227491855621 -0.2078704535961151 -0.002134578302502632 0.001561538316309452 0 0 0 0
2903225668 -0.11149971187114716 -0.18451373279094696 -0.0017539998516440392 0.0017776330932974815 0 0 0 0
2906947752 -0.1208057627081871 -0.15766192972660065 -0.0014179935678839684 0.0018738573417067528 0 0 0 0
2910669836 -0.12444561719894409 -0.13084284961223602 -0.0011783000081777573 0.002295202575623989 0 0 0 0
2914391920 -0.12298984825611115 -0.10390612483024597 -0.0008573103696107864 0.002451052889227867 0 0 0 0
2918114004 -0.11805766820907593 -0.07699525356292725 -0.00039294641464948654 0.0028594471514225006 0 0 0 0
2921836088 -0.11027449369430542 -0.051570773124694824 0.00016250647604465485 0.0030376873910427094 0 0 0 0
2925558172 -0.09920038282871246 -0.02802102640271187 0.000928918831050396 0.003128277137875557 0 0 0 0
2929280256 -0.08555912226438522 -0.0059760939329862595 0.001449955627322197 0.0030125873163342476 0 0 0 0
2933002340 -0.0691537857055664 0.01392441987991333 0.00209621898829937 0.0028403382748365402 0 0 0 0
2936724424 -0.04999766871333122 0.0329238697886467 0.002688685432076454 0.002454782836139202 0 0 0 0
2940446508 -0.029045971110463142 0.047543011605739594 0.0032256832346320152 0.0020897705107927322 0 0 0 0
2944168592 -0.006168117746710777 0.06011952832341194 0.003650701604783535 0.001544000580906868 0 0 0 0
2947890676 0.018266772851347923 0.06957529485225677 0.0039239078760147095 0.001111624762415886 0 0 0 0
2951612760 0.04299455136060715 0.07633368670940399 0.004244220443069935 0.0007091974839568138 0 0 0 0
2955334844 0.06824132800102234 0.07991823554039001 0.004596625454723835 -3.3865682780742645e-05 0 0 0 0
2959056928 0.09511187672615051 0.07896379381418228 0.004786175675690174 -0.0009417794644832611 0 0 0 0
2962779012 0.12130977213382721 0.07528822124004364 0.004708264954388142 -0.0016147168353199959 0 0 0 0
2966501096 0.1465284824371338 0.06836913526058197 0.004465358331799507 -0.0023653702810406685 0 0 0 0
2970223180 0.17133063077926636 0.057188231498003006 0.004234308376908302 -0.003071052022278309 0 0 0 0
2973945264 0.19306614995002747 0.045684609562158585 0.00373196043074131 -0.0037385262548923492 0 0 0 0
2977667348 0.21462535858154297 0.025762081146240234 0.003207281231880188 -0.00453102495521307 0 0 0 0
2981389432 0.2313554286956787 0.005410068668425083 0.0022643571719527245 -0.005080905742943287 0 0 0 0
2985111516 0.24428144097328186 -0.01859784871339798 0.0011530891060829163 -0.00534687377512455 0 0 0 0
2988833600 0.25611627101898193 -0.03940945118665695 0.00034099817276000977 -0.005425319075584412 0 0 0 0
2992555684 0.2621353566646576 -0.06538378447294235 -0.0008569955825805664 -0.005182832479476929 0 0 0 0
2996277768 0.26533815264701843 -0.08825318515300751 -0.001729784533381462 -0.004841895774006844 0 0 0 0
2999999852 0.2678995430469513 -0.11232831329107285 -0.00269352737814188 -0.004120838828384876 0 0 0 0
