# HZ S RI R 50
1500000000 -0.1291380077600479 -0.06371854245662689 0.04151270166039467 -0.035218559205532074 0 0 0 0
1503722084 -0.1180969700217247 -0.0312882624566555 0.0333072803914547 -0.0435275137424469 0 0 0 0
1507444168 -0.0992736667394638 0.0003136098384857178 0.022674284875392914 -0.049145717173814774 0 0 0 0
1511166252 -0.0738937109708786 0.026782201603055 0.011585699394345284 -0.05113208666443825 0 0 0 0
1514888336 -0.04371689632534981 0.04924708604812622 0.0006850436329841614 -0.05030495673418045 0 0 0 0
1518610420 -0.008546748198568821 0.06745073944330215 -0.009643834084272385 -0.04651496931910515 0 0 0 0
1522332504 0.030730441212654114 0.07951352000236511 -0.01699640229344368 -0.04051889851689339 0 0 0 0
1526054588 0.07267654687166214 0.08477893471717834 -0.0219900943338871 -0.03420960158109665 0 0 0 0
1529776672 0.11635361611843109 0.08373180031776428 -0.025051584467291832 -0.028340639546513557 0 0 0 0
1533498756 0.16155442595481873 0.07431958615779877 -0.02747208997607231 -0.02237110771238804 0 0 0 0
1537220840 0.20661456882953644 0.05815980210900307 -0.028515774756669998 -0.016501370817422867 0 0 0 0
1540942924 0.25117695331573486 0.03240756317973137 -0.028486866503953934 -0.011302083730697632 0 0 0 0
1544665008 0.2901855707168579 -0.0016690939664840698 -0.027604930102825165 -0.006956775672733784 0 0 0 0
1548387092 0.3236624300479889 -0.043284595012664795 -0.02641560696065426 -0.0034361565485596657 0 0 0 0
1552109176 0.3506147563457489 -0.08987654000520706 -0.025114065036177635 -0.0002627512440085411 0 0 0 0
1555831260 0.3699907064437866 -0.1451408863067627 -0.023800170049071312 0.002556220628321171 0 0 0 0
1559553344 0.3794161081314087 -0.20217011868953705 -0.022332675755023956 0.005238684825599194 0 0 0 0
1563275428 0.38192710280418396 -0.25985974073410034 -0.020937521010637283 0.007544343359768391 0 0 0 0
1566997512 0.371629536151886 -0.3196287751197815 -0.01903049647808075 0.010008011013269424 0 0 0 0
1570719596 0.35481399297714233 -0.37758123874664307 -0.01667182520031929 0.012011533603072166 0 0 0 0
1574441680 0.32232463359832764 -0.43388110399246216 -0.014146029949188232 0.013121030293405056 0 0 0 0
1578163764 0.2824673354625702 -0.4828198552131653 -0.011959802359342575 0.013901103287935257 0 0 0 0
1581885848 0.23805375397205353 -0.5246212482452393 -0.00976070761680603 0.01459504198282957 0 0 0 0
1585607932 0.18499720096588135 -0.5589120388031006 -0.00782372523099184 0.014955015853047371 0 0 0 0
1589330016 0.12787304818630219 -0.586430013179779 -0.0060355169698596 0.014865834265947342 0 0 0 0
1593052100 0.06448182463645935 -0.603675127029419 -0.004604790359735489 0.014803919941186905 0 0 0 0
1596774184 8.725747466087341e-05 -0.6136494278907776 -0.0035279318690299988 0.015198986977338791 0 0 0 0
1600496268 -0.06514677405357361 -0.6129331588745117 -0.001921950839459896 0.015863455832004547 0 0 0 0
1604218352 -0.1283666491508484 -0.6025228500366211 2.2846274077892303e-05 0.01647542417049408 0 0 0 0
1607940436 -0.19320780038833618 -0.5813868045806885 0.002326861023902893 0.01645354926586151 0 0 0 0
1611662520 -0.2535400986671448 -0.5523136258125305 0.004549269564449787 0.015948383137583733 0 0 0 0
1615384604 -0.30784279108047485 -0.515241265296936 0.006617802195250988 0.015486294403672218 0 0 0 0
1619106688 -0.36573660373687744 -0.4614819884300232 0.008809272199869156 0.014661891385912895 0 0 0 0
1622828772 -0.404967725276947 -0.41139501333236694 0.010747473686933517 0.01398376189172268 0 0 0 0
1626550856 -0.44213399291038513 -0.34675201773643494 0.01319894753396511 0.012735540047287941 0 0 0 0
1630272940 -0.46540746092796326 -0.28190183639526367 0.015819178894162178 0.011109418235719204 0 0 0 0
1633995024 -0.4830596446990967 -0.20801517367362976 0.018450364470481873 0.008158037438988686 0 0 0 0
1637717108 -0.48903214931488037 -0.13127081096172333 0.02024662122130394 0.004352234303951263 0 0 0 0
1641439192 -0.48311856389045715 -0.053763702511787415 0.020787671208381653 0.0002535395324230194 0 0 0 0
1645161276 -0.4648304581642151 0.019727880135178566 0.02050127275288105 -0.003616233356297016 0 0 0 0
1648883360 -0.4359770715236664 0.09156693518161774 0.019707784056663513 -0.007204430177807808 0 0 0 0
1652605444 -0.39425408840179443 0.1612137407064438 0.01819831132888794 -0.011160926893353462 0 0 0 0
1656327528 -0.3438328504562378 0.2223224937915802 0.015783270820975304 -0.014760295860469341 0 0 0 0
1660049612 -0.28151315450668335 0.27664053440093994 0.012342894449830055 -0.017784154042601585 0 0 0 0
1663771696 -0.2100917398929596 0.3201495110988617 0.007881559431552887 -0.019722171127796173 0 0 0 0
1667493780 -0.13476920127868652 0.3515593409538269 0.003589157946407795 -0.020330941304564476 0 0 0 0
1671215864 -0.052449781447649 0.3715136647224426 -0.0008519235998392105 -0.01988670974969864 0 0 0 0
1674937948 0.029193125665187836 0.37995314598083496 -0.0049184393137693405 -0.018544876947999 0 0 0 0
1678660032 0.11342944204807281 0.37363964319229126 -0.008101039566099644 -0.016272826120257378 0 0 0 0
1682382116 0.19645071029663086 0.35329297184944153 -0.01072254590690136 -0.013501223176717758 0 0 0 0
1686104200 0.2753612995147705 0.32101333141326904 -0.012201512232422829 -0.010465789586305618 0 0 0 0
1689826284 0.34543436765670776 0.27861344814300537 -0.013040952384471893 -0.00762295164167881 0 0 0 0
1693548368 0.40896081924438477 0.22414158284664154 -0.013282690197229385 -0.004900820553302765 0 0 0 0
1697270452 0.46221697330474854 0.1615927815437317 -0.013167242519557476 -0.0022714799270033836 0 0 0 0
1700992536 0.5066860318183899 0.08756263554096222 -0.012453353963792324 0.0003340570256114006 0 0 0 0
1704714620 0.5383542776107788 0.012672960758209229 -0.01146282721310854 0.002279152162373066 0 0 0 0
1708436704 0.5577645301818848 -0.06468364596366882 -0.010141327977180481 0.003974585793912411 0 0 0 0
1712158788 0.5637885928153992 -0.14781230688095093 -0.008565286174416542 0.005594110116362572 0 0 0 0
1715880872 0.5590625405311584 -0.2253023236989975 -0.006700698286294937 0.006490079686045647 0 0 0 0
1719602956 0.5383074283599854 -0.3087775707244873 -0.004586591385304928 0.006925539113581181 0 0 0 0
1723325040 0.5109806656837463 -0.3766089379787445 -0.0027405042201280594 0.00654522143304348 0 0 0 0
1727047124 0.4728907346725464 -0.4407949447631836 -0.0014074500650167465 0.005857435055077076 0 0 0 0
1730769208 0.4187134802341461 -0.5042665004730225 -0.00037164799869060516 0.004936749115586281 0 0 0 0
1734491292 0.3615630269050598 -0.5534613132476807 0.00013819243758916855 0.004097798839211464 0 0 0 0
1738213376 0.29524216055870056 -0.5938936471939087 0.0007117241621017456 0.0032627107575535774 0 0 0 0
1741935460 0.22752000391483307 -0.6220575571060181 0.0006592068821191788 0.0021682148799300194 0 0 0 0
1745657544 0.15975800156593323 -0.6389354467391968 -6.123725324869156e-05 0.001110888086259365 0 0 0 0
1749379628 0.08617840707302094 -0.6456581950187683 -0.0011989828199148178 0.0008962098509073257 0 0 0 0
1753101712 0.015874594449996948 -0.639873743057251 -0.002110821194946766 0.001606886275112629 0 0 0 0
1756823796 -0.053787559270858765 -0.624361515045166 -0.002267193980515003 0.0027870899066329002 0 0 0 0
1760545880 -0.11559873819351196 -0.5977272391319275 -0.0018629375845193863 0.0037070652469992638 0 0 0 0
1764267964 -0.172015979886055 -0.5637251138687134 -0.0010586176067590714 0.0043500373139977455 0 0 0 0
1767990048 -0.22413581609725952 -0.5236108899116516 5.236826837062836e-05 0.004619229584932327 0 0 0 0
1771712132 -0.26721543073654175 -0.4753786027431488 0.0010606013238430023 0.004103423096239567 0 0 0 0
1775434216 -0.29859668016433716 -0.4251726269721985 0.001310812309384346 0.0030784988775849342 0 0 0 0
1779156300 -0.32424986362457275 -0.37287068367004395 0.0008861059322953224 0.0024622268974781036 0 0 0 0
1782878384 -0.3441954255104065 -0.31561845541000366 0.00043625663965940475 0.002574002370238304 0 0 0 0
1786600468 -0.35466551780700684 -0.25832608342170715 7.72690400481224e-05 0.002736026421189308 0 0 0 0
1790322552 -0.35898810625076294 -0.19977909326553345 -0.00040231645107269287 0.00331101194024086 0 0 0 0
1794044636 -0.35458195209503174 -0.14079365134239197 -0.000612734816968441 0.004183792509138584 0 0 0 0
1797766720 -0.3406222462654114 -0.08569000661373138 -0.0005606319755315781 0.005307343788444996 0 0 0 0
1801488804 -0.3202194571495056 -0.032855503261089325 3.2026320695877075e-05 0.007090930826961994 0 0 0 0
1805210888 -0.29214954376220703 0.017951838672161102 0.0016357069835066795 0.009120307862758636 0 0 0 0
1808932972 -0.2561373710632324 0.06512384116649628 0.004690135829150677 0.010279528796672821 0 0 0 0
1812655056 -0.21202637255191803 0.10482881963253021 0.008094477467238903 0.010215282440185547 0 0 0 0
1816377140 -0.16246944665908813 0.13533420860767365 0.01147688552737236 0.009120611473917961 0 0 0 0
1820099224 -0.10763552784919739 0.15765579044818878 0.015255734324455261 0.0067682573571801186 0 0 0 0
1823821308 -0.0531599335372448 0.16916416585445404 0.01807643473148346 0.00247285608202219 0 0 0 0
1827543392 0.002826288342475891 0.17198069393634796 0.018897099420428276 -0.0027992362156510353 0 0 0 0
1831265476 0.05471186339855194 0.16531959176063538 0.017860474064946175 -0.0074695078656077385 0 0 0 0
1834987560 0.10552562028169632 0.15037991106510162 0.015545403584837914 -0.011631377041339874 0 0 0 0
1838709644 0.14987707138061523 0.13056203722953796 0.012479450553655624 -0.014829855412244797 0 0 0 0
1842431728 0.19069325923919678 0.10598195344209671 0.00875292532145977 -0.016840118914842606 0 0 0 0
1846153812 0.22781133651733398 0.07337457686662674 0.004808180965483189 -0.017484251409769058 0 0 0 0
1849875896 0.257953405380249 0.037720128893852234 0.0018434934318065643 -0.01733645796775818 0 0 0 0
1853597980 0.2806573510169983 -0.004009723663330078 -0.0006896965205669403 -0.017112411558628082 0 0 0 0
1857320064 0.29717516899108887 -0.04609402269124985 -0.0027757473289966583 -0.016828365623950958 0 0 0 0
1861042148 0.30559229850769043 -0.08843792229890823 -0.005177099257707596 -0.016920745372772217 0 0 0 0
1864764232 0.3061554431915283 -0.13292446732521057 -0.008450520224869251 -0.016150474548339844 0 0 0 0
1868486316 0.30236324667930603 -0.17099684476852417 -0.010952811688184738 -0.01460186392068863 0 0 0 0
1872208400 0.2906784415245056 -0.21175333857536316 -0.013253435492515564 -0.013134360313415527 0 0 0 0
1875930484 0.2746080160140991 -0.2487402856349945 -0.015070229768753052 -0.011082581244409084 0 0 0 0
1879652568 0.2510194778442383 -0.28267645835876465 -0.01659182831645012 -0.008698170073330402 0 0 0 0
1883374652 0.22324389219284058 -0.3098142743110657 -0.018303465098142624 -0.006796462461352348 0 0 0 0
1887096736 0.18646834790706635 -0.3335588276386261 -0.02052958682179451 -0.0043744780123233795 0 0 0 0
1890818820 0.1539168655872345 -0.3447849750518799 -0.022868499159812927 -0.0009454116225242615 0 0 0 0
1894540904 0.11892234534025192 -0.35105788707733154 -0.024586830288171768 0.003999857231974602 0 0 0 0
1898262988 0.08284486830234528 -0.35282546281814575 -0.024143829941749573 0.010515924543142319 0 0 0 0
1901985072 0.053496405482292175 -0.34771594405174255 -0.021168094128370285 0.01632923260331154 0 0 0 0
1905707156 0.022280901670455933 -0.3381350040435791 -0.016888253390789032 0.020338917151093483 0 0 0 0
1909429240 -0.006337225437164307 -0.32688772678375244 -0.0123680355027318 0.023135604336857796 0 0 0 0
1913151324 -0.031986236572265625 -0.30853569507598877 -0.007895405404269695 0.02520022727549076 0 0 0 0
1916873408 -0.05539865791797638 -0.2868073582649231 -0.002427716739475727 0.02631460316479206 0 0 0 0
1920595492 -0.07345915585756302 -0.2605016827583313 0.003194153308868408 0.02609705738723278 0 0 0 0
1924317576 -0.08440583199262619 -0.23279571533203125 0.008159048855304718 0.024609850719571114 0 0 0 0
1928039660 -0.09196556359529495 -0.2028377652168274 0.012908846139907837 0.02230469137430191 0 0 0 0
1931761744 -0.09462474286556244 -0.17349255084991455 0.017248189076781273 0.01889231614768505 0 0 0 0
1935483828 -0.0905611515045166 -0.14514115452766418 0.020459994673728943 0.014239266514778137 0 0 0 0
1939205912 -0.08301010727882385 -0.11691942811012268 0.021791791543364525 0.008875841274857521 0 0 0 0
1942927996 -0.06994003057479858 -0.09030048549175262 0.02144298329949379 0.004267771728336811 0 0 0 0
1946650080 -0.05303504317998886 -0.06664682924747467 0.02045673504471779 0.0006511379033327103 0 0 0 0
1950372164 -0.031946755945682526 -0.046472739428281784 0.019324660301208496 -0.0019923709332942963 0 0 0 0
1954094248 -0.0072526875883340836 -0.03065307065844536 0.018572593107819557 -0.00454043410718441 0 0 0 0
1957816332 0.019382419064641 -0.019647570326924324 0.018087293952703476 -0.007302085869014263 0 0 0 0
1961538416 0.04732845723628998 -0.012683959677815437 0.01654254086315632 -0.010652701370418072 0 0 0 0
1965260500 0.07747067511081696 -0.011286193504929543 0.014129998162388802 -0.013154788874089718 0 0 0 0
1968982584 0.10766270011663437 -0.01656331494450569 0.011843351647257805 -0.014908097684383392 0 0 0 0
1972704668 0.13548870384693146 -0.028576575219631195 0.009435813874006271 -0.01640401780605316 0 0 0 0
1976426752 0.16032066941261292 -0.044288381934165955 0.006801167502999306 -0.017815809696912766 0 0 0 0
1980148836 0.18165059387683868 -0.06537722796201706 0.0040102070197463036 -0.01944710686802864 0 0 0 0
1983870920 0.19796213507652283 -0.08838388323783875 0.00031609926372766495 -0.02046102285385132 0 0 0 0
1987593004 0.20921675860881805 -0.11499955505132675 -0.0037109190598130226 -0.021060753613710403 0 0 0 0
1991315088 0.2147308886051178 -0.1426510512828827 -0.00842329766601324 -0.02020805887877941 0 0 0 0
1995037172 0.2156364917755127 -0.1712580919265747 -0.01227685809135437 -0.018072163686156273 0 0 0 0
1998759256 0.21132192015647888 -0.19742035865783691 -0.015386373735964298 -0.015037321485579014 0 0 0 0
2002481340 0.20060227811336517 -0.22397445142269135 -0.01724339835345745 -0.011715949513018131 0 0 0 0
2006203424 0.18858776986598969 -0.24525010585784912 -0.018872646614909172 -0.008708303794264793 0 0 0 0
2009925508 0.17193375527858734 -0.26499882340431213 -0.020194875076413155 -0.006024315021932125 0 0 0 0
2013647592 0.15271461009979248 -0.2828739881515503 -0.021694893017411232 -0.0025460096076130867 0 0 0 0
2017369676 0.13100339472293854 -0.29714295268058777 -0.02261423133313656 0.0011401912197470665 0 0 0 0
2021091760 0.10450541973114014 -0.3080434203147888 -0.023166382685303688 0.006377422250807285 0 0 0 0
2024813844 0.08064476400613785 -0.3122329115867615 -0.02174747735261917 0.0114919887855649 0 0 0 0
2028535928 0.05095036327838898 -0.3133212924003601 -0.018336612731218338 0.016538718715310097 0 0 0 0
2032258012 0.026115626096725464 -0.30861204862594604 -0.013914491981267929 0.01924772933125496 0 0 0 0
2035980096 0.0003888159990310669 -0.2996062636375427 -0.009566746652126312 0.020663321018218994 0 0 0 0
2039702180 -0.023429755121469498 -0.28716158866882324 -0.005486258305609226 0.02141948789358139 0 0 0 0
2043424264 -0.04331914335489273 -0.2712184190750122 -0.0017741741612553596 0.021263623610138893 0 0 0 0
2047146348 -0.06383557617664337 -0.25081726908683777 0.0022418061271309853 0.02089632861316204 0 0 0 0
2050868432 -0.07725710421800613 -0.23088723421096802 0.005648716352880001 0.019911332055926323 0 0 0 0
2054590516 -0.0925256758928299 -0.2064093053340912 0.008958905935287476 0.01770414598286152 0 0 0 0
2058312600 -0.10101418942213058 -0.18097606301307678 0.011509240604937077 0.015423287637531757 0 0 0 0
2062034684 -0.10680925846099854 -0.15270191431045532 0.013334417715668678 0.012686455622315407 0 0 0 0
2065756768 -0.1097971573472023 -0.12377220392227173 0.014771000482141972 0.009792078286409378 0 0 0 0
2069478852 -0.10755158215761185 -0.09251901507377625 0.015511739999055862 0.007355314679443836 0 0 0 0
2073200936 -0.10003659129142761 -0.06195380911231041 0.015654414892196655 0.004446389153599739 0 0 0 0
2076923020 -0.08722802996635437 -0.030060604214668274 0.01521215308457613 0.0016506817191839218 0 0 0 0
2080645104 -0.06736724823713303 -0.0021557388827204704 0.014398989267647266 8.935108780860901e-05 0 0 0 0
2084367188 -0.044113367795944214 0.02357960119843483 0.013793302699923515 -0.0017143748700618744 0 0 0 0
2088089272 -0.0154651440680027 0.044777341187000275 0.013334662653505802 -0.002647547982633114 0 0 0 0
2091811356 0.016251515597105026 0.060689788311719894 0.012966561131179333 -0.004286687821149826 0 0 0 0
2095533440 0.05143558606505394 0.07131420820951462 0.012881645001471043 -0.006060128100216389 0 0 0 0
2099255524 0.08795679360628128 0.07594291865825653 0.012253747321665287 -0.008441109210252762 0 0 0 0
2102977608 0.12462814152240753 0.0753226950764656 0.010790890082716942 -0.010845755226910114 0 0 0 0
2106699692 0.16123828291893005 0.06794104725122452 0.008602689020335674 -0.012913510203361511 0 0 0 0
2110421776 0.19599075615406036 0.05415143817663193 0.006151534616947174 -0.013995202258229256 0 0 0 0
2114143860 0.22869735956192017 0.03380429744720459 0.003574143163859844 -0.014497118070721626 0 0 0 0
2117865944 0.25640371441841125 0.007825400680303574 0.0013080788776278496 -0.014932260848581791 0 0 0 0
2121588028 0.2784724831581116 -0.021560467779636383 -0.0014465870335698128 -0.015090079046785831 0 0 0 0
2125310112 0.2959056794643402 -0.05197717249393463 -0.004269035533070564 -0.015083061531186104 0 0 0 0
2129032196 0.3083038330078125 -0.0861491858959198 -0.007719684392213821 -0.013970917090773582 0 0 0 0
2132754280 0.3152680993080139 -0.11897438764572144 -0.010487648658454418 -0.011299722827970982 0 0 0 0
2136476364 0.315740704536438 -0.15644896030426025 -0.012044095434248447 -0.008304735645651817 0 0 0 0
2140198448 0.3118037283420563 -0.19156157970428467 -0.012308262288570404 -0.005313894711434841 0 0 0 0
2143920532 0.299542635679245 -0.2268391251564026 -0.011960888281464577 -0.0030313385650515556 0 0 0 0
2147642616 0.28405335545539856 -0.25777822732925415 -0.011388672515749931 -0.0014448734000325203 0 0 0 0
2151364700 0.2619266211986542 -0.28479063510894775 -0.01089797168970108 -0.0001612333580851555 0 0 0 0
2155086784 0.23643457889556885 -0.3084509074687958 -0.010370247066020966 0.001151285134255886 0 0 0 0
2158808868 0.2106669545173645 -0.32701101899147034 -0.009881053119897842 0.002042175270617008 0 0 0 0
2162530952 0.17823681235313416 -0.34145790338516235 -0.00983711052685976 0.0027382541447877884 0 0 0 0
2166253036 0.147083580493927 -0.34850481152534485 -0.010112090967595577 0.0039012739434838295 0 0 0 0
2169975120 0.11339151859283447 -0.3525030016899109 -0.009821181185543537 0.005869860760867596 0 0 0 0
2173697204 0.08386838436126709 -0.3498398959636688 -0.00886954739689827 0.007798607461154461 0 0 0 0
2177419288 0.05218803882598877 -0.34382379055023193 -0.006912050768733025 0.00901307538151741 0 0 0 0
2181141372 0.02431301958858967 -0.3336740732192993 -0.005441675893962383 0.009633137844502926 0 0 0 0
2184863456 -0.002215668559074402 -0.3199963867664337 -0.004153386689722538 0.01009934302419424 0 0 0 0
2188585540 -0.03099881112575531 -0.3014856278896332 -0.002658553421497345 0.010604703798890114 0 0 0 0
2192307624 -0.054479748010635376 -0.27662065625190735 -0.0011423658579587936 0.01106125209480524 0 0 0 0
2196029708 -0.07251466810703278 -0.2487405240535736 0.0006771637126803398 0.011117089539766312 0 0 0 0
2199751792 -0.083250492811203 -0.2178107500076294 0.002341574989259243 0.010829957202076912 0 0 0 0
2203473876 -0.09177573770284653 -0.183814138174057 0.003940768539905548 0.010272495448589325 0 0 0 0
2207195960 -0.09209556132555008 -0.15155670046806335 0.005019686184823513 0.009699124842882156 0 0 0 0
2210918044 -0.0884997770190239 -0.11806956678628922 0.006475786678493023 0.009000418707728386 0 0 0 0
2214640128 -0.07877445966005325 -0.08831822872161865 0.008208604529500008 0.008148806169629097 0 0 0 0
2218362212 -0.06348475813865662 -0.06130495294928551 0.010000519454479218 0.0069122230634093285 0 0 0 0
2222084296 -0.04497862234711647 -0.03700132668018341 0.011439907364547253 0.004967589862644672 0 0 0 0
2225806380 -0.02274421788752079 -0.016331028193235397 0.01224820502102375 0.00247050728648901 0 0 0 0
2229528464 0.0020269686356186867 0.0020475229248404503 0.012466332875192165 -0.0005323775112628937 0 0 0 0
2233250548 0.030222918838262558 0.014693927019834518 0.011799223721027374 -0.003164597786962986 0 0 0 0
2236972632 0.05905451625585556 0.023178035393357277 0.010368725284934044 -0.005119649693369865 0 0 0 0
2240694716 0.0902281254529953 0.025384381413459778 0.008715429343283176 -0.006612173281610012 0 0 0 0
2244416800 0.12121321260929108 0.020788799971342087 0.007060501724481583 -0.008024650625884533 0 0 0 0
2248138884 0.15021558105945587 0.014480971731245518 0.005518948659300804 -0.008706561289727688 0 0 0 0
2251860968 0.17789074778556824 -0.0021157674491405487 0.0037549184635281563 -0.009108711034059525 0 0 0 0
2255583052 0.20161859691143036 -0.021789448335766792 0.0023158537223935127 -0.009414037689566612 0 0 0 0
2259305136 0.21966147422790527 -0.045657120645046234 0.0007915440946817398 -0.0095295961946249 0 0 0 0
2263027220 0.23337151110172272 -0.06775402277708054 -0.0006269402801990509 -0.009276329539716244 0 0 0 0
2266749304 0.2396773248910904 -0.09635849297046661 -0.0014916257932782173 -0.008866163901984692 0 0 0 0
2270471388 0.24435895681381226 -0.11926449835300446 -0.0024735145270824432 -0.008943215012550354 0 0 0 0
2274193472 0.24320760369300842 -0.14475727081298828 -0.0036408109590411186 -0.009180870838463306 0 0 0 0
2277915556 0.24070322513580322 -0.1688717007637024 -0.005481572821736336 -0.009324375540018082 0 0 0 0
2281637640 0.22900830209255219 -0.19772706925868988 -0.007556252181529999 -0.008579129353165627 0 0 0 0
2285359724 0.2197130173444748 -0.21405944228172302 -0.009247273206710815 -0.007359355688095093 0 0 0 0
2289081808 0.19491833448410034 -0.2390134036540985 -0.01091006025671959 -0.005338343791663647 0 0 0 0
2292803892 0.17962270975112915 -0.25056982040405273 -0.011654162779450417 -0.003461139276623726 0 0 0 0
2296525976 0.15614725649356842 -0.2595192790031433 -0.011968875303864479 -0.0014408230781555176 0 0 0 0
2300248060 0.12719310820102692 -0.2680816054344177 -0.012012653052806854 0.0003607114776968956 0 0 0 0
2303970144 0.11633327603340149 -0.2698397636413574 -0.011818859726190567 0.0023335516452789307 0 0 0 0
2307692228 0.08809524774551392 -0.26758480072021484 -0.011159811168909073 0.004653278738260269 0 0 0 0
2311414312 0.06268644332885742 -0.2638069987297058 -0.009807627648115158 0.006384925916790962 0 0 0 0
2315136396 0.041863299906253815 -0.255191832780838 -0.00790551956743002 0.007187739945948124 0 0 0 0
2318858480 0.02598501369357109 -0.24343697726726532 -0.006373928859829903 0.0075046224519610405 0 0 0 0
2322580564 -0.0008134469389915466 -0.2282874882221222 -0.0053968606516718864 0.0074652619659900665 0 0 0 0
2326302648 -0.017834924161434174 -0.20802564918994904 -0.004845458082854748 0.0075462693348526955 0 0 0 0
2330024732 -0.02964968979358673 -0.1847485601902008 -0.004370084032416344 0.00796478521078825 0 0 0 0
2333746816 -0.03460437431931496 -0.16044557094573975 -0.0035370755940675735 0.008485465310513973 0 0 0 0
2337468900 -0.037804074585437775 -0.1346440613269806 -0.0022899415343999863 0.00867137499153614 0 0 0 0
2341190984 -0.039442118257284164 -0.10572776198387146 -0.0013491837307810783 0.008656331337988377 0 0 0 0
2344913068 -0.03126503527164459 -0.07958640158176422 -0.0006729578599333763 0.008529013022780418 0 0 0 0
2348635152 -0.01993894763290882 -0.05479917302727699 -4.4442713260650635e-05 0.008489246480166912 0 0 0 0
2352357236 -0.005277611315250397 -0.032324984669685364 0.000970771536231041 0.00874446053057909 0 0 0 0
2356079320 0.013698246330022812 -0.011937101371586323 0.002222636714577675 0.008518307469785213 0 0 0 0
2359801404 0.03575912117958069 0.005069156177341938 0.0037440992891788483 0.008104290813207626 0 0 0 0
2363523488 0.06152419373393059 0.017436116933822632 0.004791381768882275 0.007000470533967018 0 0 0 0
2367245572 0.08854101598262787 0.026063138619065285 0.005337919108569622 0.005800644867122173 0 0 0 0
2370967656 0.1171053946018219 0.029703058302402496 0.0055783092975616455 0.004764706827700138 0 0 0 0
2374689740 0.14631539583206177 0.027121789753437042 0.005794482305645943 0.003898690454661846 0 0 0 0
2378411824 0.174194797873497 0.02056066319346428 0.005836143158376217 0.0031114397570490837 0 0 0 0
2382133908 0.20046073198318481 0.008968825452029705 0.0058543989434838295 0.002310381270945072 0 0 0 0
2385855992 0.2249773144721985 -0.006894908845424652 0.005647133104503155 0.001547452062368393 0 0 0 0
2389578076 0.2459041178226471 -0.028180599212646484 0.005156289786100388 0.0008993148803710938 0 0 0 0
2393300160 0.2628672122955322 -0.050953157246112823 0.004724126309156418 0.0009600594639778137 0 0 0 0
2397022244 0.27574461698532104 -0.07631868124008179 0.004875772632658482 0.0011555608361959457 0 0 0 0
2400744328 0.28329676389694214 -0.107075996696949 0.005912469699978828 0.0008172569796442986 0 0 0 0
2404466412 0.286350816488266 -0.1297921985387802 0.006545471027493477 -0.0001978892832994461 0 0 0 0
2408188496 0.2849561274051666 -0.15707217156887054 0.006370199844241142 -0.0016388194635510445 0 0 0 0
2411910580 0.28083810210227966 -0.18185265362262726 0.00598890520632267 -0.0027680490165948868 0 0 0 0
2415632664 0.27239781618118286 -0.2078792154788971 0.00545153021812439 -0.0037578828632831573 0 0 0 0
2419354748 0.26133283972740173 -0.23011769354343414 0.004807508550584316 -0.004015816375613213 0 0 0 0
2423076832 0.24796073138713837 -0.2517826557159424 0.004605713300406933 -0.004870446398854256 0 0 0 0
2426798916 0.23015692830085754 -0.27074554562568665 0.003829522058367729 -0.006072000600397587 0 0 0 0
2430521000 0.2093316912651062 -0.2869373559951782 0.00242012832313776 -0.006899761036038399 0 0 0 0
2434243084 0.1866367757320404 -0.30187106132507324 0.0007094582542777061 -0.0072196656838059425 0 0 0 0
2437965168 0.1650037169456482 -0.3100074529647827 -0.0006565544754266739 -0.006440325640141964 0 0 0 0
2441687252 0.1378946304321289 -0.31756049394607544 -0.00107524823397398 -0.005513015203177929 0 0 0 0
2445409336 0.11216242611408234 -0.3215688467025757 -0.0011728452518582344 -0.0051139891147613525 0 0 0 0
2449131420 0.08247491717338562 -0.3200623691082001 -0.0014060987159609795 -0.00543891079723835 0 0 0 0
2452853504 0.0582379475235939 -0.3152073919773102 -0.002049238421022892 -0.005550168454647064 0 0 0 0
2456575588 0.03227000683546066 -0.3062313199043274 -0.0028437860310077667 -0.005503319203853607 0 0 0 0
2460297672 0.008551523089408875 -0.29265347123146057 -0.0034904945641756058 -0.005194573663175106 0 0 0 0
2464019756 -0.011556591838598251 -0.27760830521583557 -0.0041325027123093605 -0.0047960951924324036 0 0 0 0
2467741840 -0.03465650975704193 -0.25843992829322815 -0.0048210509121418 -0.004578200168907642 0 0 0 0
2471463924 -0.049165137112140656 -0.2355276346206665 -0.005326389335095882 -0.004316434264183044 0 0 0 0
2475186008 -0.0618707537651062 -0.21221745014190674 -0.006074695847928524 -0.003941374830901623 0 0 0 0
2478908092 -0.06978822499513626 -0.1862175166606903 -0.007036016322672367 -0.003407340496778488 0 0 0 0
2482630176 -0.07431447505950928 -0.1597214639186859 -0.00771312415599823 -0.002306113950908184 0 0 0 0
2486352260 -0.07585203647613525 -0.13422046601772308 -0.00822087749838829 -0.0011819396167993546 0 0 0 0
2490074344 -0.07333622127771378 -0.10787525773048401 -0.008348705247044563 -9.690970182418823e-05 0 0 0 0
2493796428 -0.06702405214309692 -0.08128038793802261 -0.008426976390182972 0.0010590218007564545 0 0 0 0
2497518512 -0.05788648873567581 -0.05585195869207382 -0.007925724610686302 0.0021343398839235306 0 0 0 0
2501240596 -0.04457987844944 -0.032174333930015564 -0.007950078696012497 0.002988111227750778 0 0 0 0
2504962680 -0.027769064530730247 -0.011247786693274975 -0.007864479906857014 0.004107878543436527 0 0 0 0
2508684764 -0.008190831169486046 0.006469099782407284 -0.0072874994948506355 0.005388986319303513 0 0 0 0
2512406848 0.012693527154624462 0.022320076823234558 -0.0064690252766013145 0.006485198624432087 0 0 0 0
2516128932 0.0364854596555233 0.035891495645046234 -0.005330176092684269 0.007178016938269138 0 0 0 0
2519851016 0.06269854307174683 0.046288616955280304 -0.004564802162349224 0.007703549228608608 0 0 0 0
2523573100 0.09127286076545715 0.05063605308532715 -0.0036216964945197105 0.00838012807071209 0 0 0 0
2527295184 0.11985936015844345 0.05054450035095215 -0.0025054700672626495 0.00910105649381876 0 0 0 0
2531017268 0.14751502871513367 0.04677802696824074 -0.0011362209916114807 0.009698964655399323 0 0 0 0
2534739352 0.1745540052652359 0.036866459995508194 0.0006623929366469383 0.009957505390048027 0 0 0 0
2538461436 0.19957640767097473 0.023295264691114426 0.002437620423734188 0.009597796946763992 0 0 0 0
2542183520 0.22133979201316833 0.0075559914112091064 0.003885118290781975 0.008802589029073715 0 0 0 0
2545905604 0.23942089080810547 -0.014691603370010853 0.005150533281266689 0.007979431189596653 0 0 0 0
2549627688 0.25589829683303833 -0.03438926488161087 0.006416549906134605 0.007252750918269157 0 0 0 0
2553349772 0.26765525341033936 -0.059747010469436646 0.007713925093412399 0.006228816695511341 0 0 0 0
2557071856 0.27282965183258057 -0.0858849361538887 0.008722910657525063 0.004593661054968834 0 0 0 0
2560793940 0.2779375910758972 -0.11010700464248657 0.009035388007760048 0.003011014312505722 0 0 0 0
2564516024 0.27710604667663574 -0.1366831213235855 0.009608247317373753 0.0016682548448443413 0 0 0 0
2568238108 0.2723124325275421 -0.1593112200498581 0.009945232421159744 0.00034995563328266144 0 0 0 0
2571960192 0.2636725902557373 -0.18369169533252716 0.010203536599874496 -0.001632949337363243 0 0 0 0
2575682276 0.2506710886955261 -0.20458641648292542 0.0101630175486207 -0.0036516552790999413 0 0 0 0
2579404360 0.2369474470615387 -0.22214925289154053 0.00947817973792553 -0.005759218707680702 0 0 0 0
2583126444 0.22185656428337097 -0.23757225275039673 0.008068181574344635 -0.007814634591341019 0 0 0 0
2586848528 0.20395658910274506 -0.2496383786201477 0.006279791705310345 -0.009233888238668442 0 0 0 0
2590570612 0.18613258004188538 -0.2595742344856262 0.004185446538031101 -0.010131459683179855 0 0 0 0
2594292696 0.16665005683898926 -0.2675153613090515 0.002041454426944256 -0.010453139431774616 0 0 0 0
2598014780 0.1451464295387268 -0.2737378776073456 -1.207645982503891e-05 -0.010475493967533112 0 0 0 0
2601736864 0.127303346991539 -0.2730807960033417 -0.0017231414094567299 -0.009944582358002663 0 0 0 0
2605458948 0.10466423630714417 -0.27347996830940247 -0.0034119198098778725 -0.008964648470282555 0 0 0 0
2609181032 0.08200501650571823 -0.2700399160385132 -0.0043073901906609535 -0.007951728999614716 0 0 0 0
2612903116 0.06248599290847778 -0.26156070828437805 -0.004848625510931015 -0.006877581588923931 0 0 0 0
2616625200 0.04473257064819336 -0.2500954866409302 -0.005526823922991753 -0.00596831738948822 0 0 0 0
2620347284 0.03010788932442665 -0.235435351729393 -0.005774788558483124 -0.005066097714006901 0 0 0 0
2624069368 0.01685897260904312 -0.2192177027463913 -0.0058359382674098015 -0.004587422125041485 0 0 0 0
2627791452 0.008477114140987396 -0.20046524703502655 -0.005951667204499245 -0.004277180880308151 0 0 0 0
2631513536 0.0029605329036712646 -0.18036547303199768 -0.006416572257876396 -0.004043325781822205 0 0 0 0
2635235620 -0.0006446987390518188 -0.16077429056167603 -0.007211841642856598 -0.0035158880054950714 0 0 0 0
2638957704 0.0035180896520614624 -0.1430688500404358 -0.00804216880351305 -0.002971431240439415 0 0 0 0
2642679788 0.008745044469833374 -0.12443400174379349 -0.008960681036114693 -0.001909763552248478 0 0 0 0
2646401872 0.01722060702741146 -0.10899081081151962 -0.009701408445835114 -0.0003318479284644127 0 0 0 0
2650123956 0.02953740581870079 -0.0949699878692627 -0.010072928853332996 0.0014645745977759361 0 0 0 0
2653846040 0.04308114945888519 -0.08434056490659714 -0.009446232579648495 0.0037241149693727493 0 0 0 0
2657568124 0.05742006003856659 -0.07671467959880829 -0.008201333694159985 0.005271928384900093 0 0 0 0
2661290208 0.07366152107715607 -0.07292306423187256 -0.0069895219057798386 0.006305151619017124 0 0 0 0
2665012292 0.08910577744245529 -0.0726676657795906 -0.0058525241911411285 0.006923170760273933 0 0 0 0
2668734376 0.10387469828128815 -0.07609671354293823 -0.004772684536874294 0.007996273227036 0 0 0 0
2672456460 0.11705505847930908 -0.08172791451215744 -0.003127024509012699 0.008569309487938881 0 0 0 0
2676178544 0.1295352578163147 -0.09128329157829285 -0.0012906352058053017 0.009019844233989716 0 0 0 0
2679900628 0.14021337032318115 -0.10037945210933685 0.0004197005182504654 0.008773423731327057 0 0 0 0
2683622712 0.1479099541902542 -0.11346939206123352 0.0021483683958649635 0.007797879166901112 0 0 0 0
2687344796 0.1490689218044281 -0.12962694466114044 0.0033756205812096596 0.006980576552450657 0 0 0 0
2691066880 0.15109680593013763 -0.1434633433818817 0.004199913702905178 0.0058694928884506226 0 0 0 0
2694788964 0.14664262533187866 -0.15905317664146423 0.004691154696047306 0.0051071979105472565 0 0 0 0
2698511048 0.141225203871727 -0.1703505963087082 0.005335240624845028 0.004220516420900822 0 0 0 0
2702233132 0.1325971484184265 -0.18178310990333557 0.0061715226620435715 0.003301038406789303 0 0 0 0
2705955216 0.1220296248793602 -0.19182009994983673 0.006654383614659309 0.002039077691733837 0 0 0 0
2709677300 0.10931612551212311 -0.2006242573261261 0.006721554324030876 0.0006575947627425194 0 0 0 0
2713399384 0.09602323919534683 -0.20651984214782715 0.006669803522527218 -0.00046805571764707565 0 0 0 0
2717121468 0.08154724538326263 -0.20818229019641876 0.006474100984632969 -0.0015541184693574905 0 0 0 0
2720843552 0.06603776663541794 -0.2074114978313446 0.006457550451159477 -0.0027776509523391724 0 0 0 0
2724565636 0.04973892122507095 -0.20446360111236572 0.005890372209250927 -0.004271979443728924 0 0 0 0
2728287720 0.03286328166723251 -0.1979973316192627 0.0049092769622802734 -0.005358423106372356 0 0 0 0
2732009804 0.017380811274051666 -0.18874439597129822 0.0032760147005319595 -0.00648035854101181 0 0 0 0
2735731888 0.0051302313804626465 -0.17548832297325134 0.0019568055868148804 -0.0065406085923314095 0 0 0 0
2739453972 -0.0054005105048418045 -0.16126148402690887 0.0008022068068385124 -0.006584938615560532 0 0 0 0
2743176056 -0.014273670502007008 -0.14391811192035675 -0.0003490131348371506 -0.006288179196417332 0 0 0 0
2746898140 -0.018164005130529404 -0.12520290911197662 -0.000934225507080555 -0.006157368421554565 0 0 0 0
2750620224 -0.01905595138669014 -0.10544753074645996 -0.0015731947496533394 -0.00622997060418129 0 0 0 0
2754342308 -0.017746994271874428 -0.08490128815174103 -0.0025926223024725914 -0.006469183601438999 0 0 0 0
2758064392 -0.012071345001459122 -0.06626647710800171 -0.004176298156380653 -0.006134885363280773 0 0 0 0
2761786476 -0.003236629068851471 -0.04803235083818436 -0.005558864213526249 -0.005347061902284622 0 0 0 0
2765508560 0.008206223137676716 -0.030708931386470795 -0.0067337993532419205 -0.004037859849631786 0 0 0 0
2769230644 0.022024791687726974 -0.015065529383718967 -0.007624948397278786 -0.0024307062849402428 0 0 0 0
2772952728 0.03888580948114395 -0.0011823810636997223 -0.007965175434947014 -0.0006265239790081978 0 0 0 0
2776674812 0.0598469153046608 0.009882967919111252 -0.0077624209225177765 0.0014913585036993027 0 0 0 0
2780396896 0.08274466544389725 0.017125684767961502 -0.0068240687251091 0.003416101448237896 0 0 0 0
2784118980 0.10672178864479065 0.018131783232092857 -0.005399971269071102 0.0049042291939258575 0 0 0 0
2787841064 0.1297605335712433 0.017268413677811623 -0.003620418719947338 0.00586481299251318 0 0 0 0
2791563148 0.15249040722846985 0.012539662420749664 -0.0018436862155795097 0.0058533428236842155 0 0 0 0
2795285232 0.1742037683725357 0.002917446196079254 -0.00042863842099905014 0.005596245639026165 0 0 0 0
2799007316 0.19493907690048218 -0.007738709449768066 0.0007528392598032951 0.005168711766600609 0 0 0 0
2802729400 0.21471941471099854 -0.024313509464263916 0.001772516407072544 0.004603929817676544 0 0 0 0
2806451484 0.2301488071680069 -0.04136870801448822 0.002499162219464779 0.0038577718660235405 0 0 0 0
2810173568 0.2431061714887619 -0.061620570719242096 0.00309063121676445 0.003171812742948532 0 0 0 0
2813895652 0.25417760014533997 -0.08492089807987213 0.003654499538242817 0.0024974336847662926 0 0 0 0
2817617736 0.261282742023468 -0.10521131753921509 0.004167851060628891 0.0015909075736999512 0 0 0 0
2821339820 0.26448604464530945 -0.13041555881500244 0.004225969314575195 0.0005158400163054466 0 0 0 0
2825061904 0.26331114768981934 -0.16011084616184235 0.004041202366352081 -0.0001939898356795311 0 0 0 0
2828783988 0.25802555680274963 -0.1836894452571869 0.004088124260306358 -0.0008042119443416595 0 0 0 0
2832506072 0.25137004256248474 -0.20575721561908722 0.004201347008347511 -0.0013789599761366844 0 0 0 0
2836228156 0.23984596133232117 -0.229282408952713 0.004158524796366692 -0.0022666985169053078 0 0 0 0
2839950240 0.2242611199617386 -0.2520478665828705 0.003633584827184677 -0.003195616416633129 0 0 0 0
2843672324 0.20631685853004456 -0.2696261703968048 0.0030927127227187157 -0.003933114930987358 0 0 0 0
2847394408 0.19049252569675446 -0.28305935859680176 0.0024446705356240273 -0.004731384105980396 0 0 0 0
2851116492 0.1678626388311386 -0.2973366975784302 0.0015406068414449692 -0.005207668989896774 0 0 0 0
2854838576 0.14784184098243713 -0.3062550127506256 0.0006042513996362686 -0.005544651299715042 0 0 0 0
2858560660 0.127456396818161 -0.31429892778396606 -0.00022629555314779282 -0.006056035868823528 0 0 0 0
2862282744 0.09834671020507812 -0.32060950994491577 -0.0016647223383188248 -0.005914214067161083 0 0 0 0
2866004828 0.07545536756515503 -0.3218463063240051 -0.002857447601854801 -0.005430945195257664 0 0 0 0
2869726912 0.04801672697067261 -0.32044562697410583 -0.003921689465641975 -0.00456891767680645 0 0 0 0
2873448996 0.031024407595396042 -0.31510186195373535 -0.004582073539495468 -0.0036152414977550507 0 0 0 0
2877171080 -0.00035153329372406006 -0.30742141604423523 -0.0049763936549425125 -0.0025448929518461227 0 0 0 0
2880893164 -0.021688072010874748 -0.2977679669857025 -0.005079952999949455 -0.0014999965205788612 0 0 0 0
2884615248 -0.04045543074607849 -0.2829629182815552 -0.005029563792049885 -0.0005173347890377045 0 0 0 0
2888337332 -0.05991848558187485 -0.2668071985244751 -0.004789701662957668 0.0003022877499461174 0 0 0 0
2892059416 -0.07825703918933868 -0.24860520660877228 -0.0046250345185399055 0.001203416846692562 0 0 0 0
2895781500 -0.09134722501039505 -0.22826074063777924 -0.0040260301902890205 0.002162802964448929 0 0 0 0
2899503584 -0.10465440154075623 -0.20438775420188904 -0.003465208224952221 0.002671808935701847 0 0 0 0
2903225668 -0.11463810503482819 -0.17992547154426575 -0.0028237998485565186 0.003273756243288517 0 0 0 0
2906947752 -0.12211891263723373 -0.15331941843032837 -0.001948460005223751 0.0036227162927389145 0 0 0 0
2910669836 -0.123740553855896 -0.1266593039035797 -0.0011771954596042633 0.004044163040816784 0 0 0 0
2914391920 -0.12256234884262085 -0.10087830573320389 -0.0005249669775366783 0.003942675888538361 0 0 0 0
2918114004 -0.11682796478271484 -0.07409942895174026 0.0002495907247066498 0.004068358801305294 0 0 0 0
2921836088 -0.10795094817876816 -0.04843079298734665 0.0009397910907864571 0.004114501178264618 0 0 0 0
2925558172 -0.09587371349334717 -0.024302523583173752 0.0019016321748495102 0.0038855290040373802 0 0 0 0
2929280256 -0.08136959373950958 -0.0031618140637874603 0.0026660840958356857 0.003524007275700569 0 0 0 0
2933002340 -0.06365974247455597 0.015982886776328087 0.003145599737763405 0.0028666360303759575 0 0 0 0
2936724424 -0.044785067439079285 0.032648079097270966 0.0035245344042778015 0.002404961735010147 0 0 0 0
2940446508 -0.024010637775063515 0.04614453390240669 0.00400947593152523 0.001987241208553314 0 0 0 0
2944168592 -0.0014785751700401306 0.057507045567035675 0.0044843899086117744 0.00143506471067667 0 0 0 0
2947890676 0.02144967019557953 0.06609726697206497 0.004709010012447834 0.0007266765460371971 0 0 0 0
2951612760 0.04641180485486984 0.07149538397789001 0.004856763407588005 0.0001896815374493599 0 0 0 0
2955334844 0.07062971591949463 0.07447698712348938 0.005106829106807709 -0.0005069589242339134 0 0 0 0
2959056928 0.09486514329910278 0.07522960007190704 0.0051574744284152985 -0.0013645719736814499 0 0 0 0
2962779012 0.12048352509737015 0.0717865377664566 0.0050451550632715225 -0.002255542203783989 0 0 0 0
2966501096 0.14683957397937775 0.06304958462715149 0.00473395362496376 -0.003027624450623989 0 0 0 0
2970223180 0.16963838040828705 0.05419204384088516 0.0044255005195736885 -0.003883054479956627 0 0 0 0
2973945264 0.19134262204170227 0.03982968628406525 0.0037748925387859344 -0.004627205431461334 0 0 0 0
2977667348 0.21090181171894073 0.02289925515651703 0.003102828748524189 -0.005361603572964668 0 0 0 0
2981389432 0.226765438914299 0.004482917487621307 0.002034544013440609 -0.005882290191948414 0 0 0 0
2985111516 0.240865096449852 -0.0187622532248497 0.0006760414689779282 -0.0061408597975969315 0 0 0 0
2988833600 0.25066250562667847 -0.04039773717522621 -0.0004248330369591713 -0.006105802021920681 0 0 0 0
2992555684 0.25854986906051636 -0.06339839845895767 -0.001570841297507286 -0.005633513443171978 0 0 0 0
2996277768 0.2604512870311737 -0.08737079054117203 -0.002693716436624527 -0.005090609192848206 0 0 0 0
2999999852 0.2625105679035187 -0.1103481724858284 -0.0035389764234423637 -0.0042672837153077126 0 0 0 0
