# HZ S RI R 50
1500000000 -0.012260083109140396 -0.034725554287433624 0.024518879130482674 -0.024538004770874977 0 0 0 0
1503722084 0.0005717827007174492 -0.027013685554265976 0.020096387714147568 -0.02738693356513977 0 0 0 0
1507444168 0.015895655378699303 -0.020636584609746933 0.01598111353814602 -0.029095757752656937 0 0 0 0
1511166252 0.0327688604593277 -0.015963338315486908 0.012801691889762878 -0.0309891477227211 0 0 0 0
1514888336 0.05131147429347038 -0.01260976493358612 0.008649221621453762 -0.03368164971470833 0 0 0 0
1518610420 0.07087450474500656 -0.012299148365855217 0.00259444210678339 -0.03589926287531853 0 0 0 0
1522332504 0.09120896458625793 -0.013375360518693924 -0.0043355850502848625 -0.03593502566218376 0 0 0 0
1526054588 0.11193292587995529 -0.017349038273096085 -0.011313813738524914 -0.03357894718647003 0 0 0 0
1529776672 0.13390901684761047 -0.02256213314831257 -0.01655549369752407 -0.030012933537364006 0 0 0 0
1533498756 0.15685153007507324 -0.031230490654706955 -0.020664161071181297 -0.025818994268774986 0 0 0 0
1537220840 0.18182501196861267 -0.0431070402264595 -0.02391337789595127 -0.021309977397322655 0 0 0 0
1540942924 0.20619647204875946 -0.05969024449586868 -0.025884564965963364 -0.01599637046456337 0 0 0 0
1544665008 0.22948461771011353 -0.08342600613832474 -0.026723600924015045 -0.011350398883223534 0 0 0 0
1548387092 0.2490735650062561 -0.10968303680419922 -0.026984740048646927 -0.007121074944734573 0 0 0 0
1552109176 0.2641248404979706 -0.14161665737628937 -0.02681839093565941 -0.0027764420956373215 0 0 0 0
1555831260 0.27480512857437134 -0.1759728193283081 -0.025802478194236755 0.0015233233571052551 0 0 0 0
1559553344 0.2824568748474121 -0.21255986392498016 -0.02423853985965252 0.005213823169469833 0 0 0 0
1563275428 0.283286452293396 -0.25131121277809143 -0.022537201642990112 0.008331027813255787 0 0 0 0
1566997512 0.2784183919429779 -0.29068833589553833 -0.020268354564905167 0.011686890386044979 0 0 0 0
1570719596 0.26673829555511475 -0.32915791869163513 -0.0168369859457016 0.014440543949604034 0 0 0 0
1574441680 0.2502816915512085 -0.3678160607814789 -0.013109604828059673 0.015616838820278645 0 0 0 0
1578163764 0.23040905594825745 -0.40437430143356323 -0.009735360741615295 0.015896251425147057 0 0 0 0
1581885848 0.20315906405448914 -0.4408648610115051 -0.007190551608800888 0.01569022610783577 0 0 0 0
1585607932 0.1689331978559494 -0.4730202853679657 -0.004856454208493233 0.015404530800879002 0 0 0 0
1589330016 0.13002605736255646 -0.5026476383209229 -0.0028496086597442627 0.014777127653360367 0 0 0 0
1593052100 0.08029088377952576 -0.5258750915527344 -0.0013990867882966995 0.014000628143548965 0 0 0 0
1596774184 0.030640915036201477 -0.5400550365447998 -0.00028603244572877884 0.013524889945983887 0 0 0 0
1600496268 -0.019846752285957336 -0.546048104763031 0.0007494734600186348 0.01326974667608738 0 0 0 0
1604218352 -0.0741957426071167 -0.5458094477653503 0.0022470373660326004 0.013171764090657234 0 0 0 0
1607940436 -0.12888234853744507 -0.5378779172897339 0.003647700883448124 0.012969993986189365 0 0 0 0
1611662520 -0.1824961006641388 -0.5239107608795166 0.005325670354068279 0.012529815547168255 0 0 0 0
1615384604 -0.23486679792404175 -0.5014211535453796 0.007084415294229984 0.01163879968225956 0 0 0 0
1619106688 -0.28561076521873474 -0.469661146402359 0.008851838298141956 0.010696562007069588 0 0 0 0
1622828772 -0.33465495705604553 -0.42991968989372253 0.010315909050405025 0.009063368663191795 0 0 0 0
1626550856 -0.3774445652961731 -0.37984246015548706 0.011345792561769485 0.0073312921449542046 0 0 0 0
1630272940 -0.41257041692733765 -0.3214520215988159 0.01220481377094984 0.005588537082076073 0 0 0 0
1633995024 -0.44064468145370483 -0.25657686591148376 0.012844442389905453 0.003783588297665119 0 0 0 0
1637717108 -0.45767638087272644 -0.18758584558963776 0.0132979741320014 0.0017437972128391266 0 0 0 0
1641439192 -0.4635642468929291 -0.11734867841005325 0.013445490971207619 -0.0002975156530737877 0 0 0 0
1645161276 -0.45756566524505615 -0.041950374841690063 0.012987857684493065 -0.0026891445741057396 0 0 0 0
1648883360 -0.4408149719238281 0.033114731311798096 0.011882217600941658 -0.0046594412997365 0 0 0 0
1652605444 -0.41150593757629395 0.10503381490707397 0.010693516582250595 -0.006122026592493057 0 0 0 0
1656327528 -0.3685874938964844 0.1731230616569519 0.00972536951303482 -0.007043160498142242 0 0 0 0
1660049612 -0.3142237961292267 0.23298925161361694 0.009068546816706657 -0.008309891447424889 0 0 0 0
1663771696 -0.25139710307121277 0.2825072705745697 0.008211802691221237 -0.009872548282146454 0 0 0 0
1667493780 -0.18072764575481415 0.3228893578052521 0.006280724890530109 -0.01170146930962801 0 0 0 0
1671215864 -0.09964218735694885 0.35413220524787903 0.003983301110565662 -0.012534048408269882 0 0 0 0
1674937948 -0.016594819724559784 0.3696506917476654 0.0016989773139357567 -0.013049724511802197 0 0 0 0
1678660032 0.06947778165340424 0.37130966782569885 -0.0009060781449079514 -0.013122666627168655 0 0 0 0
1682382116 0.15025828778743744 0.35915857553482056 -0.0033759698271751404 -0.012270824983716011 0 0 0 0
1686104200 0.23018988966941833 0.3344617784023285 -0.0054747117683291435 -0.011172031983733177 0 0 0 0
1689826284 0.30426326394081116 0.29755493998527527 -0.007254157215356827 -0.009784775786101818 0 0 0 0
1693548368 0.37238258123397827 0.24929790198802948 -0.008918887004256248 -0.007597304880619049 0 0 0 0
1697270452 0.4305335581302643 0.19023969769477844 -0.009713245555758476 -0.004969391971826553 0 0 0 0
1700992536 0.47932812571525574 0.12537595629692078 -0.009525088593363762 -0.0026169512420892715 0 0 0 0
1704714620 0.5175057649612427 0.04957357048988342 -0.008433477953076363 -0.0008331723511219025 0 0 0 0
1708436704 0.542547881603241 -0.023888960480690002 -0.007317384704947472 0.0002578655257821083 0 0 0 0
1712158788 0.5560088753700256 -0.10325612872838974 -0.006379278376698494 0.0008860407397150993 0 0 0 0
1715880872 0.554692268371582 -0.18466319143772125 -0.005736423656344414 0.001334398053586483 0 0 0 0
1719602956 0.5451651811599731 -0.2581803798675537 -0.005053768865764141 0.0016476400196552277 0 0 0 0
1723325040 0.5236331224441528 -0.3333022892475128 -0.0044727325439453125 0.0018046870827674866 0 0 0 0
1727047124 0.49091240763664246 -0.4030754566192627 -0.0038559744134545326 0.001780310645699501 0 0 0 0
1730769208 0.4477578401565552 -0.465297132730484 -0.003487156704068184 0.0015994152054190636 0 0 0 0
1734491292 0.3947215676307678 -0.5227887034416199 -0.0034402506425976753 0.001540355384349823 0 0 0 0
1738213376 0.33486613631248474 -0.5711228847503662 -0.0030645327642560005 0.0015110289677977562 0 0 0 0
1741935460 0.2730030417442322 -0.6051544547080994 -0.0030199410393834114 0.0011049238964915276 0 0 0 0
1745657544 0.20279788970947266 -0.6314703226089478 -0.003484876826405525 0.0007994528859853745 0 0 0 0
1749379628 0.13244278728961945 -0.6464890241622925 -0.004356455989181995 0.0008861366659402847 0 0 0 0
1753101712 0.061158761382102966 -0.650391161441803 -0.004956253804266453 0.0013952907174825668 0 0 0 0
1756823796 -0.014900492504239082 -0.6424657106399536 -0.005680471658706665 0.0020344816148281097 0 0 0 0
1760545880 -0.0769626796245575 -0.625998854637146 -0.006511217914521694 0.003227461129426956 0 0 0 0
1764267964 -0.14535875618457794 -0.5965628027915955 -0.006791257299482822 0.005024314858019352 0 0 0 0
1767990048 -0.20124411582946777 -0.5600942373275757 -0.006316540762782097 0.007193283177912235 0 0 0 0
1771712132 -0.25302404165267944 -0.514630913734436 -0.004971793852746487 0.009083379991352558 0 0 0 0
1775434216 -0.2937456965446472 -0.4659300148487091 -0.0032310476526618004 0.010273374617099762 0 0 0 0
1779156300 -0.32771795988082886 -0.40895506739616394 -0.001248071901500225 0.010890906676650047 0 0 0 0
1782878384 -0.35231560468673706 -0.35109296441078186 5.0758011639118195e-05 0.011141572147607803 0 0 0 0
1786600468 -0.36829835176467896 -0.2879677414894104 0.001585608348250389 0.011646447703242302 0 0 0 0
1790322552 -0.37598738074302673 -0.22312495112419128 0.0037167035043239594 0.012360481545329094 0 0 0 0
1794044636 -0.37265241146087646 -0.1616838574409485 0.006468660198152065 0.012372124008834362 0 0 0 0
1797766720 -0.3598356544971466 -0.09972413629293442 0.009017075411975384 0.01110297441482544 0 0 0 0
1801488804 -0.338084876537323 -0.04465733468532562 0.01106391940265894 0.009540669620037079 0 0 0 0
1805210888 -0.3098171651363373 0.006460469216108322 0.012602739036083221 0.007721003144979477 0 0 0 0
1808932972 -0.27431586384773254 0.05426381528377533 0.01378149539232254 0.006090421229600906 0 0 0 0
1812655056 -0.23364244401454926 0.09498797357082367 0.015044066123664379 0.00439250934869051 0 0 0 0
1816377140 -0.18609493970870972 0.12947294116020203 0.016229458153247833 0.0028344448655843735 0 0 0 0
1820099224 -0.13401533663272858 0.15530426800251007 0.018083605915308 0.0008487766608595848 0 0 0 0
1823821308 -0.07812978327274323 0.17239975929260254 0.0198226161301136 -0.002557765692472458 0 0 0 0
1827543392 -0.020643077790737152 0.18011292815208435 0.020245445892214775 -0.0068605318665504456 0 0 0 0
1831265476 0.034449636936187744 0.17738591134548187 0.020363885909318924 -0.011204810813069344 0 0 0 0
1834987560 0.08780983090400696 0.16543814539909363 0.019012141972780228 -0.016570495441555977 0 0 0 0
1838709644 0.13754868507385254 0.14623314142227173 0.015556104481220245 -0.021889368072152138 0 0 0 0
1842431728 0.1810276210308075 0.12217436730861664 0.010615287348628044 -0.02549264021217823 0 0 0 0
1846153812 0.22099372744560242 0.08972594887018204 0.0049711475148797035 -0.02778158150613308 0 0 0 0
1849875896 0.25347447395324707 0.05271027982234955 -0.001093379221856594 -0.028789516538381577 0 0 0 0
1853597980 0.2788792848587036 0.011008381843566895 -0.007276657968759537 -0.028238151222467422 0 0 0 0
1857320064 0.295388787984848 -0.03271051496267319 -0.013022822327911854 -0.026120929047465324 0 0 0 0
1861042148 0.3053077459335327 -0.07698452472686768 -0.018182318657636642 -0.022889673709869385 0 0 0 0
1864764232 0.30785632133483887 -0.12029413133859634 -0.021929115056991577 -0.01887035369873047 0 0 0 0
1868486316 0.3022400438785553 -0.16464447975158691 -0.02497086115181446 -0.014447254128754139 0 0 0 0
1872208400 0.2891659736633301 -0.20377522706985474 -0.027337076142430305 -0.009923054836690426 0 0 0 0
1875930484 0.273999959230423 -0.23604199290275574 -0.02798992209136486 -0.0064149294048547745 0 0 0 0
1879652568 0.2503184676170349 -0.2698202133178711 -0.02968994528055191 -0.0008173426613211632 0 0 0 0
1883374652 0.22294697165489197 -0.29507941007614136 -0.02971656806766987 0.005239891819655895 0 0 0 0
1887096736 0.19197353720664978 -0.31608760356903076 -0.027964742854237556 0.011463513597846031 0 0 0 0
1890818820 0.1633545458316803 -0.32760560512542725 -0.02479817159473896 0.016675133258104324 0 0 0 0
1894540904 0.13080660998821259 -0.33646342158317566 -0.02091219276189804 0.02099406160414219 0 0 0 0
1898262988 0.09792570024728775 -0.34007224440574646 -0.01594720222055912 0.024145176634192467 0 0 0 0
1901985072 0.0652184933423996 -0.33768099546432495 -0.011252724565565586 0.02613334357738495 0 0 0 0
1905707156 0.037310145795345306 -0.3299388587474823 -0.007199052721261978 0.02732940949499607 0 0 0 0
1909429240 0.012800738215446472 -0.3173217177391052 -0.002453724853694439 0.027995619922876358 0 0 0 0
1913151324 -0.011000066995620728 -0.30236342549324036 0.0024613309651613235 0.02868371643126011 0 0 0 0
1916873408 -0.03139391541481018 -0.2841278314590454 0.00748298317193985 0.028207845985889435 0 0 0 0
1920595492 -0.04835454374551773 -0.2639095187187195 0.012948947958648205 0.02672898955643177 0 0 0 0
1924317576 -0.06183967739343643 -0.2411116510629654 0.017896775156259537 0.024081343784928322 0 0 0 0
1928039660 -0.07083018124103546 -0.216853529214859 0.022742336615920067 0.020676422864198685 0 0 0 0
1931761744 -0.0783519521355629 -0.19037659466266632 0.027340766042470932 0.015390830114483833 0 0 0 0
1935483828 -0.07799850404262543 -0.16270270943641663 0.030095737427473068 0.008408193476498127 0 0 0 0
1939205912 -0.07365134358406067 -0.1352953314781189 0.030224289745092392 0.001122371293604374 0 0 0 0
1942927996 -0.06222810223698616 -0.1096421629190445 0.028231829404830933 -0.00501779280602932 0 0 0 0
1946650080 -0.0485355481505394 -0.08703496307134628 0.0253131203353405 -0.009560098871588707 0 0 0 0
1950372164 -0.030362654477357864 -0.06748683005571365 0.02248856984078884 -0.01330217532813549 0 0 0 0
1954094248 -0.009238285012543201 -0.05117802321910858 0.019388172775506973 -0.016464468091726303 0 0 0 0
1957816332 0.015533223748207092 -0.03934401646256447 0.01628214865922928 -0.019039778038859367 0 0 0 0
1961538416 0.04134935885667801 -0.032444920390844345 0.012246915139257908 -0.02171817421913147 0 0 0 0
1965260500 0.06854784488677979 -0.030451441183686256 0.00809338316321373 -0.023469625040888786 0 0 0 0
1968982584 0.0946568101644516 -0.035568274557590485 0.003049696795642376 -0.024406518787145615 0 0 0 0
1972704668 0.11826571077108383 -0.04530204087495804 -0.0017678691074252129 -0.023894306272268295 0 0 0 0
1976426752 0.13974227011203766 -0.05631314963102341 -0.005922941491007805 -0.02234494499862194 0 0 0 0
1980148836 0.15887713432312012 -0.07239460945129395 -0.009142187424004078 -0.020568137988448143 0 0 0 0
1983870920 0.17551128566265106 -0.09127198159694672 -0.01254840474575758 -0.018324024975299835 0 0 0 0
1987593004 0.18849119544029236 -0.1138220876455307 -0.015583392232656479 -0.015588656067848206 0 0 0 0
1991315088 0.1967514157295227 -0.1390625685453415 -0.01807958446443081 -0.01217716559767723 0 0 0 0
1995037172 0.19855335354804993 -0.16480782628059387 -0.019016359001398087 -0.008470461703836918 0 0 0 0
1998759256 0.19608233869075775 -0.1893845647573471 -0.019307008013129234 -0.005492773838341236 0 0 0 0
2002481340 0.1888328194618225 -0.21211184561252594 -0.019676322117447853 -0.0024576084688305855 0 0 0 0
2006203424 0.17652146518230438 -0.23502855002880096 -0.01988452859222889 0.00032324809581041336 0 0 0 0
2009925508 0.16363303363323212 -0.2533961236476898 -0.019479718059301376 0.003831794485449791 0 0 0 0
2013647592 0.14535151422023773 -0.2708592414855957 -0.01836635358631611 0.006692367605865002 0 0 0 0
2017369676 0.1261250227689743 -0.2838815748691559 -0.017127320170402527 0.009292520582675934 0 0 0 0
2021091760 0.10364490747451782 -0.29408764839172363 -0.015559160150587559 0.011320419609546661 0 0 0 0
2024813844 0.07726942747831345 -0.30087825655937195 -0.013902039267122746 0.013814849779009819 0 0 0 0
2028535928 0.0544942170381546 -0.3009535074234009 -0.012378467246890068 0.015725957229733467 0 0 0 0
2032258012 0.027609720826148987 -0.2992892265319824 -0.009438224136829376 0.01806994341313839 0 0 0 0
2035980096 0.0022280514240264893 -0.29146283864974976 -0.006814558990299702 0.019777759909629822 0 0 0 0
2039702180 -0.019291535019874573 -0.2798668146133423 -0.0034823743626475334 0.021060630679130554 0 0 0 0
2043424264 -0.04384777694940567 -0.2634810507297516 0.00022525154054164886 0.021509937942028046 0 0 0 0
2047146348 -0.06325886398553848 -0.24414955079555511 0.0044530462473630905 0.02094927430152893 0 0 0 0
2050868432 -0.07865848392248154 -0.22047293186187744 0.00800669752061367 0.01925140991806984 0 0 0 0
2054590516 -0.0902375876903534 -0.19571217894554138 0.009800056926906109 0.017872296273708344 0 0 0 0
2058312600 -0.0978863537311554 -0.16793552041053772 0.012384459376335144 0.016681382432579994 0 0 0 0
2062034684 -0.10081049799919128 -0.1406066119670868 0.015409326180815697 0.014981831423938274 0 0 0 0
2065756768 -0.10120991617441177 -0.11035218089818954 0.018461644649505615 0.012663295492529869 0 0 0 0
2069478852 -0.09606260061264038 -0.07983487844467163 0.02119551971554756 0.008967207744717598 0 0 0 0
2073200936 -0.08432400971651077 -0.049691587686538696 0.022575587034225464 0.005026583559811115 0 0 0 0
2076923020 -0.06764749437570572 -0.021977856755256653 0.023600446060299873 0.0006412873044610023 0 0 0 0
2080645104 -0.047023624181747437 0.0032321158796548843 0.023473108187317848 -0.004282950423657894 0 0 0 0
2084367188 -0.021844521164894104 0.024281401187181473 0.021967528387904167 -0.009425067342817783 0 0 0 0
2088089272 0.007935984060168266 0.04118900001049042 0.018926206976175308 -0.013620782643556595 0 0 0 0
2091811356 0.040033310651779175 0.052437666803598404 0.015196764841675758 -0.01641504094004631 0 0 0 0
2095533440 0.07316144555807114 0.05818404257297516 0.011193781159818172 -0.01822431944310665 0 0 0 0
2099255524 0.10630428045988083 0.058134231716394424 0.007203452289104462 -0.019014734774827957 0 0 0 0
2102977608 0.1399010419845581 0.05318830907344818 0.003997465595602989 -0.018836792558431625 0 0 0 0
2106699692 0.1719936728477478 0.04203421622514725 0.0014510657638311386 -0.018673153594136238 0 0 0 0
2110421776 0.20231367647647858 0.027128351852297783 -0.0009525669738650322 -0.01913381740450859 0 0 0 0
2114143860 0.22896724939346313 0.00605987012386322 -0.0035166367888450623 -0.01936197653412819 0 0 0 0
2117865944 0.2511495351791382 -0.019969426095485687 -0.007109098136425018 -0.019083168357610703 0 0 0 0
2121588028 0.268060564994812 -0.04595658928155899 -0.010730454698204994 -0.017877332866191864 0 0 0 0
2125310112 0.2803354561328888 -0.07701729238033295 -0.013873813673853874 -0.015874333679676056 0 0 0 0
2129032196 0.28845328092575073 -0.1072503924369812 -0.016837216913700104 -0.013198819011449814 0 0 0 0
2132754280 0.29020145535469055 -0.1378193199634552 -0.018995899707078934 -0.009841153398156166 0 0 0 0
2136476364 0.28708335757255554 -0.16795653104782104 -0.02023940160870552 -0.006145685911178589 0 0 0 0
2140198448 0.27991968393325806 -0.1974559724330902 -0.020351257175207138 -0.002011760137975216 0 0 0 0
2143920532 0.2703588306903839 -0.22192426025867462 -0.01934342086315155 0.0013995785266160965 0 0 0 0
2147642616 0.25441738963127136 -0.249209463596344 -0.017713259905576706 0.0038243243470788 0 0 0 0
2151364700 0.23653733730316162 -0.2712898254394531 -0.016568562015891075 0.005758385173976421 0 0 0 0
2155086784 0.21457019448280334 -0.28885555267333984 -0.01528608612716198 0.007728728465735912 0 0 0 0
2158808868 0.1879516839981079 -0.3043459355831146 -0.013794380240142345 0.009424448013305664 0 0 0 0
2162530952 0.16188150644302368 -0.31568413972854614 -0.012356939725577831 0.011134921573102474 0 0 0 0
2166253036 0.13767904043197632 -0.32004237174987793 -0.010748309083282948 0.0130907678976655 0 0 0 0
2169975120 0.10962347686290741 -0.3232557773590088 -0.008160213008522987 0.015139217488467693 0 0 0 0
2173697204 0.08264289051294327 -0.32124680280685425 -0.005107071250677109 0.016246680170297623 0 0 0 0
2177419288 0.057326823472976685 -0.3168935775756836 -0.0020892955362796783 0.016682280227541924 0 0 0 0
2181141372 0.032486751675605774 -0.30785250663757324 0.0007661283016204834 0.016424626111984253 0 0 0 0
2184863456 0.010059714317321777 -0.29408395290374756 0.0033787833526730537 0.01584281027317047 0 0 0 0
2188585540 -0.010952174663543701 -0.27737534046173096 0.005700977519154549 0.015199355781078339 0 0 0 0
2192307624 -0.03108794242143631 -0.2561800479888916 0.008333171717822552 0.013987947255373001 0 0 0 0
2196029708 -0.04606243968009949 -0.2321908175945282 0.010664170607924461 0.012206794694066048 0 0 0 0
2199751792 -0.05467740446329117 -0.2068958282470703 0.012500455603003502 0.01044439896941185 0 0 0 0
2203473876 -0.05896095559000969 -0.1794719099998474 0.014466437511146069 0.007940344512462616 0 0 0 0
2207195960 -0.06158887967467308 -0.15180426836013794 0.016002560034394264 0.004283605143427849 0 0 0 0
2210918044 -0.05515459179878235 -0.1280595362186432 0.015785034745931625 0.000568196177482605 0 0 0 0
2214640128 -0.04738721624016762 -0.10521463304758072 0.014329768717288971 -0.002832110971212387 0 0 0 0
2218362212 -0.04010955989360809 -0.08296958357095718 0.012283806689083576 -0.004902206361293793 0 0 0 0
2222084296 -0.026879508048295975 -0.06289245188236237 0.010297638364136219 -0.006209684535861015 0 0 0 0
2225806380 -0.01114954799413681 -0.04280645772814751 0.008782115764915943 -0.006958327256143093 0 0 0 0
2229528464 0.007834622636437416 -0.025306766852736473 0.007386012002825737 -0.007641077972948551 0 0 0 0
2233250548 0.03165150433778763 -0.012200035154819489 0.00643844623118639 -0.008488561026751995 0 0 0 0
2236972632 0.056634943932294846 -0.00414186529815197 0.005095668137073517 -0.009418183006346226 0 0 0 0
2240694716 0.08198049664497375 -0.0006149895489215851 0.003102259710431099 -0.010166836902499199 0 0 0 0
2244416800 0.10767847299575806 -7.841549813747406e-05 0.0012181568890810013 -0.010187833569943905 0 0 0 0
2248138884 0.1335386335849762 -0.0054999664425849915 -0.0005973950028419495 -0.009727604687213898 0 0 0 0
2251860968 0.15681292116641998 -0.014555670320987701 -0.0009612925350666046 -0.010680917650461197 0 0 0 0
2255583052 0.1787319928407669 -0.028002742677927017 -0.0026646601036190987 -0.010277021676301956 0 0 0 0
2259305136 0.19578716158866882 -0.04869477078318596 -0.0038210097700357437 -0.009802080690860748 0 0 0 0
2263027220 0.2103121280670166 -0.06733375787734985 -0.0052437493577599525 -0.009193985722959042 0 0 0 0
2266749304 0.22072143852710724 -0.0910101979970932 -0.006854576990008354 -0.008245437406003475 0 0 0 0
2270471388 0.2240087389945984 -0.11590778082609177 -0.007917863316833973 -0.007267010398209095 0 0 0 0
2274193472 0.22460445761680603 -0.13792680203914642 -0.008853581734001637 -0.005634971894323826 0 0 0 0
2277915556 0.22281967103481293 -0.15697914361953735 -0.00901921559125185 -0.004124819301068783 0 0 0 0
2281637640 0.21232733130455017 -0.17998972535133362 -0.009123554453253746 -0.003004351630806923 0 0 0 0
2285359724 0.20411807298660278 -0.19594308733940125 -0.009136582724750042 -0.0018714983016252518 0 0 0 0
2289081808 0.1925128996372223 -0.21248529851436615 -0.009052019566297531 -0.0011863242834806442 0 0 0 0
2292803892 0.17454376816749573 -0.23030096292495728 -0.009130104444921017 -0.0003812592476606369 0 0 0 0
2296525976 0.16261203587055206 -0.23664246499538422 -0.009282608516514301 0.0004036528989672661 0 0 0 0
2300248060 0.13928434252738953 -0.24809955060482025 -0.009393847547471523 0.0013429298996925354 0 0 0 0
2303970144 0.12394917756319046 -0.25509944558143616 -0.009419153444468975 0.002375137060880661 0 0 0 0
2307692228 0.10284094512462616 -0.25385475158691406 -0.009415596723556519 0.0034648990258574486 0 0 0 0
2311414312 0.07836060971021652 -0.25331878662109375 -0.009551008231937885 0.004378197714686394 0 0 0 0
2315136396 0.058864787220954895 -0.24685828387737274 -0.009252360090613365 0.0060534607619047165 0 0 0 0
2318858480 0.03897470235824585 -0.23917505145072937 -0.00856002327054739 0.008024687878787518 0 0 0 0
2322580564 0.020785987377166748 -0.22483527660369873 -0.007110808044672012 0.009561056271195412 0 0 0 0
2326302648 0.004857584834098816 -0.2090921849012375 -0.005197721533477306 0.010432244278490543 0 0 0 0
2330024732 -0.002116195857524872 -0.1914895623922348 -0.0034461133182048798 0.010785500518977642 0 0 0 0
2333746816 -0.013289369642734528 -0.17128190398216248 -0.0019526612013578415 0.01069740578532219 0 0 0 0
2337468900 -0.018751971423625946 -0.15011091530323029 -0.0006279991939663887 0.01045818068087101 0 0 0 0
2341190984 -0.02166355401277542 -0.1279519498348236 0.0010847095400094986 0.010070301592350006 0 0 0 0
2344913068 -0.02097286656498909 -0.10415764153003693 0.0025117695331573486 0.00936899147927761 0 0 0 0
2348635152 -0.015401133336126804 -0.08118422329425812 0.003640103153884411 0.008290847763419151 0 0 0 0
2352357236 -0.005036060698330402 -0.059111371636390686 0.0038522593677043915 0.0070066750049591064 0 0 0 0
2356079320 0.008707104250788689 -0.03781886026263237 0.003912149928510189 0.006115201860666275 0 0 0 0
2359801404 0.02767472341656685 -0.020647313445806503 0.004026716575026512 0.00575955118983984 0 0 0 0
2363523488 0.04890377074480057 -0.006754936650395393 0.004427746869623661 0.0058188531547784805 0 0 0 0
2367245572 0.07211562246084213 0.003479655832052231 0.00531628355383873 0.005528703331947327 0 0 0 0
2370967656 0.09582749009132385 0.009183889254927635 0.006525264121592045 0.0043390486389398575 0 0 0 0
2374689740 0.12073790282011032 0.010463811457157135 0.006824655458331108 0.002784561365842819 0 0 0 0
2378411824 0.14521893858909607 0.008419066667556763 0.006589299067854881 0.0014808150008320808 0 0 0 0
2382133908 0.1687658280134201 0.0023967809975147247 0.006045137532055378 0.0005208840593695641 0 0 0 0
2385855992 0.19018884003162384 -0.006972089409828186 0.005452695302665234 0.00017696619033813477 0 0 0 0
2389578076 0.21102142333984375 -0.018122941255569458 0.005428042262792587 -0.00014931894838809967 0 0 0 0
2393300160 0.23090362548828125 -0.03179079294204712 0.0055650100111961365 -0.0007066112011671066 0 0 0 0
2397022244 0.24915148317813873 -0.05198822170495987 0.005495787598192692 -0.0017259158194065094 0 0 0 0
2400744328 0.262556791305542 -0.07284881919622421 0.0050027333199977875 -0.0028091873973608017 0 0 0 0
2404466412 0.2737692892551422 -0.09750683605670929 0.004164916463196278 -0.003427627496421337 0 0 0 0
2408188496 0.2816377580165863 -0.12290504574775696 0.003508094698190689 -0.0035910243168473244 0 0 0 0
2411910580 0.28558775782585144 -0.14824602007865906 0.0032094353809952736 -0.003994953818619251 0 0 0 0
2415632664 0.2831977903842926 -0.17643675208091736 0.0025298623368144035 -0.004462882876396179 0 0 0 0
2419354748 0.2767704427242279 -0.20479124784469604 0.0015355339273810387 -0.0049040066078305244 0 0 0 0
2423076832 0.26545313000679016 -0.23071029782295227 0.0005857516080141068 -0.004994305782020092 0 0 0 0
2426798916 0.24899140000343323 -0.2545619606971741 -0.00018721166998147964 -0.004906909540295601 0 0 0 0
2430521000 0.2319420725107193 -0.2753817141056061 -0.0009015975520014763 -0.004702933132648468 0 0 0 0
2434243084 0.2086000144481659 -0.29349932074546814 -0.0016733910888433456 -0.004467985592782497 0 0 0 0
2437965168 0.18520420789718628 -0.30622953176498413 -0.002680934965610504 -0.004054036922752857 0 0 0 0
2441687252 0.16094383597373962 -0.31721293926239014 -0.00345413014292717 -0.003288470208644867 0 0 0 0
2445409336 0.13261568546295166 -0.325187623500824 -0.003898296505212784 -0.0020643072202801704 0 0 0 0
2449131420 0.10568354278802872 -0.32611238956451416 -0.0037754736840724945 -0.0009614778682589531 0 0 0 0
2452853504 0.07957929372787476 -0.32582545280456543 -0.0031390152871608734 -9.863357990980148e-05 0 0 0 0
2456575588 0.051346734166145325 -0.3202342092990875 -0.002342861145734787 0.00011135824024677277 0 0 0 0
2460297672 0.02555200457572937 -0.31162866950035095 -0.002091357484459877 -2.697855234146118e-05 0 0 0 0
2464019756 -0.0012223683297634125 -0.29724979400634766 -0.0021187178790569305 3.7857331335544586e-05 0 0 0 0
2467741840 -0.024001652374863625 -0.2821570634841919 -0.0020222868770360947 0.0002902289852499962 0 0 0 0
2471463924 -0.046727560460567474 -0.26105794310569763 -0.0015779081732034683 0.000616057775914669 0 0 0 0
2475186008 -0.06645241379737854 -0.23648740351200104 -0.00086956936866045 0.0006236685439944267 0 0 0 0
2478908092 -0.07929990440607071 -0.20987260341644287 -0.0003340141847729683 0.00019168108701705933 0 0 0 0
2482630176 -0.0905202329158783 -0.17897599935531616 -0.0002740081399679184 -0.0006413916125893593 0 0 0 0
2486352260 -0.09490492939949036 -0.14792606234550476 -0.000740470364689827 -0.0011008279398083687 0 0 0 0
2490074344 -0.09464787691831589 -0.11740288883447647 -0.0010487008839845657 -0.0010957401245832443 0 0 0 0
2493796428 -0.09092435985803604 -0.08493198454380035 -0.001151888631284237 -0.0011173039674758911 0 0 0 0
2497518512 -0.08134248852729797 -0.0534919798374176 -0.001032899133861065 -0.001353415660560131 0 0 0 0
2501240596 -0.06545279920101166 -0.024845879524946213 -0.0010921638458967209 -0.0017201639711856842 0 0 0 0
2504962680 -0.045647043734788895 0.001119336113333702 -0.0013302983716130257 -0.0024244431406259537 0 0 0 0
2508684764 -0.021274417638778687 0.023647012189030647 -0.0024609630927443504 -0.002930734306573868 0 0 0 0
2512406848 0.005748765543103218 0.041088368743658066 -0.003520702011883259 -0.002753079868853092 0 0 0 0
2516128932 0.03434693440794945 0.054473377764225006 -0.004316342994570732 -0.0023835105821490288 0 0 0 0
2519851016 0.06441424041986465 0.0635017454624176 -0.005255580879747868 -0.001549641601741314 0 0 0 0
2523573100 0.09661857783794403 0.06646426022052765 -0.005767957307398319 -0.0005193157121539116 0 0 0 0
2527295184 0.12975424528121948 0.06503424048423767 -0.00597773864865303 0.0005167461931705475 0 0 0 0
2531017268 0.16118118166923523 0.05721423029899597 -0.0057491110637784 0.0014644749462604523 0 0 0 0
2534739352 0.1908382624387741 0.04513457417488098 -0.00558584276586771 0.0021302150562405586 0 0 0 0
2538461436 0.21726223826408386 0.025712061673402786 -0.0053294384852051735 0.0027164332568645477 0 0 0 0
2542183520 0.23900574445724487 0.0069249458611011505 -0.005123821087181568 0.003275400958955288 0 0 0 0
2545905604 0.25649216771125793 -0.02041218802332878 -0.0050729066133499146 0.004010035656392574 0 0 0 0
2549627688 0.2696351110935211 -0.04670751094818115 -0.004871495999395847 0.005065858364105225 0 0 0 0
2553349772 0.2784344553947449 -0.07135795801877975 -0.004362907260656357 0.00611640140414238 0 0 0 0
2557071856 0.28179416060447693 -0.09847041219472885 -0.003368483856320381 0.007065986283123493 0 0 0 0
2560793940 0.28237348794937134 -0.12647855281829834 -0.002102896571159363 0.007643847726285458 0 0 0 0
2564516024 0.2779499888420105 -0.15138013660907745 -0.000990176573395729 0.008072992786765099 0 0 0 0
2568238108 0.26867130398750305 -0.17603404819965363 0.0004172641783952713 0.008322679437696934 0 0 0 0
2571960192 0.2580019533634186 -0.1969616562128067 0.0019341427832841873 0.008528387174010277 0 0 0 0
2575682276 0.2438788115978241 -0.2167643904685974 0.0034935036674141884 0.00824026856571436 0 0 0 0
2579404360 0.22807440161705017 -0.23351377248764038 0.005277873016893864 0.007648833096027374 0 0 0 0
2583126444 0.20916865766048431 -0.247187539935112 0.0068700313568115234 0.006419849582016468 0 0 0 0
2586848528 0.1882045418024063 -0.25855886936187744 0.008039011619985104 0.004880271852016449 0 0 0 0
2590570612 0.16734515130519867 -0.264890193939209 0.008535206317901611 0.003413250669836998 0 0 0 0
2594292696 0.1482788622379303 -0.267667680978775 0.008999546058475971 0.002026410773396492 0 0 0 0
2598014780 0.12525981664657593 -0.2696985602378845 0.009538184851408005 0.00045644957572221756 0 0 0 0
2601736864 0.10577604174613953 -0.26738235354423523 0.009869868867099285 -0.0011440878733992577 0 0 0 0
2605458948 0.08694690465927124 -0.2601695656776428 0.009798676706850529 -0.0030751200392842293 0 0 0 0
2609181032 0.0678882747888565 -0.2527106702327728 0.00935337319970131 -0.004978197626769543 0 0 0 0
2612903116 0.052049241960048676 -0.24221214652061462 0.008373965509235859 -0.006753828376531601 0 0 0 0
2616625200 0.04053463041782379 -0.22899718582630157 0.00710559356957674 -0.008234666660428047 0 0 0 0
2620347284 0.03120880201458931 -0.21458803117275238 0.005608290433883667 -0.00935451127588749 0 0 0 0
2624069368 0.021147310733795166 -0.1981596201658249 0.004143123514950275 -0.010195603594183922 0 0 0 0
2627791452 0.016294293105602264 -0.18041355907917023 0.002785853110253811 -0.010840093716979027 0 0 0 0
2631513536 0.014447242021560669 -0.16213786602020264 0.0013071876019239426 -0.011451919563114643 0 0 0 0
2635235620 0.01582084596157074 -0.14496487379074097 -0.0003680456429719925 -0.01198598276823759 0 0 0 0
2638957704 0.021843422204256058 -0.13120444118976593 -0.002027330920100212 -0.012693889439105988 0 0 0 0
2642679788 0.030423134565353394 -0.11699788272380829 -0.004408625885844231 -0.013170560821890831 0 0 0 0
2646401872 0.0404701791703701 -0.10607732832431793 -0.007196730934083462 -0.012887491844594479 0 0 0 0
2650123956 0.04959265887737274 -0.09757474064826965 -0.01012914814054966 -0.011592253111302853 0 0 0 0
2653846040 0.06177055463194847 -0.09161988645792007 -0.012606940232217312 -0.009754735976457596 0 0 0 0
2657568124 0.0740961804986 -0.08691218495368958 -0.014692211523652077 -0.006891917437314987 0 0 0 0
2661290208 0.0890190601348877 -0.08625144511461258 -0.01574520207941532 -0.0035075368359684944 0 0 0 0
2665012292 0.10183722525835037 -0.08912508934736252 -0.015694444999098778 -0.00025922898203134537 0 0 0 0
2668734376 0.11381527036428452 -0.09456007182598114 -0.014858363196253777 0.0022740336135029793 0 0 0 0
2672456460 0.12473218142986298 -0.10091206431388855 -0.014142417348921299 0.00410877913236618 0 0 0 0
2676178544 0.13187019526958466 -0.11182169616222382 -0.013427965342998505 0.006525756791234016 0 0 0 0
2679900628 0.1373230665922165 -0.1225060224533081 -0.012262195348739624 0.00901986937969923 0 0 0 0
2683622712 0.1394241452217102 -0.13422387838363647 -0.010120796039700508 0.011309071443974972 0 0 0 0
2687344796 0.1382664293050766 -0.146877259016037 -0.007260419428348541 0.01284143514931202 0 0 0 0
2691066880 0.13664567470550537 -0.15820717811584473 -0.004706849344074726 0.013408306986093521 0 0 0 0
2694788964 0.1315542459487915 -0.16838164627552032 -0.0019425218924880028 0.013635109178721905 0 0 0 0
2698511048 0.12408766895532608 -0.17783628404140472 0.0003538597375154495 0.013312900438904762 0 0 0 0
2702233132 0.11654672026634216 -0.18517333269119263 0.0025026239454746246 0.012655145488679409 0 0 0 0
2705955216 0.10631007701158524 -0.19218623638153076 0.0045271869748830795 0.011855741031467915 0 0 0 0
2709677300 0.09277456998825073 -0.19842395186424255 0.006597794592380524 0.011094448156654835 0 0 0 0
2713399384 0.08422572165727615 -0.20084188878536224 0.008826694451272488 0.009789425879716873 0 0 0 0
2717121468 0.0689501091837883 -0.20224709808826447 0.010572774335741997 0.007353291846811771 0 0 0 0
2720843552 0.0526014044880867 -0.2005327194929123 0.011370554566383362 0.004800871014595032 0 0 0 0
2724565636 0.03771531954407692 -0.19506825506687164 0.011850409209728241 0.0026430943980813026 0 0 0 0
2728287720 0.024372849613428116 -0.18581216037273407 0.011960254982113838 0.000718376599252224 0 0 0 0
2732009804 0.012883617542684078 -0.1743236482143402 0.012157679535448551 -0.001320752315223217 0 0 0 0
2735731888 0.0019747018814086914 -0.16020481288433075 0.011985596269369125 -0.0038249921053647995 0 0 0 0
2739453972 -0.0032771043479442596 -0.14692160487174988 0.01119471900165081 -0.0063385628163814545 0 0 0 0
2743176056 -0.009569082409143448 -0.13126561045646667 0.009644117206335068 -0.00864106509834528 0 0 0 0
2746898140 -0.013728301972150803 -0.11393281817436218 0.007257616147398949 -0.010535085573792458 0 0 0 0
2750620224 -0.013803156092762947 -0.09547562897205353 0.005028652958571911 -0.011622756719589233 0 0 0 0
2754342308 -0.011125711724162102 -0.07624366134405136 0.0023769279941916466 -0.012335159815847874 0 0 0 0
2758064392 -0.0035508181899785995 -0.05730719491839409 -2.865120768547058e-05 -0.012161466293036938 0 0 0 0
2761786476 0.006824290379881859 -0.04025308042764664 -0.0025731008499860764 -0.011447202414274216 0 0 0 0
2765508560 0.020261619240045547 -0.025360381230711937 -0.004413558170199394 -0.010303721763193607 0 0 0 0
2769230644 0.0360148660838604 -0.012579580768942833 -0.005723399110138416 -0.009184399619698524 0 0 0 0
2772952728 0.05300164967775345 -0.0024772416800260544 -0.0070300716906785965 -0.0077104028314352036 0 0 0 0
2776674812 0.07225342839956284 0.005278632044792175 -0.007807547226548195 -0.006284831091761589 0 0 0 0
2780396896 0.09231851994991302 0.00885874405503273 -0.008611173368990421 -0.005029172636568546 0 0 0 0
2784118980 0.11283359676599503 0.011365458369255066 -0.009341821074485779 -0.003567035309970379 0 0 0 0
2787841064 0.13491545617580414 0.00913216546177864 -0.00998202245682478 -0.0015463102608919144 0 0 0 0
2791563148 0.15594147145748138 0.005721127614378929 -0.009883918799459934 0.0005997354164719582 0 0 0 0
2795285232 0.1775435358285904 -0.003943897783756256 -0.008924412541091442 0.002603309229016304 0 0 0 0
2799007316 0.19715817272663116 -0.016184095293283463 -0.007812199182808399 0.00391519907861948 0 0 0 0
2802729400 0.21485599875450134 -0.03159906715154648 -0.006833311170339584 0.0049729617312550545 0 0 0 0
2806451484 0.22835931181907654 -0.05085349828004837 -0.005628029815852642 0.005981903523206711 0 0 0 0
2810173568 0.24062909185886383 -0.06932880729436874 -0.004087433218955994 0.006624053232371807 0 0 0 0
2813895652 0.2494589388370514 -0.09091654419898987 -0.002526853233575821 0.006958014331758022 0 0 0 0
2817617736 0.256073534488678 -0.1138119027018547 -0.0011063814163208008 0.006804263219237328 0 0 0 0
2821339820 0.25716185569763184 -0.14029109477996826 0.00013365969061851501 0.006592600606381893 0 0 0 0
2825061904 0.25377532839775085 -0.16326329112052917 0.0011247899383306503 0.006143667735159397 0 0 0 0
2828783988 0.24911099672317505 -0.18569201231002808 0.0021533044055104256 0.005693034268915653 0 0 0 0
2832506072 0.24328415095806122 -0.20586253702640533 0.002970443107187748 0.004969264380633831 0 0 0 0
2836228156 0.2288379669189453 -0.2279013842344284 0.0035317251458764076 0.004215827211737633 0 0 0 0
2839950240 0.21470800042152405 -0.24857622385025024 0.0039421021938323975 0.0037288302555680275 0 0 0 0
2843672324 0.2016541212797165 -0.2611575126647949 0.004486601799726486 0.003312673419713974 0 0 0 0
2847394408 0.18280823528766632 -0.2776927351951599 0.005199159495532513 0.00266451109200716 0 0 0 0
2851116492 0.15913556516170502 -0.289655864238739 0.00581916980445385 0.001664179377257824 0 0 0 0
2854838576 0.13829472661018372 -0.2988818883895874 0.006367155350744724 0.0004560081288218498 0 0 0 0
2858560660 0.12084001302719116 -0.3051818311214447 0.0066612763330340385 -0.0011491486802697182 0 0 0 0
2862282744 0.09565045684576035 -0.3097228407859802 0.006385015323758125 -0.0026346929371356964 0 0 0 0
2866004828 0.07656755298376083 -0.30971571803092957 0.005777713842689991 -0.00371722225099802 0 0 0 0
2869726912 0.05603519082069397 -0.30761009454727173 0.0049737077206373215 -0.004782150499522686 0 0 0 0
2873448996 0.033426880836486816 -0.3032335340976715 0.004088777117431164 -0.005623134784400463 0 0 0 0
2877171080 0.011181585490703583 -0.29790234565734863 0.0027948999777436256 -0.006375109776854515 0 0 0 0
2880893164 -0.009953036904335022 -0.2893955111503601 0.001329934224486351 -0.0065379152074456215 0 0 0 0
2884615248 -0.028608612716197968 -0.27755144238471985 0.00026211049407720566 -0.006245968863368034 0 0 0 0
2888337332 -0.047446250915527344 -0.26304319500923157 -0.0007425881922245026 -0.005930928513407707 0 0 0 0
2892059416 -0.06567372381687164 -0.2464473396539688 -0.0015454655513167381 -0.005646198987960815 0 0 0 0
2895781500 -0.07847224175930023 -0.22780200839042664 -0.002531883306801319 -0.005105660296976566 0 0 0 0
2899503584 -0.09070184826850891 -0.20604197680950165 -0.003289581276476383 -0.0042443061247467995 0 0 0 0
2903225668 -0.10220745205879211 -0.18298032879829407 -0.0037948209792375565 -0.0032306555658578873 0 0 0 0
2906947752 -0.10773670673370361 -0.16058316826820374 -0.004025246016681194 -0.002355653792619705 0 0 0 0
2910669836 -0.11293664574623108 -0.1341855525970459 -0.003946247510612011 -0.0012193983420729637 0 0 0 0
2914391920 -0.11075098812580109 -0.11101176589727402 -0.003639514558017254 -0.0005358066409826279 0 0 0 0
2918114004 -0.10794524848461151 -0.08699438720941544 -0.0033385464921593666 0.00011736713349819183 0 0 0 0
2921836088 -0.10084716975688934 -0.06388945877552032 -0.0030230460688471794 0.0006597833707928658 0 0 0 0
2925558172 -0.09207949787378311 -0.041118428111076355 -0.0026176152750849724 0.0010758507996797562 0 0 0 0
2929280256 -0.07966423034667969 -0.021228456869721413 -0.002161824144423008 0.0013037025928497314 0 0 0 0
2933002340 -0.06614308059215546 -0.0033888891339302063 -0.0018328884616494179 0.0015734527260065079 0 0 0 0
2936724424 -0.049952004104852676 0.014512216672301292 -0.001475282944738865 0.001986531540751457 0 0 0 0
2940446508 -0.03224454075098038 0.029024899005889893 -0.000982828438282013 0.0022313250228762627 0 0 0 0
2944168592 -0.012874754145741463 0.04105531424283981 -0.00036314595490694046 0.002724144607782364 0 0 0 0
2947890676 0.007127751596271992 0.05121856927871704 0.0004495149478316307 0.002908722497522831 0 0 0 0
2951612760 0.029035501182079315 0.05892791599035263 0.0013474225997924805 0.0026947222650051117 0 0 0 0
2955334844 0.04954332858324051 0.064332515001297 0.0021795984357595444 0.001874060370028019 0 0 0 0
2959056928 0.07264554500579834 0.06792138516902924 0.0022848332300782204 0.0012345118448138237 0 0 0 0
2962779012 0.09621533751487732 0.06890156865119934 0.0022755851969122887 0.0008297599852085114 0 0 0 0
2966501096 0.1197706088423729 0.06729055941104889 0.0024752067402005196 0.0006510168313980103 0 0 0 0
2970223180 0.14504790306091309 0.06160859763622284 0.0025948937982320786 0.00034618470817804337 0 0 0 0
2973945264 0.16969627141952515 0.05304868146777153 0.0029345089569687843 -2.0275823771953583e-05 0 0 0 0
2977667348 0.19319112598896027 0.04068629816174507 0.003271043300628662 -0.0003801295533776283 0 0 0 0
2981389432 0.2151717096567154 0.023861035704612732 0.003330879844725132 -0.0012384364381432533 0 0 0 0
2985111516 0.2319132387638092 0.0053492337465286255 0.0031386595219373703 -0.0019917739555239677 0 0 0 0
2988833600 0.24644175171852112 -0.016222931444644928 0.0025877607986330986 -0.0025040283799171448 0 0 0 0
2992555684 0.25910189747810364 -0.03685014694929123 0.0020939726382493973 -0.00301528163254261 0 0 0 0
2996277768 0.2665318250656128 -0.06268562376499176 0.0015640771016478539 -0.0033832136541604996 0 0 0 0
2999999852 0.27208614349365234 -0.08928193897008896 0.0008666692301630974 -0.003566266968846321 0 0 0 0
