# HZ S RI R 50
1500000000 -0.017849989235401154 -0.04306435212492943 0.03213096410036087 -0.021724602207541466 0 0 0 0
1503722084 -0.006378184072673321 -0.03507993370294571 0.02785504050552845 -0.02676168829202652 0 0 0 0
1507444168 0.007125728763639927 -0.028242962434887886 0.023254601284861565 -0.0302724651992321 0 0 0 0
1511166252 0.02157737873494625 -0.02199234440922737 0.01871967874467373 -0.0335598848760128 0 0 0 0
1514888336 0.038636501878499985 -0.015968194231390953 0.013769515790045261 -0.037117816507816315 0 0 0 0
1518610420 0.0577467679977417 -0.013255404308438301 0.006483929231762886 -0.03997381404042244 0 0 0 0
1522332504 0.07773271948099136 -0.011685341596603394 -0.001344788819551468 -0.04061669856309891 0 0 0 0
1526054588 0.09959585964679718 -0.012722983956336975 -0.00913503859192133 -0.038960643112659454 0 0 0 0
1529776672 0.123622827231884 -0.015682362020015717 -0.015742076560854912 -0.03529735282063484 0 0 0 0
1533498756 0.14841388165950775 -0.022922184318304062 -0.020953785628080368 -0.03115205653011799 0 0 0 0
1537220840 0.1748201698064804 -0.034140415489673615 -0.025248359888792038 -0.026298191398382187 0 0 0 0
1540942924 0.20192673802375793 -0.05039985850453377 -0.028153620660305023 -0.020834820345044136 0 0 0 0
1544665008 0.2280292809009552 -0.07197116315364838 -0.030290842056274414 -0.01510588638484478 0 0 0 0
1548387092 0.24883967638015747 -0.10182994604110718 -0.031356941908597946 -0.009747061878442764 0 0 0 0
1552109176 0.26732373237609863 -0.13109655678272247 -0.03133546561002731 -0.0041056470945477486 0 0 0 0
1555831260 0.27955594658851624 -0.1661272794008255 -0.030131518840789795 0.0013876771554350853 0 0 0 0
1559553344 0.28824442625045776 -0.2047690749168396 -0.028217310085892677 0.006021150387823582 0 0 0 0
1563275428 0.2888962924480438 -0.2456926554441452 -0.02584395557641983 0.009937029331922531 0 0 0 0
1566997512 0.28456732630729675 -0.2878342568874359 -0.0227847658097744 0.01346768718212843 0 0 0 0
1570719596 0.2745257019996643 -0.3260716199874878 -0.019472463056445122 0.01594899222254753 0 0 0 0
1574441680 0.25898972153663635 -0.3651043176651001 -0.015716122463345528 0.017727471888065338 0 0 0 0
1578163764 0.23749564588069916 -0.4034241735935211 -0.01203983649611473 0.01870419830083847 0 0 0 0
1581885848 0.21071910858154297 -0.44067132472991943 -0.008970467373728752 0.01879306510090828 0 0 0 0
1585607932 0.17539025843143463 -0.4746778607368469 -0.006103767082095146 0.018732953816652298 0 0 0 0
1589330016 0.13207107782363892 -0.503896176815033 -0.0036286376416683197 0.018283937126398087 0 0 0 0
1593052100 0.08632433414459229 -0.5268585681915283 -0.0017793001607060432 0.01747056283056736 0 0 0 0
1596774184 0.034757524728775024 -0.5422807335853577 -0.00027735158801078796 0.01696069911122322 0 0 0 0
1600496268 -0.01894119381904602 -0.5492478609085083 0.0011375220492482185 0.016761604696512222 0 0 0 0
1604218352 -0.06981204450130463 -0.548948347568512 0.002900746650993824 0.01656392589211464 0 0 0 0
1607940436 -0.12508583068847656 -0.5413517951965332 0.005063101649284363 0.016060413792729378 0 0 0 0
1611662520 -0.18114876747131348 -0.5269155502319336 0.007134727202355862 0.015089201740920544 0 0 0 0
1615384604 -0.23578833043575287 -0.5033882260322571 0.009101794101297855 0.013701709918677807 0 0 0 0
1619106688 -0.28821659088134766 -0.47119927406311035 0.011058815754950047 0.012223230674862862 0 0 0 0
1622828772 -0.33405399322509766 -0.4319570064544678 0.012712549418210983 0.01030003372579813 0 0 0 0
1626550856 -0.37809422612190247 -0.3816174268722534 0.014057410880923271 0.00802432931959629 0 0 0 0
1630272940 -0.4140324890613556 -0.3220148980617523 0.015060643665492535 0.00541168637573719 0 0 0 0
1633995024 -0.4416557848453522 -0.25923532247543335 0.01541979517787695 0.0026287194341421127 0 0 0 0
1637717108 -0.4588121473789215 -0.19079644978046417 0.015387377701699734 5.201715975999832e-05 0 0 0 0
1641439192 -0.4649774432182312 -0.12209241092205048 0.015081584453582764 -0.0025342032313346863 0 0 0 0
1645161276 -0.4609087109565735 -0.04533775895833969 0.014133172109723091 -0.00538916140794754 0 0 0 0
1648883360 -0.4439876973628998 0.030808061361312866 0.01235335785895586 -0.007625173777341843 0 0 0 0
1652605444 -0.41506385803222656 0.10442119091749191 0.01049660425633192 -0.009131582453846931 0 0 0 0
1656327528 -0.3730950355529785 0.1709812581539154 0.008793899789452553 -0.010276039130985737 0 0 0 0
1660049612 -0.3173673748970032 0.23386061191558838 0.007018439471721649 -0.011019532568752766 0 0 0 0
1663771696 -0.25546884536743164 0.28398534655570984 0.005286461673676968 -0.011902260594069958 0 0 0 0
1667493780 -0.18306399881839752 0.3261427879333496 0.0033046798780560493 -0.012351238168776035 0 0 0 0
1671215864 -0.10646151006221771 0.3549887239933014 0.0013210587203502655 -0.012308111414313316 0 0 0 0
1674937948 -0.023971721529960632 0.37210923433303833 -0.0005055433139204979 -0.012307923287153244 0 0 0 0
1678660032 0.06436894088983536 0.37451422214508057 -0.002821294590830803 -0.011867859400808811 0 0 0 0
1682382116 0.14746172726154327 0.3638384938240051 -0.005001767538487911 -0.010711092501878738 0 0 0 0
1686104200 0.22906042635440826 0.3394675850868225 -0.00656761322170496 -0.009015684947371483 0 0 0 0
1689826284 0.30434519052505493 0.3025614321231842 -0.0074726855382323265 -0.0071833208203315735 0 0 0 0
1693548368 0.37334176898002625 0.2529144883155823 -0.00804500374943018 -0.005183875560760498 0 0 0 0
1697270452 0.43273743987083435 0.19510330259799957 -0.007714486680924892 -0.003126137889921665 0 0 0 0
1700992536 0.4824647307395935 0.12832489609718323 -0.006877267733216286 -0.0018054284155368805 0 0 0 0
1704714620 0.520780622959137 0.05361580848693848 -0.005799314007163048 -0.0009894315153360367 0 0 0 0
1708436704 0.5462051630020142 -0.022729769349098206 -0.004836863838136196 -0.0010023145005106926 0 0 0 0
1712158788 0.5602790117263794 -0.10250487923622131 -0.004268711432814598 -0.0012086378410458565 0 0 0 0
1715880872 0.5618566870689392 -0.1827339231967926 -0.0041830167174339294 -0.001519160345196724 0 0 0 0
1719602956 0.5486463308334351 -0.2608833909034729 -0.004420633427798748 -0.0016930606216192245 0 0 0 0
1723325040 0.5245558619499207 -0.3366963565349579 -0.004939734004437923 -0.0016649607568979263 0 0 0 0
1727047124 0.49487707018852234 -0.4039117693901062 -0.00542086735367775 -0.0012294268235564232 0 0 0 0
1730769208 0.4494430422782898 -0.468641996383667 -0.005869084969162941 -0.0004313793033361435 0 0 0 0
1734491292 0.39803552627563477 -0.5249146819114685 -0.005944285541772842 0.0004199640825390816 0 0 0 0
1738213376 0.3371104896068573 -0.5706718564033508 -0.0054520657286047935 0.0012003453448414803 0 0 0 0
1741935460 0.2721089720726013 -0.6088082790374756 -0.0052151186391711235 0.001300540752708912 0 0 0 0
1745657544 0.20363584160804749 -0.6331725120544434 -0.005528091453015804 0.00140355434268713 0 0 0 0
1749379628 0.13304167985916138 -0.6488510370254517 -0.0058431969955563545 0.0018815351650118828 0 0 0 0
1753101712 0.05911417305469513 -0.652423083782196 -0.006060738116502762 0.00257829949259758 0 0 0 0
1756823796 -0.010296672582626343 -0.6439738869667053 -0.00657860841602087 0.003362503834068775 0 0 0 0
1760545880 -0.08045345544815063 -0.6265571117401123 -0.00688369944691658 0.004597261548042297 0 0 0 0
1764267964 -0.14503958821296692 -0.5982323288917542 -0.006790226325392723 0.006307901814579964 0 0 0 0
1767990048 -0.2000313103199005 -0.5594379305839539 -0.0059128412976861 0.00822548195719719 0 0 0 0
1771712132 -0.250529944896698 -0.5171849131584167 -0.004354327917098999 0.009312158450484276 0 0 0 0
1775434216 -0.293597936630249 -0.46690046787261963 -0.0031192097812891006 0.009950926527380943 0 0 0 0
1779156300 -0.3267710208892822 -0.41060665249824524 -0.0019607925787568092 0.010616189800202847 0 0 0 0
1782878384 -0.3531009554862976 -0.3522000014781952 -0.0006723189726471901 0.011215634644031525 0 0 0 0
1786600468 -0.36834070086479187 -0.29224616289138794 0.0006182147189974785 0.011995276436209679 0 0 0 0
1790322552 -0.37825125455856323 -0.22660315036773682 0.0024670185521245003 0.01272539235651493 0 0 0 0
1794044636 -0.37602943181991577 -0.16431009769439697 0.005078771151602268 0.013047709129750729 0 0 0 0
1797766720 -0.36326348781585693 -0.10388709604740143 0.007512190379202366 0.012506800703704357 0 0 0 0
1801488804 -0.3421475291252136 -0.04527769237756729 0.009915638715028763 0.01166209764778614 0 0 0 0
1805210888 -0.3145011067390442 0.006382307969033718 0.012186395935714245 0.010383696295320988 0 0 0 0
1808932972 -0.27995407581329346 0.05248168110847473 0.014566143974661827 0.009171901270747185 0 0 0 0
1812655056 -0.2378309667110443 0.09606238454580307 0.01718757301568985 0.006956750527024269 0 0 0 0
1816377140 -0.19046808779239655 0.12992028892040253 0.01928890123963356 0.004013019613921642 0 0 0 0
1820099224 -0.13850054144859314 0.1574186235666275 0.021221600472927094 0.0004194537177681923 0 0 0 0
1823821308 -0.08360500633716583 0.1750076413154602 0.022349582985043526 -0.004031665623188019 0 0 0 0
1827543392 -0.026503071188926697 0.18406395614147186 0.02197578363120556 -0.008952527306973934 0 0 0 0
1831265476 0.030062533915042877 0.18330052495002747 0.020957350730895996 -0.013676968403160572 0 0 0 0
1834987560 0.08533623814582825 0.17201854288578033 0.01827004738152027 -0.01887696608901024 0 0 0 0
1838709644 0.13645878434181213 0.1539505571126938 0.01397594902664423 -0.023612480610609055 0 0 0 0
1842431728 0.18176203966140747 0.12954169511795044 0.00885703880339861 -0.026253189891576767 0 0 0 0
1846153812 0.22267091274261475 0.09607142210006714 0.0032756896689534187 -0.027191076427698135 0 0 0 0
1849875896 0.2567952573299408 0.05821137875318527 -0.002267635427415371 -0.02743365243077278 0 0 0 0
1853597980 0.28304529190063477 0.017278537154197693 -0.007249439135193825 -0.026186389848589897 0 0 0 0
1857320064 0.3018653392791748 -0.026239313185214996 -0.011416874825954437 -0.024494357407093048 0 0 0 0
1861042148 0.3120350241661072 -0.0734616294503212 -0.01538148894906044 -0.022220226004719734 0 0 0 0
1864764232 0.3148019313812256 -0.11761382222175598 -0.018969865515828133 -0.019902428612113 0 0 0 0
1868486316 0.3097110092639923 -0.1630086898803711 -0.02270231582224369 -0.016917511820793152 0 0 0 0
1872208400 0.29680100083351135 -0.20506732165813446 -0.026135772466659546 -0.013065753504633904 0 0 0 0
1875930484 0.2790386974811554 -0.2407110035419464 -0.02836352400481701 -0.008552131243050098 0 0 0 0
1879652568 0.2546846866607666 -0.27420470118522644 -0.029848704114556313 -0.00311471801251173 0 0 0 0
1883374652 0.22684024274349213 -0.30007410049438477 -0.030337298288941383 0.002691744826734066 0 0 0 0
1887096736 0.1951480507850647 -0.32124564051628113 -0.029486997053027153 0.008970994502305984 0 0 0 0
1890818820 0.16281335055828094 -0.33520564436912537 -0.026824502274394035 0.014602558687329292 0 0 0 0
1894540904 0.13199010491371155 -0.3428718149662018 -0.023645836859941483 0.018714062869548798 0 0 0 0
1898262988 0.09888208657503128 -0.3464188575744629 -0.019444286823272705 0.022262727841734886 0 0 0 0
1901985072 0.06608735024929047 -0.3453129529953003 -0.01558433473110199 0.024802491068840027 0 0 0 0
1905707156 0.03605964034795761 -0.33964553475379944 -0.011659448966383934 0.026959046721458435 0 0 0 0
1909429240 0.005275949835777283 -0.32621103525161743 -0.007173893041908741 0.028809480369091034 0 0 0 0
1913151324 -0.018209069967269897 -0.3097466230392456 -0.0024498505517840385 0.030370784923434258 0 0 0 0
1916873408 -0.04115763306617737 -0.28947290778160095 0.0033805640414357185 0.03126388043165207 0 0 0 0
1920595492 -0.06070822477340698 -0.2658122181892395 0.009601243771612644 0.03077888861298561 0 0 0 0
1924317576 -0.07289503514766693 -0.24032604694366455 0.01580730639398098 0.028485694900155067 0 0 0 0
1928039660 -0.08075158298015594 -0.21375074982643127 0.02172756940126419 0.025104112923145294 0 0 0 0
1931761744 -0.08599916100502014 -0.1856473982334137 0.026917047798633575 0.019888540729880333 0 0 0 0
1935483828 -0.08568365126848221 -0.15627551078796387 0.03047977201640606 0.013266794383525848 0 0 0 0
1939205912 -0.08010600507259369 -0.12687262892723083 0.03176947683095932 0.005907389335334301 0 0 0 0
1942927996 -0.06805223226547241 -0.10004189610481262 0.030821261927485466 -0.0006206221878528595 0 0 0 0
1946650080 -0.05177702382206917 -0.07597702741622925 0.0286879800260067 -0.005799948237836361 0 0 0 0
1950372164 -0.031434133648872375 -0.05538702756166458 0.026151886209845543 -0.010509761050343513 0 0 0 0
1954094248 -0.0067512281239032745 -0.039091385900974274 0.02368045225739479 -0.013763532973825932 0 0 0 0
1957816332 0.02056819014251232 -0.02811301499605179 0.020958784967660904 -0.01758352667093277 0 0 0 0
1961538416 0.049886275082826614 -0.02229180373251438 0.017700565978884697 -0.021027537062764168 0 0 0 0
1965260500 0.07892575860023499 -0.023829713463783264 0.012991606257855892 -0.024232564494013786 0 0 0 0
1968982584 0.10600171238183975 -0.031812120229005814 0.008195974864065647 -0.0258893221616745 0 0 0 0
1972704668 0.13047634065151215 -0.04338595271110535 0.002993033267557621 -0.026497894898056984 0 0 0 0
1976426752 0.1514444649219513 -0.05883233994245529 -0.00195925310254097 -0.02606748789548874 0 0 0 0
1980148836 0.1690945029258728 -0.0777743011713028 -0.006468190811574459 -0.025491880252957344 0 0 0 0
1983870920 0.18404796719551086 -0.09816274046897888 -0.011228721588850021 -0.023751400411128998 0 0 0 0
1987593004 0.19394655525684357 -0.12259703874588013 -0.015605850145220757 -0.020622164011001587 0 0 0 0
1991315088 0.1998307853937149 -0.14831474423408508 -0.018941329792141914 -0.016449401155114174 0 0 0 0
1995037172 0.2011660635471344 -0.1747446209192276 -0.0207008458673954 -0.012016018852591515 0 0 0 0
1998759256 0.19687460362911224 -0.19998537003993988 -0.021601557731628418 -0.00807444378733635 0 0 0 0
2002481340 0.1864127516746521 -0.2233804315328598 -0.021801766008138657 -0.004757285118103027 0 0 0 0
2006203424 0.17370720207691193 -0.24443447589874268 -0.021787140518426895 -0.0011581312865018845 0 0 0 0
2009925508 0.1573566049337387 -0.2626192271709442 -0.021167227998375893 0.002143283374607563 0 0 0 0
2013647592 0.13758333027362823 -0.27729532122612 -0.019907718524336815 0.005049671046435833 0 0 0 0
2017369676 0.11508462578058243 -0.28915756940841675 -0.018746044486761093 0.007142940536141396 0 0 0 0
2021091760 0.09078165888786316 -0.2968008816242218 -0.01760321855545044 0.009801218286156654 0 0 0 0
2024813844 0.07118257880210876 -0.2993587553501129 -0.01639324054121971 0.011763455346226692 0 0 0 0
2028535928 0.0426151305437088 -0.299767404794693 -0.015093157067894936 0.014351263642311096 0 0 0 0
2032258012 0.019425779581069946 -0.29501333832740784 -0.013113108463585377 0.017168303951621056 0 0 0 0
2035980096 -0.004658311605453491 -0.2853649854660034 -0.009837181307375431 0.01954522728919983 0 0 0 0
2039702180 -0.026637163013219833 -0.2737257182598114 -0.005781188607215881 0.020736094564199448 0 0 0 0
2043424264 -0.045290231704711914 -0.25688910484313965 -0.002469354309141636 0.020814429968595505 0 0 0 0
2047146348 -0.06191793829202652 -0.23736752569675446 0.0011047525331377983 0.020752321928739548 0 0 0 0
2050868432 -0.07583093643188477 -0.21417021751403809 0.004721211269497871 0.01977510377764702 0 0 0 0
2054590516 -0.0853135734796524 -0.18966485559940338 0.00737022515386343 0.018544364720582962 0 0 0 0
2058312600 -0.08995398879051208 -0.16496428847312927 0.010218051262199879 0.01764949969947338 0 0 0 0
2062034684 -0.09302777051925659 -0.13916215300559998 0.013329192996025085 0.01599390245974064 0 0 0 0
2065756768 -0.09205052256584167 -0.11272021383047104 0.016357870772480965 0.013615128584206104 0 0 0 0
2069478852 -0.08649791032075882 -0.08576295524835587 0.019191883504390717 0.010945230722427368 0 0 0 0
2073200936 -0.07731003314256668 -0.05749451369047165 0.02123624086380005 0.007110541686415672 0 0 0 0
2076923020 -0.06280016899108887 -0.031039215624332428 0.022719990462064743 0.002726922743022442 0 0 0 0
2080645104 -0.04390336945652962 -0.008082471787929535 0.023180756717920303 -0.0017453664913773537 0 0 0 0
2084367188 -0.021312350407242775 0.013188662938773632 0.022258957847952843 -0.006402616389095783 0 0 0 0
2088089272 0.005774219520390034 0.030713271349668503 0.020231403410434723 -0.010600484907627106 0 0 0 0
2091811356 0.035521186888217926 0.042610954493284225 0.017286939546465874 -0.013837024569511414 0 0 0 0
2095533440 0.06695746630430222 0.04983719438314438 0.014307649806141853 -0.01656262017786503 0 0 0 0
2099255524 0.09966332465410233 0.05172733590006828 0.010521774180233479 -0.018467361107468605 0 0 0 0
2102977608 0.13227376341819763 0.048193443566560745 0.00699262972921133 -0.01940358802676201 0 0 0 0
2106699692 0.16429799795150757 0.03862273320555687 0.0037372522056102753 -0.01982354000210762 0 0 0 0
2110421776 0.19385994970798492 0.025026313960552216 0.0010371217504143715 -0.020271452143788338 0 0 0 0
2114143860 0.22214163839817047 0.004690550267696381 -0.002381887286901474 -0.020603768527507782 0 0 0 0
2117865944 0.24398986995220184 -0.020470838993787766 -0.0061446744948625565 -0.020251840353012085 0 0 0 0
2121588028 0.26226863265037537 -0.04657940939068794 -0.009900215081870556 -0.01911984011530876 0 0 0 0
2125310112 0.2755104601383209 -0.07377393543720245 -0.013543488457798958 -0.017382223159074783 0 0 0 0
2129032196 0.28384336829185486 -0.10484784096479416 -0.01717708632349968 -0.014984684064984322 0 0 0 0
2132754280 0.28758659958839417 -0.13315916061401367 -0.0200795941054821 -0.010988254100084305 0 0 0 0
2136476364 0.2862604856491089 -0.16495534777641296 -0.021688245236873627 -0.006448451429605484 0 0 0 0
2140198448 0.278315007686615 -0.19666250050067902 -0.021918298676609993 -0.0013886727392673492 0 0 0 0
2143920532 0.26964572072029114 -0.2217523604631424 -0.020351465791463852 0.0026340214535593987 0 0 0 0
2147642616 0.25286996364593506 -0.24947738647460938 -0.018548419699072838 0.005516663193702698 0 0 0 0
2151364700 0.23365575075149536 -0.2724173069000244 -0.016848014667630196 0.007695247419178486 0 0 0 0
2155086784 0.21329577267169952 -0.2900254726409912 -0.01538032665848732 0.009614131413400173 0 0 0 0
2158808868 0.18981057405471802 -0.3039117455482483 -0.013812015764415264 0.011134102009236813 0 0 0 0
2162530952 0.163889080286026 -0.3141784369945526 -0.012279652059078217 0.01318348664790392 0 0 0 0
2166253036 0.1394398808479309 -0.3190523386001587 -0.010147744789719582 0.015360279008746147 0 0 0 0
2169975120 0.11198340356349945 -0.32325342297554016 -0.007056358270347118 0.017081476747989655 0 0 0 0
2173697204 0.08538054674863815 -0.3237926959991455 -0.003408842720091343 0.017537936568260193 0 0 0 0
2177419288 0.06190653145313263 -0.31840530037879944 -0.0005612596869468689 0.01721465401351452 0 0 0 0
2181141372 0.032088782638311386 -0.3114161491394043 0.001959306187927723 0.016631988808512688 0 0 0 0
2184863456 0.009124751202762127 -0.29821354150772095 0.004484944045543671 0.015832077711820602 0 0 0 0
2188585540 -0.01497969776391983 -0.28088974952697754 0.007035573944449425 0.01491510309278965 0 0 0 0
2192307624 -0.03470069542527199 -0.2597096562385559 0.009539430029690266 0.01323267724364996 0 0 0 0
2196029708 -0.04982195794582367 -0.2362932413816452 0.011408776044845581 0.011267452500760555 0 0 0 0
2199751792 -0.05977807939052582 -0.21133100986480713 0.012986382469534874 0.00935716275125742 0 0 0 0
2203473876 -0.06734900176525116 -0.18275964260101318 0.014677690342068672 0.006910750642418861 0 0 0 0
2207195960 -0.06851042807102203 -0.1557273119688034 0.016115158796310425 0.0037383046001195908 0 0 0 0
2210918044 -0.061551209539175034 -0.1315469741821289 0.01593644730746746 0.00016611162573099136 0 0 0 0
2214640128 -0.05818568915128708 -0.10483839362859726 0.01469099335372448 -0.0030480772256851196 0 0 0 0
2218362212 -0.0489799901843071 -0.08147059381008148 0.012619554996490479 -0.0052193570882081985 0 0 0 0
2222084296 -0.03522098809480667 -0.05971159785985947 0.01071450300514698 -0.006422090344130993 0 0 0 0
2225806380 -0.01892686076462269 -0.03786250948905945 0.009197560139000416 -0.006987011060118675 0 0 0 0
2229528464 0.0015876218676567078 -0.02013499289751053 0.008027472533285618 -0.007811586372554302 0 0 0 0
2233250548 0.025478556752204895 -0.0059926146641373634 0.007050951011478901 -0.008729644119739532 0 0 0 0
2236972632 0.051215775310993195 0.002188064157962799 0.006071639247238636 -0.0097212428227067 0 0 0 0
2240694716 0.0778365507721901 0.007244778797030449 0.004735032096505165 -0.010702460072934628 0 0 0 0
2244416800 0.10544021427631378 0.00787107553333044 0.002898421138525009 -0.011597905308008194 0 0 0 0
2248138884 0.13229423761367798 -0.001491304486989975 0.0006734617054462433 -0.011564299464225769 0 0 0 0
2251860968 0.16508513689041138 -0.010313346982002258 -0.00012496020644903183 -0.007861290127038956 0 0 0 0
2255583052 0.18661147356033325 -0.025777917355298996 -0.000987495295703411 -0.007672770880162716 0 0 0 0
2259305136 0.20366352796554565 -0.04689051955938339 -0.0017196964472532272 -0.007567942142486572 0 0 0 0
2263027220 0.21773409843444824 -0.06815720349550247 -0.0025185607373714447 -0.007406912744045258 0 0 0 0
2266749304 0.22800695896148682 -0.08794102817773819 -0.0035373978316783905 -0.007446768693625927 0 0 0 0
2270471388 0.22800448536872864 -0.12026964128017426 -0.004583017900586128 -0.006826906464993954 0 0 0 0
2274193472 0.22989508509635925 -0.1372252106666565 -0.00556669756770134 -0.006384587846696377 0 0 0 0
2277915556 0.2255951166152954 -0.1584959179162979 -0.0062989965081214905 -0.005739505402743816 0 0 0 0
2281637640 0.21754074096679688 -0.18046709895133972 -0.006820365786552429 -0.0053406693041324615 0 0 0 0
2285359724 0.20815159380435944 -0.19645501673221588 -0.007720985449850559 -0.004492131993174553 0 0 0 0
2289081808 0.19268614053726196 -0.21627362072467804 -0.00845575425773859 -0.003869316540658474 0 0 0 0
2292803892 0.17788797616958618 -0.23109722137451172 -0.00929329451173544 -0.002671699970960617 0 0 0 0
2296525976 0.1627410352230072 -0.2399277687072754 -0.00978318601846695 -0.0015763677656650543 0 0 0 0
2300248060 0.14595377445220947 -0.24871210753917694 -0.010014187544584274 -0.0006657503545284271 0 0 0 0
2303970144 0.12628264725208282 -0.25715261697769165 -0.010476773604750633 0.00017612800002098083 0 0 0 0
2307692228 0.10435793548822403 -0.25557929277420044 -0.01106726098805666 0.0014305636286735535 0 0 0 0
2311414312 0.08220794051885605 -0.2537906765937805 -0.011327022686600685 0.0032507404685020447 0 0 0 0
2315136396 0.06005513668060303 -0.2476673722267151 -0.011062338948249817 0.005278756842017174 0 0 0 0
2318858480 0.041948698461055756 -0.23893705010414124 -0.010470114648342133 0.007053311914205551 0 0 0 0
2322580564 0.01803351193666458 -0.22532962262630463 -0.00936696957796812 0.008918452076613903 0 0 0 0
2326302648 0.006763815879821777 -0.20825651288032532 -0.007612987421452999 0.01034853607416153 0 0 0 0
2330024732 -0.0027521364390850067 -0.19021384418010712 -0.005849124863743782 0.011190812103450298 0 0 0 0
2333746816 -0.01615823060274124 -0.16898870468139648 -0.003961053676903248 0.011580337770283222 0 0 0 0
2337468900 -0.01815057173371315 -0.14730891585350037 -0.002458866685628891 0.011858413927257061 0 0 0 0
2341190984 -0.016476530581712723 -0.1250603199005127 -0.0007762564346194267 0.012005910277366638 0 0 0 0
2344913068 -0.0181224774569273 -0.10122615098953247 0.0012811217457056046 0.011861911043524742 0 0 0 0
2348635152 -0.012145605869591236 -0.07869254052639008 0.0029883375391364098 0.011033246293663979 0 0 0 0
2352357236 -0.0008914973586797714 -0.05771616846323013 0.004575530998408794 0.009808993898332119 0 0 0 0
2356079320 0.012767840176820755 -0.03667508438229561 0.005241214297711849 0.00830167718231678 0 0 0 0
2359801404 0.030891817063093185 -0.019922683015465736 0.0057767778635025024 0.007165728136897087 0 0 0 0
2363523488 0.0516325905919075 -0.006436108611524105 0.006249475292861462 0.006711226888000965 0 0 0 0
2367245572 0.07486613094806671 0.004603930748999119 0.007032707333564758 0.0057319654151797295 0 0 0 0
2370967656 0.09859050810337067 0.008901175111532211 0.007823776453733444 0.004312223754823208 0 0 0 0
2374689740 0.12369028478860855 0.010100720450282097 0.00791015662252903 0.002617351710796356 0 0 0 0
2378411824 0.147800475358963 0.007364645600318909 0.007658679038286209 0.0011891154572367668 0 0 0 0
2382133908 0.1710938960313797 0.0009898636490106583 0.007068348117172718 0.00032645557075738907 0 0 0 0
2385855992 0.1925610452890396 -0.00929492712020874 0.0066341497004032135 -0.0005280692130327225 0 0 0 0
2389578076 0.21289896965026855 -0.021158680319786072 0.006207568570971489 -0.0010701315477490425 0 0 0 0
2393300160 0.23077474534511566 -0.03726961091160774 0.006145031191408634 -0.0015388494357466698 0 0 0 0
2397022244 0.2470400035381317 -0.05490868538618088 0.006024042144417763 -0.0026410631835460663 0 0 0 0
2400744328 0.25975388288497925 -0.07579534500837326 0.005225077271461487 -0.003816140815615654 0 0 0 0
2404466412 0.27096420526504517 -0.09698215126991272 0.004194265231490135 -0.004327115602791309 0 0 0 0
2408188496 0.2781415283679962 -0.12302414327859879 0.0031332680955529213 -0.004464057274162769 0 0 0 0
2411910580 0.2792965769767761 -0.15106572210788727 0.0025378838181495667 -0.004767565988004208 0 0 0 0
2415632664 0.2805106043815613 -0.17195767164230347 0.0018557095900177956 -0.005010602064430714 0 0 0 0
2419354748 0.2748270332813263 -0.19932369887828827 0.0008911117911338806 -0.00543272215873003 0 0 0 0
2423076832 0.2636149525642395 -0.22551453113555908 -0.0001468593254685402 -0.005346785299479961 0 0 0 0
2426798916 0.2508832514286041 -0.25004690885543823 -0.0010423362255096436 -0.005350371822714806 0 0 0 0
2430521000 0.23387651145458221 -0.26950445771217346 -0.001891549676656723 -0.004792386665940285 0 0 0 0
2434243084 0.2109428346157074 -0.28804779052734375 -0.002824658527970314 -0.0043326811864972115 0 0 0 0
2437965168 0.1895063817501068 -0.3006247282028198 -0.0038836589083075523 -0.0036558257415890694 0 0 0 0
2441687252 0.16803646087646484 -0.3113841414451599 -0.00458924937993288 -0.002625906839966774 0 0 0 0
2445409336 0.14032357931137085 -0.32117724418640137 -0.004902878776192665 -0.000924612395465374 0 0 0 0
2449131420 0.11376115679740906 -0.32339954376220703 -0.004132051020860672 0.0004756208509206772 0 0 0 0
2452853504 0.08906048536300659 -0.3244152069091797 -0.003129797987639904 0.0014776727184653282 0 0 0 0
2456575588 0.05907855182886124 -0.32150012254714966 -0.0018723644316196442 0.0017286036163568497 0 0 0 0
2460297672 0.0327858030796051 -0.3144225478172302 -0.0012273341417312622 0.0012444481253623962 0 0 0 0
2464019756 0.010018736124038696 -0.30171820521354675 -0.0011913692578673363 0.0009738681837916374 0 0 0 0
2467741840 -0.018034055829048157 -0.28637635707855225 -0.0009288256987929344 0.0010437732562422752 0 0 0 0
2471463924 -0.037944674491882324 -0.2678952217102051 -0.0007325699552893639 0.0011495118960738182 0 0 0 0
2475186008 -0.05742879584431648 -0.24500983953475952 -5.8881938457489014e-05 0.0011676661670207977 0 0 0 0
2478908092 -0.07482181489467621 -0.2182360142469406 0.00024761445820331573 0.0005680201575160027 0 0 0 0
2482630176 -0.0850374698638916 -0.188715398311615 0.00032814592123031616 -0.00016583502292633057 0 0 0 0
2486352260 -0.09295665472745895 -0.15735755860805511 -0.00011967029422521591 -0.0004913918673992157 0 0 0 0
2490074344 -0.09225015342235565 -0.12574002146720886 -0.0005741715431213379 -0.0006115641444921494 0 0 0 0
2493796428 -0.08896660804748535 -0.09458022564649582 -0.0009444262832403183 -0.0005622357130050659 0 0 0 0
2497518512 -0.08106251806020737 -0.06201029568910599 -0.0011361557990312576 -0.00035956595093011856 0 0 0 0
2501240596 -0.06629795581102371 -0.032691311091184616 -0.0012665549293160439 -0.0003213202580809593 0 0 0 0
2504962680 -0.04807271063327789 -0.0059905387461185455 -0.0015719830989837646 -0.0005365423858165741 0 0 0 0
2508684764 -0.025523029267787933 0.018403934314846992 -0.002079589292407036 -0.0005237050354480743 0 0 0 0
2512406848 0.0007269782945513725 0.038664236664772034 -0.002706374041736126 -0.0003838641569018364 0 0 0 0
2516128932 0.030392877757549286 0.054668717086315155 -0.0031960541382431984 0.00018641259521245956 0 0 0 0
2519851016 0.06221836060285568 0.06540966033935547 -0.003496862016618252 0.0007245698943734169 0 0 0 0
2523573100 0.09451878815889359 0.07063227146863937 -0.0038174577057361603 0.0012716865167021751 0 0 0 0
2527295184 0.1280265897512436 0.07194851338863373 -0.003815009258687496 0.0020180856809020042 0 0 0 0
2531017268 0.16178517043590546 0.0657939612865448 -0.0036970172077417374 0.0025917673483490944 0 0 0 0
2534739352 0.19214662909507751 0.05434291437268257 -0.0033669425174593925 0.003032003529369831 0 0 0 0
2538461436 0.22092267870903015 0.036156266927719116 -0.002984023652970791 0.003186522051692009 0 0 0 0
2542183520 0.24557040631771088 0.016417525708675385 -0.0030822474509477615 0.0031929556280374527 0 0 0 0
2545905604 0.2651493549346924 -0.008975677192211151 -0.0032188668847084045 0.003692139871418476 0 0 0 0
2549627688 0.2796759307384491 -0.03653351217508316 -0.0033856062218546867 0.004256518557667732 0 0 0 0
2553349772 0.29063573479652405 -0.06348560005426407 -0.0033455807715654373 0.005338839255273342 0 0 0 0
2557071856 0.291329026222229 -0.0932900458574295 -0.0024488521739840508 0.006561866961419582 0 0 0 0
2560793940 0.2929275333881378 -0.12170582264661789 -0.001206940971314907 0.0072733135893940926 0 0 0 0
2564516024 0.28651928901672363 -0.15052692592144012 0.00021017156541347504 0.007534057833254337 0 0 0 0
2568238108 0.2779124975204468 -0.1735779196023941 0.001567159779369831 0.007641763426363468 0 0 0 0
2571960192 0.26591822504997253 -0.1950715184211731 0.00309807900339365 0.007435554638504982 0 0 0 0
2575682276 0.2510140836238861 -0.21505184471607208 0.004559798166155815 0.00677497498691082 0 0 0 0
2579404360 0.2330097258090973 -0.2340356707572937 0.00586747657507658 0.005698676221072674 0 0 0 0
2583126444 0.21778254210948944 -0.24662303924560547 0.006909298710525036 0.004543415270745754 0 0 0 0
2586848528 0.19526487588882446 -0.25925004482269287 0.00749864149838686 0.0031330296769738197 0 0 0 0
2590570612 0.17438803613185883 -0.2676179111003876 0.007846347987651825 0.0019673146307468414 0 0 0 0
2594292696 0.15171846747398376 -0.2732800841331482 0.008019289001822472 0.0008854754269123077 0 0 0 0
2598014780 0.12606504559516907 -0.2752859890460968 0.008444530889391899 -0.00023708026856184006 0 0 0 0
2601736864 0.10801656544208527 -0.2728172838687897 0.008802883327007294 -0.0015880083665251732 0 0 0 0
2605458948 0.0839606374502182 -0.2659768760204315 0.008801484480500221 -0.0035128509625792503 0 0 0 0
2609181032 0.06299707293510437 -0.2579798996448517 0.00829751044511795 -0.005486931651830673 0 0 0 0
2612903116 0.04464647173881531 -0.24622803926467896 0.007219611667096615 -0.0071960799396038055 0 0 0 0
2616625200 0.03139670193195343 -0.2312171906232834 0.005825884640216827 -0.008435693569481373 0 0 0 0
2620347284 0.019640522077679634 -0.2156817615032196 0.004227538593113422 -0.009311472065746784 0 0 0 0
2624069368 0.01153427455574274 -0.19750602543354034 0.0027302904054522514 -0.0099196657538414 0 0 0 0
2627791452 0.00995432585477829 -0.1821017563343048 0.00026193633675575256 -0.010895186103880405 0 0 0 0
2631513536 0.004558764398097992 -0.16277727484703064 -0.001369512639939785 -0.011076344177126884 0 0 0 0
2635235620 0.007516637444496155 -0.14454354345798492 -0.0030383625999093056 -0.011007539927959442 0 0 0 0
2638957704 0.01319207064807415 -0.1248825341463089 -0.004417401738464832 -0.010743524879217148 0 0 0 0
2642679788 0.021190093830227852 -0.10892903059720993 -0.006212248466908932 -0.010669519193470478 0 0 0 0
2646401872 0.03259527310729027 -0.09562650322914124 -0.008254789747297764 -0.01014940720051527 0 0 0 0
2650123956 0.047147996723651886 -0.08436743170022964 -0.010316113941371441 -0.009088112972676754 0 0 0 0
2653846040 0.06139505282044411 -0.07767535001039505 -0.012117411941289902 -0.007246159948408604 0 0 0 0
2657568124 0.0789121463894844 -0.07251100987195969 -0.01342309545725584 -0.005026868544518948 0 0 0 0
2661290208 0.0958876758813858 -0.07345548272132874 -0.014296665787696838 -0.0025696689262986183 0 0 0 0
2665012292 0.1120094433426857 -0.07834453880786896 -0.014533745124936104 1.3714656233787537e-05 0 0 0 0
2668734376 0.1257084757089615 -0.08544456958770752 -0.014132061041891575 0.0022927969694137573 0 0 0 0
2672456460 0.13736417889595032 -0.09683890640735626 -0.01351986825466156 0.004455681890249252 0 0 0 0
2676178544 0.14524967968463898 -0.1099274605512619 -0.012983882799744606 0.006785416044294834 0 0 0 0
2679900628 0.151825949549675 -0.12249096482992172 -0.011698237620294094 0.009244429878890514 0 0 0 0
2683622712 0.15266183018684387 -0.13805510103702545 -0.009338133037090302 0.0115274116396904 0 0 0 0
2687344796 0.15172484517097473 -0.15153224766254425 -0.006518554873764515 0.01258458849042654 0 0 0 0
2691066880 0.14502760767936707 -0.16752734780311584 -0.0040342072024941444 0.013007831759750843 0 0 0 0
2694788964 0.13727551698684692 -0.1794564574956894 -0.001817917451262474 0.012927209958434105 0 0 0 0
2698511048 0.12748241424560547 -0.19044306874275208 2.3927539587020874e-05 0.012783190235495567 0 0 0 0
2702233132 0.11594852805137634 -0.19735637307167053 0.0018303459510207176 0.012516592629253864 0 0 0 0
2705955216 0.10252992063760757 -0.2038668841123581 0.003826669417321682 0.012045066803693771 0 0 0 0
2709677300 0.0865822434425354 -0.20821376144886017 0.00593692809343338 0.011412123218178749 0 0 0 0
2713399384 0.07469123601913452 -0.2090267837047577 0.008059905841946602 0.009874505922198296 0 0 0 0
2717121468 0.06195148080587387 -0.2068105936050415 0.00965069979429245 0.0081309974193573 0 0 0 0
2720843552 0.04410335794091225 -0.2032858282327652 0.010775026865303516 0.0061245569959282875 0 0 0 0
2724565636 0.029572121798992157 -0.19667544960975647 0.011846078559756279 0.004289440810680389 0 0 0 0
2728287720 0.018766865134239197 -0.1853199303150177 0.012582814320921898 0.0023995069786906242 0 0 0 0
2732009804 0.005783539265394211 -0.1738889366388321 0.013041524216532707 -0.00018543750047683716 0 0 0 0
2735731888 -0.003481537103652954 -0.15908944606781006 0.013123787939548492 -0.002991725690662861 0 0 0 0
2739453972 -0.0093117980286479 -0.14421378076076508 0.012482572346925735 -0.005710706114768982 0 0 0 0
2743176056 -0.014554646797478199 -0.12669166922569275 0.010923479683697224 -0.008363871835172176 0 0 0 0
2746898140 -0.016999512910842896 -0.10852199047803879 0.008789898827672005 -0.010394904762506485 0 0 0 0
2750620224 -0.015874141827225685 -0.08954394608736038 0.006415290758013725 -0.011659279465675354 0 0 0 0
2754342308 -0.011347467079758644 -0.07015836983919144 0.004087199456989765 -0.012453783303499222 0 0 0 0
2758064392 -0.0029737260192632675 -0.05224497616291046 0.001613851636648178 -0.012778444215655327 0 0 0 0
2761786476 0.008437395095825195 -0.035595886409282684 -0.0007218783721327782 -0.012873399071395397 0 0 0 0
2765508560 0.02239818684756756 -0.020516041666269302 -0.0031768446788191795 -0.012287601828575134 0 0 0 0
2769230644 0.03919960930943489 -0.00880679115653038 -0.0055210767313838005 -0.011342293582856655 0 0 0 0
2772952728 0.05786122754216194 0.0011604055762290955 -0.007473311387002468 -0.009979527443647385 0 0 0 0
2776674812 0.07740468531847 0.006411697715520859 -0.008905644528567791 -0.008180774748325348 0 0 0 0
2780396896 0.09775310009717941 0.009718924760818481 -0.010184147395193577 -0.006419108249247074 0 0 0 0
2784118980 0.11805127561092377 0.010714970529079437 -0.011257451958954334 -0.004444139078259468 0 0 0 0
2787841064 0.13932138681411743 0.007513768970966339 -0.011829778552055359 -0.0016655493527650833 0 0 0 0
2791563148 0.16023215651512146 0.0021233558654785156 -0.011471264995634556 0.001012488268315792 0 0 0 0
2795285232 0.1804085075855255 -0.009311399422585964 -0.010388004593551159 0.0033877110108733177 0 0 0 0
2799007316 0.19863606989383698 -0.019854500889778137 -0.008927912451326847 0.004889879375696182 0 0 0 0
2802729400 0.21558994054794312 -0.03587651997804642 -0.007527278736233711 0.006284315139055252 0 0 0 0
2806451484 0.22864575684070587 -0.05430922284722328 -0.005914703942835331 0.007325742393732071 0 0 0 0
2810173568 0.23839600384235382 -0.07481083273887634 -0.004055015742778778 0.008173946291208267 0 0 0 0
2813895652 0.2452435940504074 -0.09644503891468048 -0.0020218035206198692 0.008374202996492386 0 0 0 0
2817617736 0.24972781538963318 -0.11915560066699982 -0.0001409444957971573 0.008182303979992867 0 0 0 0
2821339820 0.251456618309021 -0.14096321165561676 0.0015284158289432526 0.007599298842251301 0 0 0 0
2825061904 0.24809840321540833 -0.1624552309513092 0.002812742255628109 0.0067447638139128685 0 0 0 0
2828783988 0.2418394684791565 -0.18515342473983765 0.003971464931964874 0.0057523008435964584 0 0 0 0
2832506072 0.23632150888442993 -0.20265068113803864 0.004731523804366589 0.004552149213850498 0 0 0 0
2836228156 0.22625094652175903 -0.2216203510761261 0.005105884745717049 0.0034756697714328766 0 0 0 0
2839950240 0.21235716342926025 -0.24147486686706543 0.00535314716398716 0.0024611223489046097 0 0 0 0
2843672324 0.2001967877149582 -0.2552228271961212 0.005472203716635704 0.0016958853229880333 0 0 0 0
2847394408 0.1867346167564392 -0.27104681730270386 0.005646216683089733 0.0007374463602900505 0 0 0 0
2851116492 0.16588923335075378 -0.2853124141693115 0.005739080719649792 -0.0002843756228685379 0 0 0 0
2854838576 0.14787741005420685 -0.29444971680641174 0.005670115351676941 -0.0012395428493618965 0 0 0 0
2858560660 0.12926846742630005 -0.3037472367286682 0.005478822626173496 -0.0025123897939920425 0 0 0 0
2862282744 0.10095632821321487 -0.31115907430648804 0.004793111234903336 -0.003576187416911125 0 0 0 0
2866004828 0.0805102288722992 -0.3111448585987091 0.0041610682383179665 -0.004079257138073444 0 0 0 0
2869726912 0.05902785062789917 -0.3119874894618988 0.0036146873608231544 -0.004560776986181736 0 0 0 0
2873448996 0.03667330741882324 -0.30874693393707275 0.002891620621085167 -0.005115496926009655 0 0 0 0
2877171080 0.01589089259505272 -0.30217739939689636 0.0019092932343482971 -0.0055081527680158615 0 0 0 0
2880893164 -0.009218499064445496 -0.29460740089416504 0.0008526435121893883 -0.005551068112254143 0 0 0 0
2884615248 -0.033108972012996674 -0.280916303396225 2.9622577130794525e-05 -0.005380488932132721 0 0 0 0
2888337332 -0.04762944206595421 -0.2662282884120941 -0.0005715731531381607 -0.005296527408063412 0 0 0 0
2892059416 -0.06823839247226715 -0.24861744046211243 -0.0012879623100161552 -0.005127637647092342 0 0 0 0
2895781500 -0.08093644678592682 -0.22928446531295776 -0.002130662091076374 -0.00479018222540617 0 0 0 0
2899503584 -0.09136824309825897 -0.208478182554245 -0.002817867323756218 -0.00428782869130373 0 0 0 0
2903225668 -0.1040751039981842 -0.18516162037849426 -0.003447537310421467 -0.0034944918006658554 0 0 0 0
2906947752 -0.10912734270095825 -0.1626552939414978 -0.00374518521130085 -0.0026321131736040115 0 0 0 0
2910669836 -0.11471667885780334 -0.13737674057483673 -0.003788079135119915 -0.0016767550259828568 0 0 0 0
2914391920 -0.11498171836137772 -0.11285816133022308 -0.00369388610124588 -0.0008711665868759155 0 0 0 0
2918114004 -0.11214333772659302 -0.08832016587257385 -0.0033429861068725586 -0.0003363685682415962 0 0 0 0
2921836088 -0.1062440574169159 -0.06466834992170334 -0.0031059999018907547 -5.556270480155945e-06 0 0 0 0
2925558172 -0.09814606606960297 -0.040365494787693024 -0.0030129626393318176 0.0005240840837359428 0 0 0 0
2929280256 -0.08604871481657028 -0.01908539980649948 -0.0028336551040410995 0.0008759070187807083 0 0 0 0
2933002340 -0.07163476198911667 0.0013381410390138626 -0.0027269963175058365 0.0015890207141637802 0 0 0 0
2936724424 -0.05484281852841377 0.020758306607604027 -0.002389020286500454 0.0020436756312847137 0 0 0 0
2940446508 -0.03566351532936096 0.036752793937921524 -0.001992451027035713 0.002632850781083107 0 0 0 0
2944168592 -0.013501442968845367 0.05028051882982254 -0.001117689535021782 0.003266548737883568 0 0 0 0
2947890676 0.009795811027288437 0.06075961887836456 -6.812158972024918e-05 0.003736024722456932 0 0 0 0
2951612760 0.03393314778804779 0.06760422885417938 0.0011817887425422668 0.003703886643052101 0 0 0 0
2955334844 0.057976387441158295 0.07169798016548157 0.0021804673597216606 0.0028175460174679756 0 0 0 0
2959056928 0.08260910212993622 0.07287248224020004 0.002678719349205494 0.0021124863997101784 0 0 0 0
2962779012 0.10697095841169357 0.07156932353973389 0.0028763040900230408 0.0014564525336027145 0 0 0 0
2966501096 0.13126824796199799 0.06553472578525543 0.002741919830441475 0.0010526487603783607 0 0 0 0
2970223180 0.15502165257930756 0.05713915079832077 0.002925417385995388 0.0007314123213291168 0 0 0 0
2973945264 0.1776917725801468 0.04735604301095009 0.003081969916820526 0.0006781267002224922 0 0 0 0
2977667348 0.19892500340938568 0.031660012900829315 0.003821868449449539 0.00014411844313144684 0 0 0 0
2981389432 0.2175115942955017 0.013940982520580292 0.0038724588230252266 -0.0006067771464586258 0 0 0 0
2985111516 0.23326072096824646 -0.005206480622291565 0.004058915190398693 -0.001610233448445797 0 0 0 0
2988833600 0.24492548406124115 -0.02788202092051506 0.003521723672747612 -0.0024720756337046623 0 0 0 0
2992555684 0.2536938786506653 -0.049437832087278366 0.0028784340247511864 -0.003053572028875351 0 0 0 0
2996277768 0.25920358300209045 -0.07015974819660187 0.0021193362772464752 -0.003430260345339775 0 0 0 0
2999999852 0.2613718509674072 -0.0966804176568985 0.0014728894457221031 -0.003553657792508602 0 0 0 0
