# HZ S RI R 50
1500000000 -0.10759472846984863 -0.03557568043470383 0.03359515592455864 -0.029206279665231705 0 0 0 0
1503722084 -0.09181921184062958 -0.00926034152507782 0.026975978165864944 -0.03462883085012436 0 0 0 0
1507444168 -0.07075735181570053 0.014287617057561874 0.019602013751864433 -0.03850386291742325 0 0 0 0
1511166252 -0.0453447625041008 0.03520271182060242 0.012196045368909836 -0.040427885949611664 0 0 0 0
1514888336 -0.015000104904174805 0.052639782428741455 0.003962960094213486 -0.040702857077121735 0 0 0 0
1518610420 0.018471067771315575 0.0658363625407219 -0.003346892073750496 -0.039142291992902756 0 0 0 0
1522332504 0.05695324018597603 0.07315140217542648 -0.009594220668077469 -0.03630344569683075 0 0 0 0
1526054588 0.09673267602920532 0.07457691431045532 -0.014935607090592384 -0.03250718489289284 0 0 0 0
1529776672 0.13833780586719513 0.06990880519151688 -0.018992232158780098 -0.02787685953080654 0 0 0 0
1533498756 0.18068310618400574 0.056472621858119965 -0.021725229918956757 -0.02284022979438305 0 0 0 0
1537220840 0.22196924686431885 0.0351845845580101 -0.023289017379283905 -0.018141835927963257 0 0 0 0
1540942924 0.26038745045661926 0.007438555359840393 -0.023856744170188904 -0.014228200539946556 0 0 0 0
1544665008 0.29407885670661926 -0.027250781655311584 -0.02420593425631523 -0.011023527011275291 0 0 0 0
1548387092 0.32332295179367065 -0.06797999143600464 -0.02473621442914009 -0.00770521629601717 0 0 0 0
1552109176 0.3453403413295746 -0.11343145370483398 -0.02500736340880394 -0.0037819044664502144 0 0 0 0
1555831260 0.36032795906066895 -0.1657601147890091 -0.024221161380410194 0.00026289839297533035 0 0 0 0
1559553344 0.36744818091392517 -0.21808534860610962 -0.02236916497349739 0.0035401182249188423 0 0 0 0
1563275428 0.36604559421539307 -0.2741274833679199 -0.020503312349319458 0.0056685153394937515 0 0 0 0
1566997512 0.3544897437095642 -0.3313181400299072 -0.01889471709728241 0.007687053643167019 0 0 0 0
1570719596 0.3354901075363159 -0.38600754737854004 -0.017074894160032272 0.009572668932378292 0 0 0 0
1574441680 0.3028040826320648 -0.4391799569129944 -0.015132348984479904 0.011159976944327354 0 0 0 0
1578163764 0.2647271156311035 -0.4841381907463074 -0.013234415091574192 0.012157582677900791 0 0 0 0
1581885848 0.21952693164348602 -0.5246380567550659 -0.011375652626156807 0.013089301064610481 0 0 0 0
1585607932 0.169765442609787 -0.5551933646202087 -0.00978165678679943 0.013642307370901108 0 0 0 0
1589330016 0.10893193632364273 -0.5804772973060608 -0.007966209203004837 0.014121269807219505 0 0 0 0
1593052100 0.05248725414276123 -0.5967504978179932 -0.006933251395821571 0.014621526002883911 0 0 0 0
1596774184 -0.013917803764343262 -0.6045939326286316 -0.0057749273255467415 0.01558348722755909 0 0 0 0
1600496268 -0.07744093239307404 -0.6018936038017273 -0.00405373889952898 0.01688246615231037 0 0 0 0
1604218352 -0.13849376142024994 -0.5900257229804993 -0.0016641048714518547 0.017811503261327744 0 0 0 0
1607940436 -0.20015673339366913 -0.5684419870376587 0.0011682165786623955 0.018243081867694855 0 0 0 0
1611662520 -0.2570320665836334 -0.5386096239089966 0.003755846992135048 0.01822209730744362 0 0 0 0
1615384604 -0.316152423620224 -0.49630188941955566 0.006589649245142937 0.01766056939959526 0 0 0 0
1619106688 -0.3614785969257355 -0.4509657919406891 0.00937145110219717 0.016929810866713524 0 0 0 0
1622828772 -0.40236079692840576 -0.3952169418334961 0.012251319363713264 0.015748001635074615 0 0 0 0
1626550856 -0.4363163709640503 -0.33322814106941223 0.015215969644486904 0.01371917687356472 0 0 0 0
1630272940 -0.45911675691604614 -0.2689329981803894 0.01785901002585888 0.011006406508386135 0 0 0 0
1633995024 -0.47659552097320557 -0.19514745473861694 0.01976296305656433 0.007722086273133755 0 0 0 0
1637717108 -0.4796016216278076 -0.12584611773490906 0.021309982985258102 0.004288172349333763 0 0 0 0
1641439192 -0.47433456778526306 -0.04971742630004883 0.02218235656619072 0.0001225881278514862 0 0 0 0
1645161276 -0.45664432644844055 0.025887381285429 0.022277016192674637 -0.004444855265319347 0 0 0 0
1648883360 -0.42525148391723633 0.09891848266124725 0.021208040416240692 -0.008910857141017914 0 0 0 0
1652605444 -0.38419920206069946 0.163950115442276 0.019067613407969475 -0.01321842335164547 0 0 0 0
1656327528 -0.3309189975261688 0.22390347719192505 0.015914350748062134 -0.0171127300709486 0 0 0 0
1660049612 -0.2693879008293152 0.27545326948165894 0.011783977970480919 -0.01995338499546051 0 0 0 0
1663771696 -0.20002785325050354 0.3155939280986786 0.0070257848128676414 -0.02170417830348015 0 0 0 0
1667493780 -0.12542709708213806 0.34603944420814514 0.0021531684324145317 -0.022229071706533432 0 0 0 0
1671215864 -0.04692719876766205 0.36487582325935364 -0.002723441459238529 -0.02161863073706627 0 0 0 0
1674937948 0.03537936508655548 0.3717644214630127 -0.007271798327565193 -0.019650738686323166 0 0 0 0
1678660032 0.11645737290382385 0.3657914102077484 -0.01062579546123743 -0.01669985055923462 0 0 0 0
1682382116 0.19786545634269714 0.34625372290611267 -0.013148430734872818 -0.013374595902860165 0 0 0 0
1686104200 0.27492815256118774 0.31396329402923584 -0.01465864758938551 -0.009794294834136963 0 0 0 0
1689826284 0.3451845645904541 0.2712983787059784 -0.01520729809999466 -0.006447969935834408 0 0 0 0
1693548368 0.40792936086654663 0.21776917576789856 -0.01519871223717928 -0.003236236982047558 0 0 0 0
1697270452 0.46202975511550903 0.1522727608680725 -0.014446105808019638 -0.0003629736602306366 0 0 0 0
1700992536 0.5038846731185913 0.08563724160194397 -0.013525900430977345 0.0020490996539592743 0 0 0 0
1704714620 0.5349582433700562 0.005469873547554016 -0.01223765593022108 0.004264548420906067 0 0 0 0
1708436704 0.5522345304489136 -0.07274888455867767 -0.01067684218287468 0.006173356436192989 0 0 0 0
1712158788 0.5585355162620544 -0.15151546895503998 -0.008624609559774399 0.007903613150119781 0 0 0 0
1715880872 0.5512065887451172 -0.23365725576877594 -0.006279071792960167 0.008794560097157955 0 0 0 0
1719602956 0.5304881930351257 -0.30834531784057617 -0.003611484542489052 0.00899620819836855 0 0 0 0
1723325040 0.501267671585083 -0.3818783760070801 -0.001467677764594555 0.008345396257936954 0 0 0 0
1727047124 0.46333423256874084 -0.44265955686569214 3.354903310537338e-05 0.0071156881749629974 0 0 0 0
1730769208 0.41197195649147034 -0.5023415684700012 0.0008408445864915848 0.005990559235215187 0 0 0 0
1734491292 0.3529931306838989 -0.5518516302108765 0.0012128055095672607 0.00512167252600193 0 0 0 0
1738213376 0.29139089584350586 -0.5904498100280762 0.0015390431508421898 0.004330351948738098 0 0 0 0
1741935460 0.22071188688278198 -0.6184324026107788 0.001684107817709446 0.0034619588404893875 0 0 0 0
1745657544 0.15190818905830383 -0.6336752772331238 0.0015255212783813477 0.002755437046289444 0 0 0 0
1749379628 0.08063606172800064 -0.6400024890899658 0.0011777859181165695 0.0025664959102869034 0 0 0 0
1753101712 0.010551005601882935 -0.6330467462539673 0.0010713236406445503 0.002613447606563568 0 0 0 0
1756823796 -0.058895766735076904 -0.6172738671302795 0.0011859815567731857 0.0027381060644984245 0 0 0 0
1760545880 -0.12041068077087402 -0.5916526913642883 0.0017295265570282936 0.0027733435854315758 0 0 0 0
1764267964 -0.1732807457447052 -0.5594977140426636 0.002315816469490528 0.0025802496820688248 0 0 0 0
1767990048 -0.22300714254379272 -0.5180413722991943 0.002956169657409191 0.0019077463075518608 0 0 0 0
1771712132 -0.2661554217338562 -0.47194623947143555 0.0029781684279441833 0.0007115490734577179 0 0 0 0
1775434216 -0.30079084634780884 -0.42008015513420105 0.002303570508956909 -0.0003604348748922348 0 0 0 0
1779156300 -0.32369837164878845 -0.36832356452941895 0.0010794373229146004 -0.0007939748466014862 0 0 0 0
1782878384 -0.3435407280921936 -0.3106861412525177 -0.00015655066817998886 -0.0005527585744857788 0 0 0 0
1786600468 -0.35487082600593567 -0.2519789934158325 -0.0008288482204079628 0.0003578886389732361 0 0 0 0
1790322552 -0.35620182752609253 -0.19369089603424072 -0.0009525306522846222 0.001110912300646305 0 0 0 0
1794044636 -0.35097736120224 -0.13490889966487885 -0.0012172115966677666 0.00177096389234066 0 0 0 0
1797766720 -0.3359333276748657 -0.07973936200141907 -0.0017163585871458054 0.0028070732951164246 0 0 0 0
1801488804 -0.31353437900543213 -0.027469784021377563 -0.0016683470457792282 0.0047346195206046104 0 0 0 0
1805210888 -0.28516915440559387 0.01769018918275833 -0.00029394589364528656 0.006831912323832512 0 0 0 0
1808932972 -0.2491612285375595 0.06359720230102539 0.0022859564051032066 0.00812683254480362 0 0 0 0
1812655056 -0.20684799551963806 0.10297399759292603 0.005190884694457054 0.008295987732708454 0 0 0 0
1816377140 -0.1582241803407669 0.13344337046146393 0.008241613395512104 0.007672437466681004 0 0 0 0
1820099224 -0.10470721870660782 0.15508979558944702 0.011545985005795956 0.005985839292407036 0 0 0 0
1823821308 -0.04949788749217987 0.1667991578578949 0.014084727503359318 0.0023668771609663963 0 0 0 0
1827543392 0.005598541349172592 0.1690327376127243 0.014816333539783955 -0.002012600190937519 0 0 0 0
1831265476 0.05714702606201172 0.16167795658111572 0.013900253921747208 -0.005933050997555256 0 0 0 0
1834987560 0.10675318539142609 0.14646930992603302 0.011647969484329224 -0.009306676685810089 0 0 0 0
1838709644 0.15114106237888336 0.12520839273929596 0.008929939940571785 -0.01146723609417677 0 0 0 0
1842431728 0.19037991762161255 0.09924902021884918 0.005952981300652027 -0.012625955045223236 0 0 0 0
1846153812 0.22503994405269623 0.06729965656995773 0.0031530335545539856 -0.012781843543052673 0 0 0 0
1849875896 0.25394701957702637 0.031754180788993835 0.0011621639132499695 -0.01230657659471035 0 0 0 0
1853597980 0.27524206042289734 -0.007866814732551575 -0.0004084240645170212 -0.011714784428477287 0 0 0 0
1857320064 0.2908106744289398 -0.04884365200996399 -0.001350492238998413 -0.011590024456381798 0 0 0 0
1861042148 0.2996576726436615 -0.08948889374732971 -0.0024438118562102318 -0.012015591375529766 0 0 0 0
1864764232 0.30113330483436584 -0.13167649507522583 -0.004483317025005817 -0.012381667271256447 0 0 0 0
1868486316 0.29487308859825134 -0.1730966418981552 -0.0068428656086325645 -0.012028723955154419 0 0 0 0
1872208400 0.284475177526474 -0.20948204398155212 -0.008852645754814148 -0.010910329408943653 0 0 0 0
1875930484 0.26743435859680176 -0.2460697889328003 -0.010401186533272266 -0.009455472230911255 0 0 0 0
1879652568 0.24605579674243927 -0.2777771055698395 -0.011504573747515678 -0.008731788024306297 0 0 0 0
1883374652 0.21854126453399658 -0.30705177783966064 -0.013787433505058289 -0.00816769152879715 0 0 0 0
1887096736 0.18663981556892395 -0.3285806477069855 -0.016878211870789528 -0.006998206488788128 0 0 0 0
1890818820 0.15062852203845978 -0.343946635723114 -0.020195316523313522 -0.003598705865442753 0 0 0 0
1894540904 0.11573676019906998 -0.3502804636955261 -0.022297168150544167 0.0013229306787252426 0 0 0 0
1898262988 0.0791194885969162 -0.35023951530456543 -0.02233394794166088 0.00715780071914196 0 0 0 0
1901985072 0.045122116804122925 -0.34444695711135864 -0.020174264907836914 0.012593597173690796 0 0 0 0
1905707156 0.015411853790283203 -0.3334309160709381 -0.017157819122076035 0.01655975915491581 0 0 0 0
1909429240 -0.010843631811439991 -0.3179508447647095 -0.013605556450784206 0.019847039133310318 0 0 0 0
1913151324 -0.032929129898548126 -0.2988990843296051 -0.009520875290036201 0.02289671264588833 0 0 0 0
1916873408 -0.055265504866838455 -0.2764791250228882 -0.0038553085178136826 0.024814238771796227 0 0 0 0
1920595492 -0.07052786648273468 -0.25029298663139343 0.0019138194620609283 0.02496184967458248 0 0 0 0
1924317576 -0.07746759057044983 -0.22381071746349335 0.007262305356562138 0.02347402088344097 0 0 0 0
1928039660 -0.08304618299007416 -0.19659751653671265 0.011887994594871998 0.02073490247130394 0 0 0 0
1931761744 -0.08310262858867645 -0.17130601406097412 0.015452946536242962 0.01721283048391342 0 0 0 0
1935483828 -0.08137550204992294 -0.14531414210796356 0.018009552732110023 0.012465917505323887 0 0 0 0
1939205912 -0.07412943243980408 -0.12077516317367554 0.0186149999499321 0.008216454647481441 0 0 0 0
1942927996 -0.06435224413871765 -0.09672477096319199 0.01801392436027527 0.004955176264047623 0 0 0 0
1946650080 -0.04974224790930748 -0.07435458898544312 0.01758446730673313 0.002637166529893875 0 0 0 0
1950372164 -0.03168317675590515 -0.05416695773601532 0.01753702573478222 0.0007684314623475075 0 0 0 0
1954094248 -0.009204295463860035 -0.03713250905275345 0.017968477681279182 -0.001765083521604538 0 0 0 0
1957816332 0.01641860045492649 -0.0246269553899765 0.018109116703271866 -0.004636227153241634 0 0 0 0
1961538416 0.04362017661333084 -0.017170056700706482 0.017308944836258888 -0.007859785109758377 0 0 0 0
1965260500 0.07339443266391754 -0.014754397794604301 0.015889879316091537 -0.010622087866067886 0 0 0 0
1968982584 0.102972611784935 -0.019764941185712814 0.0145872225984931 -0.013716176152229309 0 0 0 0
1972704668 0.13030359148979187 -0.030330516397953033 0.012533299624919891 -0.016990914940834045 0 0 0 0
1976426752 0.15479834377765656 -0.04621013253927231 0.009200278669595718 -0.02022184059023857 0 0 0 0
1980148836 0.1755344569683075 -0.06508245319128036 0.0048940666019916534 -0.022645041346549988 0 0 0 0
1983870920 0.19135022163391113 -0.08857111632823944 -0.0007216306403279305 -0.023346316069364548 0 0 0 0
1987593004 0.20354153215885162 -0.1126730740070343 -0.005903549492359161 -0.022874267771840096 0 0 0 0
1991315088 0.20949269831180573 -0.13980942964553833 -0.010324351489543915 -0.020779389888048172 0 0 0 0
1995037172 0.21120043098926544 -0.16708612442016602 -0.014396422542631626 -0.01817365735769272 0 0 0 0
1998759256 0.20952479541301727 -0.19233830273151398 -0.017223523929715157 -0.014554554596543312 0 0 0 0
2002481340 0.19888217747211456 -0.2193952053785324 -0.019002452492713928 -0.010732823982834816 0 0 0 0
2006203424 0.1876411885023117 -0.24139966070652008 -0.020097702741622925 -0.006916138343513012 0 0 0 0
2009925508 0.1733447015285492 -0.2615869343280792 -0.020753759890794754 -0.004043674096465111 0 0 0 0
2013647592 0.1553962230682373 -0.2789575457572937 -0.021267537027597427 -0.0008389241993427277 0 0 0 0
2017369676 0.1336246132850647 -0.29527196288108826 -0.021963628008961678 0.00219594594091177 0 0 0 0
2021091760 0.10622675716876984 -0.3068847358226776 -0.022172166034579277 0.006305832415819168 0 0 0 0
2024813844 0.08114006370306015 -0.3128999173641205 -0.02148701809346676 0.011029444634914398 0 0 0 0
2028535928 0.055184781551361084 -0.312451034784317 -0.018922748044133186 0.015503446571528912 0 0 0 0
2032258012 0.029698088765144348 -0.31050586700439453 -0.01585499942302704 0.019229624420404434 0 0 0 0
2035980096 0.0013747140765190125 -0.3031623661518097 -0.01156369037926197 0.022056682035326958 0 0 0 0
2039702180 -0.0200648233294487 -0.29233768582344055 -0.0071070510894060135 0.023714382201433182 0 0 0 0
2043424264 -0.04430250823497772 -0.2778468728065491 -0.0019148103892803192 0.024163030087947845 0 0 0 0
2047146348 -0.06754826009273529 -0.2580394148826599 0.0027944399043917656 0.023343553766608238 0 0 0 0
2050868432 -0.08437186479568481 -0.236906036734581 0.006277207285165787 0.02179998904466629 0 0 0 0
2054590516 -0.09985215961933136 -0.21288645267486572 0.009248233400285244 0.019755488261580467 0 0 0 0
2058312600 -0.1121997982263565 -0.18321825563907623 0.012457814067602158 0.017910679802298546 0 0 0 0
2062034684 -0.1192602887749672 -0.15183377265930176 0.014947115443646908 0.0156983882188797 0 0 0 0
2065756768 -0.12108705937862396 -0.11931405961513519 0.017354516312479973 0.013087396509945393 0 0 0 0
2069478852 -0.11891987919807434 -0.08457200974225998 0.01947500929236412 0.009378659538924694 0 0 0 0
2073200936 -0.10923103243112564 -0.05152122676372528 0.02054058015346527 0.005260709673166275 0 0 0 0
2076923020 -0.09298910200595856 -0.01860745996236801 0.020211033523082733 0.0012633558362722397 0 0 0 0
2080645104 -0.07183589041233063 0.011396292597055435 0.019212840124964714 -0.0015929033979773521 0 0 0 0
2084367188 -0.044606756418943405 0.037443194538354874 0.01805116981267929 -0.004281853325664997 0 0 0 0
2088089272 -0.01248905062675476 0.05858193710446358 0.016689777374267578 -0.006508879363536835 0 0 0 0
2091811356 0.023517388850450516 0.07333498448133469 0.01552122738212347 -0.008556002750992775 0 0 0 0
2095533440 0.06037837266921997 0.0818530023097992 0.014625397510826588 -0.010558927431702614 0 0 0 0
2099255524 0.09861255437135696 0.08353935182094574 0.013118194416165352 -0.013507388532161713 0 0 0 0
2102977608 0.13629768788814545 0.08129481971263885 0.010684513486921787 -0.01615944318473339 0 0 0 0
2106699692 0.17404292523860931 0.07020041346549988 0.007200755178928375 -0.018110379576683044 0 0 0 0
2110421776 0.20931757986545563 0.05355913192033768 0.0033125504851341248 -0.018943224102258682 0 0 0 0
2114143860 0.2415400743484497 0.028770238161087036 -0.0003205658867955208 -0.018566671758890152 0 0 0 0
2117865944 0.26739129424095154 0.00023051351308822632 -0.0033296439796686172 -0.01785682886838913 0 0 0 0
2121588028 0.2864549160003662 -0.03249955177307129 -0.00651034340262413 -0.0170130655169487 0 0 0 0
2125310112 0.30123087763786316 -0.06462739408016205 -0.009346895851194859 -0.015780262649059296 0 0 0 0
2129032196 0.3095155358314514 -0.09974516183137894 -0.012621390633285046 -0.013643489219248295 0 0 0 0
2132754280 0.31319332122802734 -0.13256290555000305 -0.01511256955564022 -0.010566634126007557 0 0 0 0
2136476364 0.3111042082309723 -0.16964684426784515 -0.016444131731987 -0.006542325951159 0 0 0 0
2140198448 0.30357033014297485 -0.20371225476264954 -0.016381608322262764 -0.0028446139767766 0 0 0 0
2143920532 0.2926364541053772 -0.234231635928154 -0.015523029491305351 7.703341543674469e-05 0 0 0 0
2147642616 0.27411800622940063 -0.26440656185150146 -0.014256343245506287 0.002600311301648617 0 0 0 0
2151364700 0.25321564078330994 -0.290053129196167 -0.01262478157877922 0.0044374773278832436 0 0 0 0
2155086784 0.22696076333522797 -0.31146901845932007 -0.010976152494549751 0.005746867507696152 0 0 0 0
2158808868 0.19851836562156677 -0.3285023272037506 -0.009487497620284557 0.006245803087949753 0 0 0 0
2162530952 0.16794300079345703 -0.33950674533843994 -0.00851668044924736 0.006580251269042492 0 0 0 0
2166253036 0.13691489398479462 -0.3466252386569977 -0.00826718844473362 0.0068358853459358215 0 0 0 0
2169975120 0.10346519947052002 -0.34832102060317993 -0.008125790394842625 0.008057016879320145 0 0 0 0
2173697204 0.07267875969409943 -0.34430646896362305 -0.007171814329922199 0.00972651969641447 0 0 0 0
2177419288 0.046062663197517395 -0.3369356691837311 -0.005570887587964535 0.010788829065859318 0 0 0 0
2181141372 0.014253556728363037 -0.3243752121925354 -0.004166252911090851 0.01140968780964613 0 0 0 0
2184863456 -0.011058300733566284 -0.3081594705581665 -0.002979125827550888 0.01243891753256321 0 0 0 0
2188585540 -0.032474011182785034 -0.28880342841148376 -0.0008429037407040596 0.013477816246449947 0 0 0 0
2192307624 -0.05015765130519867 -0.2651560306549072 0.0018751854076981544 0.013912374153733253 0 0 0 0
2196029708 -0.0667722225189209 -0.2396092265844345 0.005015678703784943 0.013640689663589 0 0 0 0
2199751792 -0.07896041125059128 -0.21056599915027618 0.00784924067556858 0.011910788714885712 0 0 0 0
2203473876 -0.08620384335517883 -0.18041247129440308 0.009683496318757534 0.0095728300511837 0 0 0 0
2207195960 -0.0881105363368988 -0.15006713569164276 0.010471951216459274 0.007898296229541302 0 0 0 0
2210918044 -0.08303869515657425 -0.12078362703323364 0.011499268002808094 0.006025003269314766 0 0 0 0
2214640128 -0.0757913589477539 -0.09033665060997009 0.012485096231102943 0.004404732026159763 0 0 0 0
2218362212 -0.06328752636909485 -0.062066420912742615 0.013349074870347977 0.002178001217544079 0 0 0 0
2222084296 -0.045174043625593185 -0.03628746420145035 0.013880078680813313 -0.0005436940118670464 0 0 0 0
2225806380 -0.022279810160398483 -0.014077240601181984 0.013894990086555481 -0.003486230969429016 0 0 0 0
2229528464 0.00395242590457201 0.003305617719888687 0.01300557516515255 -0.006831193342804909 0 0 0 0
2233250548 0.03297819942235947 0.01585862785577774 0.01072364766150713 -0.009944088757038116 0 0 0 0
2236972632 0.06316197663545609 0.021744705736637115 0.007620946504175663 -0.01213831640779972 0 0 0 0
2240694716 0.09356622397899628 0.023428788408637047 0.00432342104613781 -0.013134604319930077 0 0 0 0
2244416800 0.12359020113945007 0.01934954896569252 0.0011756913736462593 -0.013300116173923016 0 0 0 0
2248138884 0.15133632719516754 0.006055921316146851 -0.0020717382431030273 -0.012576048262417316 0 0 0 0
2251860968 0.17666906118392944 -0.006258711218833923 -0.004610092379152775 -0.011163490824401379 0 0 0 0
2255583052 0.19813933968544006 -0.025750532746315002 -0.006516783498227596 -0.009161887690424919 0 0 0 0
2259305136 0.21553435921669006 -0.047884248197078705 -0.007415137253701687 -0.006865199655294418 0 0 0 0
2263027220 0.22730717062950134 -0.0745059996843338 -0.007680168375372887 -0.004921671003103256 0 0 0 0
2266749304 0.2377128303050995 -0.09118148684501648 -0.007665218785405159 -0.0029940539970993996 0 0 0 0
2270471388 0.23974394798278809 -0.11976326256990433 -0.007083242759108543 -0.0018403418362140656 0 0 0 0
2274193472 0.23893354833126068 -0.147351935505867 -0.0066490815952420235 -0.0009758612141013145 0 0 0 0
2277915556 0.2381330132484436 -0.16658496856689453 -0.006419109180569649 -0.0006170570850372314 0 0 0 0
2281637640 0.22331565618515015 -0.19655552506446838 -0.006300096400082111 4.732981324195862e-05 0 0 0 0
2285359724 0.21064715087413788 -0.21608349680900574 -0.0061586229130625725 0.0006654774770140648 0 0 0 0
2289081808 0.193018838763237 -0.23269417881965637 -0.005716601386666298 0.00135100819170475 0 0 0 0
2292803892 0.17179571092128754 -0.24684423208236694 -0.005477847531437874 0.0016428511589765549 0 0 0 0
2296525976 0.14686059951782227 -0.25622400641441345 -0.005042629316449165 0.002047725021839142 0 0 0 0
2300248060 0.13265472650527954 -0.2588263750076294 -0.004996013827621937 0.0022848034277558327 0 0 0 0
2303970144 0.10676424950361252 -0.2663898169994354 -0.004825214855372906 0.003118853084743023 0 0 0 0
2307692228 0.08688119053840637 -0.2636337876319885 -0.004580272361636162 0.0038788290694355965 0 0 0 0
2311414312 0.06460856646299362 -0.25915756821632385 -0.003726414404809475 0.004345580004155636 0 0 0 0
2315136396 0.03869976848363876 -0.2502468228340149 -0.0024596871808171272 0.004492701031267643 0 0 0 0
2318858480 0.02363917976617813 -0.23744110763072968 -0.0016602836549282074 0.003942893818020821 0 0 0 0
2322580564 -0.0004199221730232239 -0.21977078914642334 -0.0012462623417377472 0.0033352384343743324 0 0 0 0
2326302648 -0.014362204819917679 -0.19882498681545258 -0.0010500485077500343 0.002823108807206154 0 0 0 0
2330024732 -0.024683579802513123 -0.1764933466911316 -0.0013934820890426636 0.0024566343054175377 0 0 0 0
2333746816 -0.02779224142432213 -0.1530887484550476 -0.0017394712194800377 0.002261977642774582 0 0 0 0
2337468900 -0.03256751224398613 -0.12763673067092896 -0.0019784020259976387 0.002389189787209034 0 0 0 0
2341190984 -0.027729040011763573 -0.10336171090602875 -0.0021815765649080276 0.0025292113423347473 0 0 0 0
2344913068 -0.023376476019620895 -0.0771503746509552 -0.002474406734108925 0.002759009599685669 0 0 0 0
2348635152 -0.01202209759503603 -0.05413096398115158 -0.0027108266949653625 0.0031551746651530266 0 0 0 0
2352357236 0.0038834167644381523 -0.032798826694488525 -0.0026941420510411263 0.003934063948690891 0 0 0 0
2356079320 0.022451292723417282 -0.014850611798465252 -0.002379355952143669 0.004593294113874435 0 0 0 0
2359801404 0.04370741546154022 -0.0007219370454549789 -0.0015199026092886925 0.0050239600241184235 0 0 0 0
2363523488 0.06772176921367645 0.009800462052226067 -0.0009444598108530045 0.004835790954530239 0 0 0 0
2367245572 0.09350872784852982 0.0181514210999012 -0.0007492518052458763 0.004703914746642113 0 0 0 0
2370967656 0.1202014684677124 0.019982915371656418 -0.0006283009424805641 0.004917137324810028 0 0 0 0
2374689740 0.14785169064998627 0.01736818253993988 -0.00044144317507743835 0.005448338575661182 0 0 0 0
2378411824 0.17252109944820404 0.00861542671918869 0.00016200728714466095 0.00565662607550621 0 0 0 0
2382133908 0.19680891931056976 -0.0014918893575668335 0.0007051480934023857 0.005977015011012554 0 0 0 0
2385855992 0.2185298353433609 -0.017498813569545746 0.0013289190828800201 0.006179025396704674 0 0 0 0
2389578076 0.23755857348442078 -0.03476111218333244 0.002121114172041416 0.00629287026822567 0 0 0 0
2393300160 0.2525064945220947 -0.05640881136059761 0.0028615696355700493 0.0065086111426353455 0 0 0 0
2397022244 0.2615295946598053 -0.08098933845758438 0.004029308445751667 0.006956129334867001 0 0 0 0
2400744328 0.2709049880504608 -0.10545901209115982 0.005917818285524845 0.006851419806480408 0 0 0 0
2404466412 0.2742406725883484 -0.12802988290786743 0.007597841322422028 0.005957506597042084 0 0 0 0
2408188496 0.27492454648017883 -0.15267914533615112 0.009204905480146408 0.0042161522433161736 0 0 0 0
2411910580 0.2735881805419922 -0.17655357718467712 0.009924380108714104 0.002346869558095932 0 0 0 0
2415632664 0.26702868938446045 -0.1997096836566925 0.010282009840011597 0.0002600597217679024 0 0 0 0
2419354748 0.2572921812534332 -0.2218550592660904 0.010462429374456406 -0.0013004299253225327 0 0 0 0
2423076832 0.24427765607833862 -0.24724280834197998 0.008105332963168621 -0.007722482085227966 0 0 0 0
2426798916 0.22642545402050018 -0.26624852418899536 0.009332647547125816 -0.005566074512898922 0 0 0 0
2430521000 0.20925703644752502 -0.28264904022216797 0.008081707172095776 -0.007236205041408539 0 0 0 0
2434243084 0.18671584129333496 -0.2968176603317261 0.006416747346520424 -0.008584558963775635 0 0 0 0
2437965168 0.16443465650081635 -0.30761826038360596 0.004934455268085003 -0.009206468239426613 0 0 0 0
2441687252 0.13996151089668274 -0.31592005491256714 0.0035685496404767036 -0.009786256588995457 0 0 0 0
2445409336 0.11025147885084152 -0.3216651380062103 0.002239593304693699 -0.010399187915027142 0 0 0 0
2449131420 0.08184821158647537 -0.31948786973953247 0.0009149760007858276 -0.010773615911602974 0 0 0 0
2452853504 0.059921711683273315 -0.31402215361595154 -0.0004701213911175728 -0.011136752553284168 0 0 0 0
2456575588 0.02872340939939022 -0.3048955798149109 -0.002250884659588337 -0.011381865479052067 0 0 0 0
2460297672 0.008454032242298126 -0.29150933027267456 -0.003980747424066067 -0.01146822702139616 0 0 0 0
2464019756 -0.01478433609008789 -0.2756723165512085 -0.006113691255450249 -0.011216286569833755 0 0 0 0
2467741840 -0.035520344972610474 -0.25654444098472595 -0.008242379873991013 -0.010205253958702087 0 0 0 0
2471463924 -0.05046522617340088 -0.23421712219715118 -0.010163997299969196 -0.009219998493790627 0 0 0 0
2475186008 -0.06436023861169815 -0.21070727705955505 -0.011977924033999443 -0.007589695043861866 0 0 0 0
2478908092 -0.07452155649662018 -0.1838153898715973 -0.013294379226863384 -0.00567101314663887 0 0 0 0
2482630176 -0.07806864380836487 -0.1564752757549286 -0.014426206238567829 -0.003663325682282448 0 0 0 0
2486352260 -0.08083812147378922 -0.12834632396697998 -0.015336829237639904 -0.0011947546154260635 0 0 0 0
2490074344 -0.07764145731925964 -0.09949968755245209 -0.016054658219218254 0.0016504665836691856 0 0 0 0
2493796428 -0.06904099881649017 -0.07289855927228928 -0.015835149213671684 0.0046064043417572975 0 0 0 0
2497518512 -0.05842965096235275 -0.04618608206510544 -0.014481480233371258 0.007726142182946205 0 0 0 0
2501240596 -0.04306378588080406 -0.022547872737050056 -0.012457352131605148 0.009954958222806454 0 0 0 0
2504962680 -0.02351554110646248 -0.0015959236770868301 -0.010693486779928207 0.011784734204411507 0 0 0 0
2508684764 -0.0016612391918897629 0.015924060717225075 -0.00863259844481945 0.013157770968973637 0 0 0 0
2512406848 0.02260265126824379 0.030624065548181534 -0.006298212334513664 0.014491023495793343 0 0 0 0
2516128932 0.0486777164041996 0.041246335953474045 -0.0037222085520625114 0.015464209951460361 0 0 0 0
2519851016 0.0765947699546814 0.0480116605758667 -0.0007114354521036148 0.015762541443109512 0 0 0 0
2523573100 0.10558567941188812 0.04931299388408661 0.0020182933658361435 0.015603386797010899 0 0 0 0
2527295184 0.13411155343055725 0.04526381194591522 0.004948449321091175 0.014829134568572044 0 0 0 0
2531017268 0.16006842255592346 0.03774600848555565 0.007792280986905098 0.013333897106349468 0 0 0 0
2534739352 0.1843743622303009 0.02351480722427368 0.010401114821434021 0.011050349101424217 0 0 0 0
2538461436 0.20574088394641876 0.00969791878014803 0.011728455312550068 0.008236628025770187 0 0 0 0
2542183520 0.22317706048488617 -0.009453557431697845 0.01234008651226759 0.005273200571537018 0 0 0 0
2545905604 0.23817145824432373 -0.02819424867630005 0.01230651419609785 0.0028464365750551224 0 0 0 0
2549627688 0.2514698803424835 -0.04937059432268143 0.012025854550302029 0.0006841747090220451 0 0 0 0
2553349772 0.2595362365245819 -0.07272730022668839 0.011358154006302357 -0.0014203032478690147 0 0 0 0
2557071856 0.26455071568489075 -0.09401717036962509 0.010116465389728546 -0.003200868144631386 0 0 0 0
2560793940 0.2663648724555969 -0.11858098208904266 0.008754897862672806 -0.004499586299061775 0 0 0 0
2564516024 0.26395517587661743 -0.14191031455993652 0.007833180017769337 -0.005315886810421944 0 0 0 0
2568238108 0.26045602560043335 -0.16051869094371796 0.006567115895450115 -0.006121203303337097 0 0 0 0
2571960192 0.2490442395210266 -0.18378546833992004 0.005509501323103905 -0.006808353587985039 0 0 0 0
2575682276 0.2376188188791275 -0.2014472484588623 0.00444427877664566 -0.007181528024375439 0 0 0 0
2579404360 0.2256523221731186 -0.21686221659183502 0.0034996019676327705 -0.0075876759365201 0 0 0 0
2583126444 0.21096086502075195 -0.2298051416873932 0.0025208713486790657 -0.008204956538975239 0 0 0 0
2586848528 0.1930479109287262 -0.2424086183309555 0.0010480387136340141 -0.008714652620255947 0 0 0 0
2590570612 0.17798691987991333 -0.2493268996477127 -0.0005558663979172707 -0.008666399866342545 0 0 0 0
2594292696 0.16265884041786194 -0.25498682260513306 -0.0018510594964027405 -0.00828003790229559 0 0 0 0
2598014780 0.14399099349975586 -0.2608560025691986 -0.0032676346600055695 -0.007675430737435818 0 0 0 0
2601736864 0.12603594362735748 -0.2634003758430481 -0.004467308521270752 -0.006812752224504948 0 0 0 0
2605458948 0.10379355400800705 -0.26196175813674927 -0.005144268274307251 -0.005540978163480759 0 0 0 0
2609181032 0.08605537563562393 -0.25789839029312134 -0.0053969481959939 -0.004404217936098576 0 0 0 0
2612903116 0.06772132962942123 -0.25094032287597656 -0.005191104486584663 -0.0035803401842713356 0 0 0 0
2616625200 0.05168754607439041 -0.23959574103355408 -0.005473379045724869 -0.003048882819712162 0 0 0 0
2620347284 0.03734499216079712 -0.22718966007232666 -0.005606726743280888 -0.002375294454395771 0 0 0 0
2624069368 0.02716517448425293 -0.21268290281295776 -0.005647123791277409 -0.0018148953095078468 0 0 0 0
2627791452 0.018166054040193558 -0.19710461795330048 -0.005596665665507317 -0.00117566529661417 0 0 0 0
2631513536 0.01341218501329422 -0.1789546012878418 -0.005644690245389938 -0.0006817514076828957 0 0 0 0
2635235620 0.012191809713840485 -0.16244980692863464 -0.005711467936635017 -7.64261931180954e-05 0 0 0 0
2638957704 0.013179264962673187 -0.14568555355072021 -0.0056997183710336685 0.0007958980277180672 0 0 0 0
2642679788 0.01849786937236786 -0.12851989269256592 -0.0052028559148311615 0.0017094267532229424 0 0 0 0
2646401872 0.025471698492765427 -0.11460000276565552 -0.00456219632178545 0.002388555556535721 0 0 0 0
2650123956 0.034721631556749344 -0.1025892123579979 -0.003871450200676918 0.002537916414439678 0 0 0 0
2653846040 0.046206895262002945 -0.09272286295890808 -0.003277822397649288 0.0029007941484451294 0 0 0 0
2657568124 0.0595618337392807 -0.08563057333230972 -0.0027183275669813156 0.0027926070615649223 0 0 0 0
2661290208 0.07464300841093063 -0.0822179764509201 -0.002590321935713291 0.0027070073410868645 0 0 0 0
2665012292 0.08972937613725662 -0.08075561374425888 -0.002358408644795418 0.002759351395070553 0 0 0 0
2668734376 0.10205451399087906 -0.08473806828260422 -0.0022124862298369408 0.003045511431992054 0 0 0 0
2672456460 0.11363493651151657 -0.09160076081752777 -0.0017562918365001678 0.0033467402681708336 0 0 0 0
2676178544 0.12429675459861755 -0.09932412207126617 -0.0013314606621861458 0.0033865226432681084 0 0 0 0
2679900628 0.13211490213871002 -0.11032687872648239 -0.0009334767237305641 0.00363251194357872 0 0 0 0
2683622712 0.1377900093793869 -0.12087662518024445 -0.0002550426870584488 0.0039020609110593796 0 0 0 0
2687344796 0.14001980423927307 -0.13257354497909546 0.0003881724551320076 0.0036722058430314064 0 0 0 0
2691066880 0.14022888243198395 -0.1447962373495102 0.0010457485914230347 0.003263121470808983 0 0 0 0
2694788964 0.13675330579280853 -0.15704552829265594 0.0013807546347379684 0.0029975706711411476 0 0 0 0
2698511048 0.1330554187297821 -0.16814696788787842 0.001975259743630886 0.002770013175904751 0 0 0 0
2702233132 0.12490782141685486 -0.1779569387435913 0.0026545552536845207 0.002154252491891384 0 0 0 0
2705955216 0.11548349261283875 -0.18633714318275452 0.002913127653300762 0.0014037415385246277 0 0 0 0
2709677300 0.10503651201725006 -0.1929633617401123 0.0029459428042173386 0.0006116125732660294 0 0 0 0
2713399384 0.09018782526254654 -0.1983235478401184 0.002734299749135971 -0.00018863845616579056 0 0 0 0
2717121468 0.07669791579246521 -0.1992521733045578 0.002347412519156933 -0.000792304053902626 0 0 0 0
2720843552 0.0630190521478653 -0.19858711957931519 0.002007201313972473 -0.0009637894108891487 0 0 0 0
2724565636 0.04638528823852539 -0.1951654702425003 0.0015230700373649597 -0.0010393895208835602 0 0 0 0
2728287720 0.034395210444927216 -0.18775250017642975 0.001230570487678051 -0.0010840818285942078 0 0 0 0
2732009804 0.021526459604501724 -0.17929834127426147 0.0010828608646988869 -0.0010572243481874466 0 0 0 0
2735731888 0.010850965976715088 -0.16740693151950836 0.0010290248319506645 -0.0008944980800151825 0 0 0 0
2739453972 0.0015807375311851501 -0.15393203496932983 0.001118178479373455 -0.0010240627452731133 0 0 0 0
2743176056 -0.006234556436538696 -0.13783271610736847 0.001101137138903141 -0.0009355396032333374 0 0 0 0
2746898140 -0.011466523632407188 -0.11979477107524872 0.0014771660789847374 -0.0008777910843491554 0 0 0 0
2750620224 -0.011315297335386276 -0.1018831729888916 0.002082470804452896 -0.0012006685137748718 0 0 0 0
2754342308 -0.00853931438177824 -0.08357356488704681 0.0021289531141519547 -0.0022218460217118263 0 0 0 0
2758064392 -0.0027896706014871597 -0.06607112288475037 0.0019101444631814957 -0.003122110851109028 0 0 0 0
2761786476 0.0060107167810201645 -0.049361199140548706 0.0012079142034053802 -0.003896987996995449 0 0 0 0
2765508560 0.01627999171614647 -0.03460817039012909 8.110888302326202e-06 -0.004513240419328213 0 0 0 0
2769230644 0.030021393671631813 -0.02040265128016472 -0.0012410571798682213 -0.00436639878898859 0 0 0 0
2772952728 0.046301718801259995 -0.008364252746105194 -0.0025100726634263992 -0.0037896884605288506 0 0 0 0
2776674812 0.0646422952413559 0.001309545710682869 -0.0030177608132362366 -0.002923952415585518 0 0 0 0
2780396896 0.08591638505458832 0.00740460492670536 -0.00334789976477623 -0.0018556183204054832 0 0 0 0
2784118980 0.10668201744556427 0.00977946538478136 -0.0031471475958824158 -0.0010580578818917274 0 0 0 0
2787841064 0.12811118364334106 0.008638042956590652 -0.002666110172867775 -0.000433528795838356 0 0 0 0
2791563148 0.14983144402503967 0.0027107223868370056 -0.0023891404271125793 -0.00029389653354883194 0 0 0 0
2795285232 0.16964435577392578 -0.004026059061288834 -0.0022378340363502502 -6.513390690088272e-05 0 0 0 0
2799007316 0.1897200644016266 -0.013733834028244019 -0.0021868404000997543 4.508160054683685e-05 0 0 0 0
2802729400 0.20869620144367218 -0.026988932862877846 -0.0019972147420048714 0.0002654818817973137 0 0 0 0
2806451484 0.2236037701368332 -0.04729452356696129 -0.001946168951690197 0.0005395179614424706 0 0 0 0
2810173568 0.23583416640758514 -0.06455283612012863 -0.0018125977367162704 0.0007799509912729263 0 0 0 0
2813895652 0.24632614850997925 -0.08771277964115143 -0.0015216181054711342 0.0012137116864323616 0 0 0 0
2817617736 0.2534075081348419 -0.1077752560377121 -0.0012717405334115028 0.0013061938807368279 0 0 0 0
2821339820 0.2541201114654541 -0.13484588265419006 -0.0010155998170375824 0.0015110066160559654 0 0 0 0
2825061904 0.2555548846721649 -0.15392351150512695 -0.0008099358528852463 0.0017277467995882034 0 0 0 0
2828783988 0.24866630136966705 -0.18029481172561646 -0.00021617859601974487 0.002127213403582573 0 0 0 0
2832506072 0.23969011008739471 -0.20320424437522888 0.0005736686289310455 0.002148538827896118 0 0 0 0
2836228156 0.23351645469665527 -0.21887870132923126 0.0014296360313892365 0.0019157323986291885 0 0 0 0
2839950240 0.21772418916225433 -0.24304088950157166 0.002063463442027569 0.0013287970796227455 0 0 0 0
2843672324 0.20490297675132751 -0.25773119926452637 0.0024668872356414795 0.0006247479468584061 0 0 0 0
2847394408 0.18824578821659088 -0.2705491781234741 0.0025645606219768524 -0.0002547726035118103 0 0 0 0
2851116492 0.16600027680397034 -0.28724125027656555 0.0023799538612365723 -0.001100149005651474 0 0 0 0
2854838576 0.1452166736125946 -0.29809701442718506 0.001957682892680168 -0.0017665736377239227 0 0 0 0
2858560660 0.13222995400428772 -0.30519893765449524 0.0015620412304997444 -0.002388104796409607 0 0 0 0
2862282744 0.10267528891563416 -0.3121470808982849 0.0010075941681861877 -0.0025901086628437042 0 0 0 0
2866004828 0.0823470950126648 -0.3136468827724457 0.000502903014421463 -0.002542390488088131 0 0 0 0
2869726912 0.0605529248714447 -0.31368762254714966 0.0001604156568646431 -0.002617805264890194 0 0 0 0
2873448996 0.034931689500808716 -0.31086114048957825 -0.00018444471061229706 -0.00263424776494503 0 0 0 0
2877171080 0.016171768307685852 -0.30449798703193665 -0.0006250310689210892 -0.0026538679376244545 0 0 0 0
2880893164 -0.009790375828742981 -0.29637330770492554 -0.0011164946481585503 -0.0026187673211097717 0 0 0 0
2884615248 -0.031235389411449432 -0.28445637226104736 -0.0015946254134178162 -0.0024405010044574738 0 0 0 0
2888337332 -0.048896998167037964 -0.2714947462081909 -0.002017310820519924 -0.0019732853397727013 0 0 0 0
2892059416 -0.06769838184118271 -0.2545558512210846 -0.0022774068638682365 -0.0014459937810897827 0 0 0 0
2895781500 -0.08439234644174576 -0.23570126295089722 -0.002384359948337078 -0.0008073970675468445 0 0 0 0
2899503584 -0.09711098670959473 -0.21488681435585022 -0.002390742301940918 -0.00030273478478193283 0 0 0 0
2903225668 -0.11323587596416473 -0.19050908088684082 -0.0021390486508607864 0.00016360078006982803 0 0 0 0
2906947752 -0.12131185829639435 -0.165632963180542 -0.002064536325633526 0.0005446802824735641 0 0 0 0
2910669836 -0.12483078986406326 -0.13950161635875702 -0.0018625473603606224 0.0009193792939186096 0 0 0 0
2914391920 -0.12639418244361877 -0.10980071127414703 -0.0016633840277791023 0.0014305571094155312 0 0 0 0
2918114004 -0.12180066108703613 -0.08312055468559265 -0.0011923834681510925 0.0019228197634220123 0 0 0 0
2921836088 -0.11375831067562103 -0.058856233954429626 -0.0007029939442873001 0.0021903077140450478 0 0 0 0
2925558172 -0.104246586561203 -0.03295145928859711 -4.6224333345890045e-05 0.0022167088463902473 0 0 0 0
2929280256 -0.09220705926418304 -0.01051459088921547 0.0003089858219027519 0.002283369190990925 0 0 0 0
2933002340 -0.07718990743160248 0.01070745475590229 0.0007579484954476357 0.0021890969946980476 0 0 0 0
2936724424 -0.05913343280553818 0.031164824962615967 0.0012310575693845749 0.0021164435893297195 0 0 0 0
2940446508 -0.03913908451795578 0.04822327196598053 0.0016459133476018906 0.0019940538331866264 0 0 0 0
2944168592 -0.015727756544947624 0.06358611583709717 0.0020528901368379593 0.001742323860526085 0 0 0 0
2947890676 0.010423960164189339 0.07536990195512772 0.002333591692149639 0.001609628088772297 0 0 0 0
2951612760 0.03601112961769104 0.0845823660492897 0.0027624601498246193 0.0013444051146507263 0 0 0 0
2955334844 0.06351517140865326 0.08970082551240921 0.0032255128026008606 0.0009572608396410942 0 0 0 0
2959056928 0.09358491748571396 0.08866872638463974 0.003601912409067154 0.0005809850990772247 0 0 0 0
2962779012 0.12166497856378555 0.08579515665769577 0.0040036337450146675 0.0002537379041314125 0 0 0 0
2966501096 0.15052883327007294 0.0740555003285408 0.004349157214164734 -0.0005801981315016747 0 0 0 0
2970223180 0.17516669631004333 0.06373955309391022 0.004459671676158905 -0.0017712395638227463 0 0 0 0
2973945264 0.1990690678358078 0.04826292023062706 0.003911951556801796 -0.002719564363360405 0 0 0 0
2977667348 0.2199089676141739 0.03155277669429779 0.0034533143043518066 -0.0032927002757787704 0 0 0 0
2981389432 0.23743116855621338 0.010324742645025253 0.0027167778462171555 -0.003732692450284958 0 0 0 0
2985111516 0.25190404057502747 -0.014845982193946838 0.0020498596131801605 -0.004037806764245033 0 0 0 0
2988833600 0.2623305022716522 -0.04195660352706909 0.0012458842247724533 -0.004192681983113289 0 0 0 0
2992555684 0.26995834708213806 -0.06417407095432281 0.00036863889545202255 -0.0042450400069355965 0 0 0 0
2996277768 0.2717015743255615 -0.0892784371972084 -0.00030877627432346344 -0.0041027916595339775 0 0 0 0
2999999852 0.2720310091972351 -0.11572381854057312 -0.0010442966595292091 -0.003709360957145691 0 0 0 0
