# HZ S RI R 50
1500000000 -0.11907868087291718 -0.014499958604574203 0.0318138413131237 -0.033641114830970764 0 0 0 0
1503722084 -0.09742281585931778 0.015338100492954254 0.024930544197559357 -0.03912663087248802 0 0 0 0
1507444168 -0.06951940059661865 0.04065631702542305 0.01667056605219841 -0.04286651313304901 0 0 0 0
1511166252 -0.035413749516010284 0.06079024076461792 0.0074535999447107315 -0.0444113127887249 0 0 0 0
1514888336 0.001911679282784462 0.07323221117258072 -0.0017123706638813019 -0.043234169483184814 0 0 0 0
1518610420 0.039641741663217545 0.07885849475860596 -0.009253979660570621 -0.03991033881902695 0 0 0 0
1522332504 0.07832760363817215 0.07887835800647736 -0.01546496618539095 -0.035282865166664124 0 0 0 0
1526054588 0.11706811189651489 0.07476386427879333 -0.020128760486841202 -0.030350396409630775 0 0 0 0
1529776672 0.15602068603038788 0.06597396731376648 -0.023304056376218796 -0.0250918660312891 0 0 0 0
1533498756 0.19612866640090942 0.048543237149715424 -0.025404691696166992 -0.01966911554336548 0 0 0 0
1537220840 0.2335965931415558 0.026180513203144073 -0.026212535798549652 -0.014527876861393452 0 0 0 0
1540942924 0.26916399598121643 -0.002872869372367859 -0.026059148833155632 -0.009860599413514137 0 0 0 0
1544665008 0.30000439286231995 -0.03767731785774231 -0.025250978767871857 -0.006638733670115471 0 0 0 0
1548387092 0.32568812370300293 -0.07983619719743729 -0.025037068873643875 -0.00357876718044281 0 0 0 0
1552109176 0.3452437222003937 -0.12470528483390808 -0.024598831310868263 -0.00016887672245502472 0 0 0 0
1555831260 0.3578397035598755 -0.17530140280723572 -0.023583631962537766 0.0033322079107165337 0 0 0 0
1559553344 0.3652118146419525 -0.22493144869804382 -0.02188839018344879 0.006338909268379211 0 0 0 0
1563275428 0.3624984622001648 -0.2787817418575287 -0.019909070804715157 0.009015965275466442 0 0 0 0
1566997512 0.35184618830680847 -0.33437493443489075 -0.017417505383491516 0.011145273223519325 0 0 0 0
1570719596 0.33314740657806396 -0.3885310888290405 -0.015007885172963142 0.01263279840350151 0 0 0 0
1574441680 0.2997782230377197 -0.44187337160110474 -0.012477952986955643 0.013473600149154663 0 0 0 0
1578163764 0.2629474401473999 -0.48599177598953247 -0.010435490868985653 0.014011039398610592 0 0 0 0
1581885848 0.21555107831954956 -0.5252975821495056 -0.008592355996370316 0.014593455009162426 0 0 0 0
1585607932 0.16256183385849 -0.557327389717102 -0.006687133572995663 0.015047344379127026 0 0 0 0
1589330016 0.10892924666404724 -0.5823904871940613 -0.004763041622936726 0.015240955166518688 0 0 0 0
1593052100 0.04686269909143448 -0.5979426503181458 -0.0032715173438191414 0.01542389951646328 0 0 0 0
1596774184 -0.015411615371704102 -0.6045544743537903 -0.0015848074108362198 0.015697136521339417 0 0 0 0
1600496268 -0.07856562733650208 -0.6005997657775879 0.00047441571950912476 0.015945542603731155 0 0 0 0
1604218352 -0.1405157595872879 -0.5865468382835388 0.002773699350655079 0.01571369171142578 0 0 0 0
1607940436 -0.19806255400180817 -0.5666192173957825 0.004833071492612362 0.015121771022677422 0 0 0 0
1611662520 -0.2613191604614258 -0.5340271592140198 0.006899058818817139 0.014323064126074314 0 0 0 0
1615384604 -0.31400105357170105 -0.49546778202056885 0.00872890092432499 0.013302601873874664 0 0 0 0
1619106688 -0.3632199764251709 -0.44574427604675293 0.010507501661777496 0.012149790301918983 0 0 0 0
1622828772 -0.4011584520339966 -0.39448481798171997 0.012409140355885029 0.011110472492873669 0 0 0 0
1626550856 -0.4362201988697052 -0.33174929022789 0.01459626853466034 0.00926364678889513 0 0 0 0
1630272940 -0.45841681957244873 -0.2666601836681366 0.016459083184599876 0.006808045320212841 0 0 0 0
1633995024 -0.47523966431617737 -0.19412772357463837 0.01791774295270443 0.004040430299937725 0 0 0 0
1637717108 -0.4791377782821655 -0.12154555320739746 0.01872757077217102 0.0006488524377346039 0 0 0 0
1641439192 -0.4735502004623413 -0.049680307507514954 0.01888163387775421 -0.0030709663406014442 0 0 0 0
1645161276 -0.4555448591709137 0.02515166997909546 0.018139656633138657 -0.0066290004178881645 0 0 0 0
1648883360 -0.4250935912132263 0.09510493278503418 0.016832634806632996 -0.010136431083083153 0 0 0 0
1652605444 -0.38335078954696655 0.16420641541481018 0.014621160924434662 -0.01358497329056263 0 0 0 0
1656327528 -0.33198586106300354 0.2234792411327362 0.011483388021588326 -0.01658720336854458 0 0 0 0
1660049612 -0.2708768844604492 0.27485159039497375 0.007361496798694134 -0.01859978213906288 0 0 0 0
1663771696 -0.20173126459121704 0.316972553730011 0.0031170081347227097 -0.019243277609348297 0 0 0 0
1667493780 -0.12725618481636047 0.34846630692481995 -0.0009017931297421455 -0.018590575084090233 0 0 0 0
1671215864 -0.047791093587875366 0.3675028383731842 -0.004223758354783058 -0.01762210577726364 0 0 0 0
1674937948 0.036464110016822815 0.37504804134368896 -0.007762131281197071 -0.016003187745809555 0 0 0 0
1678660032 0.12086285650730133 0.3675801753997803 -0.010509665124118328 -0.01349672582000494 0 0 0 0
1682382116 0.20004403591156006 0.3483102321624756 -0.012546135112643242 -0.010594908148050308 0 0 0 0
1686104200 0.27689218521118164 0.3161407709121704 -0.013822521083056927 -0.007419653236865997 0 0 0 0
1689826284 0.3476824164390564 0.270565390586853 -0.014172104187309742 -0.004143308848142624 0 0 0 0
1693548368 0.4097932279109955 0.2167411893606186 -0.013848351314663887 -0.0011524185538291931 0 0 0 0
1697270452 0.46238166093826294 0.15480145812034607 -0.012832244858145714 0.00159437395632267 0 0 0 0
1700992536 0.5058338046073914 0.08121873438358307 -0.011239753104746342 0.0037795202806591988 0 0 0 0
1704714620 0.5359031558036804 0.006113380193710327 -0.009548310190439224 0.005170784890651703 0 0 0 0
1708436704 0.5536544322967529 -0.07382434606552124 -0.00789600983262062 0.006327555514872074 0 0 0 0
1712158788 0.5593563914299011 -0.1540457159280777 -0.0063309576362371445 0.007176028564572334 0 0 0 0
1715880872 0.5520662665367126 -0.23148855566978455 -0.00448102131485939 0.007685440592467785 0 0 0 0
1719602956 0.5337752103805542 -0.30791911482810974 -0.00238062534481287 0.007756880484521389 0 0 0 0
1723325040 0.5026491284370422 -0.38097867369651794 -0.0006665484979748726 0.007065951824188232 0 0 0 0
1727047124 0.4643244743347168 -0.4450427293777466 0.0004093572497367859 0.006013897247612476 0 0 0 0
1730769208 0.40977710485458374 -0.5055286884307861 0.0009748842567205429 0.004928247071802616 0 0 0 0
1734491292 0.3534421920776367 -0.5546771883964539 0.0014563454315066338 0.004362993873655796 0 0 0 0
1738213376 0.28652316331863403 -0.5945472717285156 0.001759062521159649 0.0035485709086060524 0 0 0 0
1741935460 0.21983328461647034 -0.6212320327758789 0.0017683058977127075 0.0029102303087711334 0 0 0 0
1745657544 0.15133880078792572 -0.6355701088905334 0.0016222400590777397 0.002383866347372532 0 0 0 0
1749379628 0.08192788064479828 -0.642087996006012 0.0013296296820044518 0.0021121343597769737 0 0 0 0
1753101712 0.009588761255145073 -0.634375274181366 0.001285533420741558 0.0021647317335009575 0 0 0 0
1756823796 -0.061085909605026245 -0.6195664405822754 0.0015061693266034126 0.0024036141112446785 0 0 0 0
1760545880 -0.11733096837997437 -0.59290611743927 0.002190040424466133 0.002212994731962681 0 0 0 0
1764267964 -0.17432951927185059 -0.559472382068634 0.0027809785678982735 0.0015436988323926926 0 0 0 0
1767990048 -0.22575122117996216 -0.5178954601287842 0.002983715385198593 0.0006510168313980103 0 0 0 0
1771712132 -0.26730459928512573 -0.4710264503955841 0.002640640363097191 -0.0004478786140680313 0 0 0 0
1775434216 -0.30241164565086365 -0.4196397066116333 0.001826932653784752 -0.001405041664838791 0 0 0 0
1779156300 -0.32752230763435364 -0.36519551277160645 0.00054965540766716 -0.0017228247597813606 0 0 0 0
1782878384 -0.3444759249687195 -0.309795618057251 -0.0007542064413428307 -0.0015185168012976646 0 0 0 0
1786600468 -0.3547007143497467 -0.25233763456344604 -0.0018632197752594948 -0.000709029845893383 0 0 0 0
1790322552 -0.3574720323085785 -0.19292961061000824 -0.00262344628572464 0.0005198018625378609 0 0 0 0
1794044636 -0.351465106010437 -0.1352933794260025 -0.0029812296852469444 0.0019479338079690933 0 0 0 0
1797766720 -0.3369944393634796 -0.07919938862323761 -0.0028708679601550102 0.0035381605848670006 0 0 0 0
1801488804 -0.31432345509529114 -0.026137277483940125 -0.0022787246853113174 0.0055442675948143005 0 0 0 0
1805210888 -0.2849338948726654 0.022370897233486176 -0.00044432003051042557 0.007382900454103947 0 0 0 0
1808932972 -0.24793142080307007 0.06687501817941666 0.0020618028938770294 0.008220303803682327 0 0 0 0
1812655056 -0.2053469866514206 0.10454225540161133 0.004737566225230694 0.008273022249341011 0 0 0 0
1816377140 -0.1555606722831726 0.13536158204078674 0.007261981256306171 0.007889331318438053 0 0 0 0
1820099224 -0.10309641063213348 0.15612320601940155 0.010581931099295616 0.006206165999174118 0 0 0 0
1823821308 -0.04759666323661804 0.16777746379375458 0.012857813388109207 0.0027779340744018555 0 0 0 0
1827543392 0.008428379893302917 0.1697404980659485 0.013372883200645447 -0.0011406969279050827 0 0 0 0
1831265476 0.059848200529813766 0.16210800409317017 0.01270942110568285 -0.00420021265745163 0 0 0 0
1834987560 0.10879910737276077 0.1468484103679657 0.011188252829015255 -0.006871195510029793 0 0 0 0
1838709644 0.15333840250968933 0.12467281520366669 0.009278997778892517 -0.008900643326342106 0 0 0 0
1842431728 0.19275961816310883 0.09832596033811569 0.007222382351756096 -0.010272202081978321 0 0 0 0
1846153812 0.22702665627002716 0.06548236310482025 0.005369203165173531 -0.010999318212270737 0 0 0 0
1849875896 0.25397467613220215 0.029340557754039764 0.003936748951673508 -0.011567439883947372 0 0 0 0
1853597980 0.275932252407074 -0.00805915892124176 0.0023407647386193275 -0.012342052534222603 0 0 0 0
1857320064 0.29230695962905884 -0.04723163694143295 0.0006697103381156921 -0.01333039440214634 0 0 0 0
1861042148 0.3013153672218323 -0.09107597172260284 -0.0015911636874079704 -0.014150521717965603 0 0 0 0
1864764232 0.30350589752197266 -0.1330404430627823 -0.0047294991090893745 -0.014239744283258915 0 0 0 0
1868486316 0.2973202168941498 -0.1744767129421234 -0.007805502973496914 -0.01335256639868021 0 0 0 0
1872208400 0.2858724296092987 -0.21297119557857513 -0.010189433582127094 -0.011569853872060776 0 0 0 0
1875930484 0.269170880317688 -0.24831263720989227 -0.011701993644237518 -0.0093325050547719 0 0 0 0
1879652568 0.24471323192119598 -0.28265467286109924 -0.012377801351249218 -0.007463477551937103 0 0 0 0
1883374652 0.21832039952278137 -0.30808335542678833 -0.013410266488790512 -0.006818970665335655 0 0 0 0
1887096736 0.18630342185497284 -0.3296842873096466 -0.015568532980978489 -0.005788203328847885 0 0 0 0
1890818820 0.15137606859207153 -0.34428706765174866 -0.018453706055879593 -0.0036362484097480774 0 0 0 0
1894540904 0.11522889882326126 -0.35101157426834106 -0.021050387993454933 0.0003314940258860588 0 0 0 0
1898262988 0.07932138442993164 -0.35102570056915283 -0.021465761587023735 0.006137749180197716 0 0 0 0
1901985072 0.04613290727138519 -0.34541255235671997 -0.019645126536488533 0.01135246455669403 0 0 0 0
1905707156 0.014800921082496643 -0.33352571725845337 -0.016776956617832184 0.015196936205029488 0 0 0 0
1909429240 -0.010499760508537292 -0.3190392255783081 -0.013805918395519257 0.01815662905573845 0 0 0 0
1913151324 -0.03306630253791809 -0.30042916536331177 -0.010210678912699223 0.021096710115671158 0 0 0 0
1916873408 -0.05735859274864197 -0.2775828242301941 -0.005591364577412605 0.023549098521471024 0 0 0 0
1920595492 -0.07149695605039597 -0.25243517756462097 -0.0004925047978758812 0.02446548454463482 0 0 0 0
1924317576 -0.08064637333154678 -0.2250615805387497 0.004838448949158192 0.023927494883537292 0 0 0 0
1928039660 -0.08623546361923218 -0.19666600227355957 0.010145683772861958 0.02238762378692627 0 0 0 0
1931761744 -0.08668485283851624 -0.16944198310375214 0.014936830848455429 0.019331205636262894 0 0 0 0
1935483828 -0.08339715003967285 -0.1433362066745758 0.018077770248055458 0.01451378408819437 0 0 0 0
1939205912 -0.076384037733078 -0.11737190932035446 0.01913747377693653 0.009947380051016808 0 0 0 0
1942927996 -0.06555140763521194 -0.09315908700227737 0.019233044236898422 0.00648367777466774 0 0 0 0
1946650080 -0.05012831836938858 -0.06983460485935211 0.019049592316150665 0.003620019182562828 0 0 0 0
1950372164 -0.03021213784813881 -0.048577144742012024 0.019278634339571 0.0009131515398621559 0 0 0 0
1954094248 -0.006032717414200306 -0.03307411074638367 0.019877774640917778 -0.0018120910972356796 0 0 0 0
1957816332 0.020609941333532333 -0.021769752725958824 0.01994655653834343 -0.005275154486298561 0 0 0 0
1961538416 0.04844769462943077 -0.01609356887638569 0.018828129395842552 -0.009520504623651505 0 0 0 0
1965260500 0.07730257511138916 -0.014916948974132538 0.016509661450982094 -0.012805981561541557 0 0 0 0
1968982584 0.10595403611660004 -0.02059433050453663 0.014051585458219051 -0.015428552404046059 0 0 0 0
1972704668 0.13244010508060455 -0.03093741647899151 0.0117751220241189 -0.017921509221196175 0 0 0 0
1976426752 0.15644843876361847 -0.046089641749858856 0.008486118167638779 -0.020566429942846298 0 0 0 0
1980148836 0.17755667865276337 -0.06581981480121613 0.004440902732312679 -0.02271183393895626 0 0 0 0
1983870920 0.19282963871955872 -0.08887346088886261 -0.0005637835711240768 -0.023759406059980392 0 0 0 0
1987593004 0.20541460812091827 -0.11298845708370209 -0.005878319963812828 -0.023296715691685677 0 0 0 0
1991315088 0.2122536599636078 -0.1399751603603363 -0.010701369494199753 -0.02178781107068062 0 0 0 0
1995037172 0.21242372691631317 -0.16815008223056793 -0.015551510266959667 -0.01833895966410637 0 0 0 0
1998759256 0.21169394254684448 -0.19245733320713043 -0.01843162439763546 -0.014022137969732285 0 0 0 0
2002481340 0.2009570151567459 -0.2204931676387787 -0.01957113668322563 -0.00980103574693203 0 0 0 0
2006203424 0.19108347594738007 -0.2425842136144638 -0.01986686699092388 -0.0065502263605594635 0 0 0 0
2009925508 0.17442680895328522 -0.2646946310997009 -0.02041713520884514 -0.003769160248339176 0 0 0 0
2013647592 0.15583433210849762 -0.2813653349876404 -0.0207863487303257 -0.0009725019335746765 0 0 0 0
2017369676 0.13348068296909332 -0.2969670295715332 -0.021653350442647934 0.0024122074246406555 0 0 0 0
2021091760 0.10789228975772858 -0.30910763144493103 -0.021993322297930717 0.006218314170837402 0 0 0 0
2024813844 0.08097537606954575 -0.31392866373062134 -0.02090219408273697 0.010302240028977394 0 0 0 0
2028535928 0.054991886019706726 -0.3142626881599426 -0.018810445442795753 0.014251681044697762 0 0 0 0
2032258012 0.02565450593829155 -0.3120415508747101 -0.015947379171848297 0.017931606620550156 0 0 0 0
2035980096 -0.0005587488412857056 -0.3029347360134125 -0.01214856468141079 0.020471116527915 0 0 0 0
2039702180 -0.02293018251657486 -0.29081687331199646 -0.0082301776856184 0.022414453327655792 0 0 0 0
2043424264 -0.04673851281404495 -0.274493932723999 -0.003934268839657307 0.02342323400080204 0 0 0 0
2047146348 -0.06522872298955917 -0.25563114881515503 0.00016366597265005112 0.023371484130620956 0 0 0 0
2050868432 -0.08301609754562378 -0.2338433563709259 0.0044263806194067 0.023102154955267906 0 0 0 0
2054590516 -0.09768451005220413 -0.21001654863357544 0.008108466863632202 0.0217258483171463 0 0 0 0
2058312600 -0.10893949866294861 -0.18231524527072906 0.011887222528457642 0.019843224436044693 0 0 0 0
2062034684 -0.11543314158916473 -0.15240034461021423 0.015014843083918095 0.01781759038567543 0 0 0 0
2065756768 -0.11875971406698227 -0.12158345431089401 0.01807059720158577 0.014847319573163986 0 0 0 0
2069478852 -0.11663711071014404 -0.08777409046888351 0.020840132609009743 0.01104519423097372 0 0 0 0
2073200936 -0.10851435363292694 -0.05335189402103424 0.022280646488070488 0.006510685198009014 0 0 0 0
2076923020 -0.09307752549648285 -0.01920556277036667 0.02230716310441494 0.001836293376982212 0 0 0 0
2080645104 -0.07145235687494278 0.010347161442041397 0.021239498630166054 -0.0020562009885907173 0 0 0 0
2084367188 -0.04445860907435417 0.03618692606687546 0.019578801468014717 -0.0049550095573067665 0 0 0 0
2088089272 -0.012471828609704971 0.05700794234871864 0.01805444061756134 -0.00716914888471365 0 0 0 0
2091811356 0.02264370396733284 0.07184203714132309 0.01676923595368862 -0.009370394051074982 0 0 0 0
2095533440 0.0590970404446125 0.08098506182432175 0.01585461013019085 -0.01167972106486559 0 0 0 0
2099255524 0.0974150002002716 0.08315032720565796 0.014155429787933826 -0.014909154735505581 0 0 0 0
2102977608 0.13562162220478058 0.0800517126917839 0.011410290375351906 -0.0178354624658823 0 0 0 0
2106699692 0.17307350039482117 0.06943156570196152 0.0075370511040091515 -0.0203572865575552 0 0 0 0
2110421776 0.2081359326839447 0.052605196833610535 0.002963232807815075 -0.02134418487548828 0 0 0 0
2114143860 0.23917537927627563 0.027893895283341408 -0.0014068037271499634 -0.021081972867250443 0 0 0 0
2117865944 0.26543107628822327 0.0009582638740539551 -0.005210224539041519 -0.02011074870824814 0 0 0 0
2121588028 0.2848115563392639 -0.030484497547149658 -0.009144669398665428 -0.018771259114146233 0 0 0 0
2125310112 0.30035728216171265 -0.05959131568670273 -0.01261918991804123 -0.016462430357933044 0 0 0 0
2129032196 0.3093193769454956 -0.09636123478412628 -0.01580626890063286 -0.013101955875754356 0 0 0 0
2132754280 0.3133787512779236 -0.13099822402000427 -0.018003692850470543 -0.008769508451223373 0 0 0 0
2136476364 0.31288039684295654 -0.16365468502044678 -0.018527179956436157 -0.004105370491743088 0 0 0 0
2140198448 0.3069489002227783 -0.20008176565170288 -0.017463993281126022 4.1287392377853394e-05 0 0 0 0
2143920532 0.2948874533176422 -0.23300158977508545 -0.015353604219853878 0.0029783453792333603 0 0 0 0
2147642616 0.27654528617858887 -0.26335063576698303 -0.013407348655164242 0.005036583170294762 0 0 0 0
2151364700 0.25426211953163147 -0.28945595026016235 -0.011381581425666809 0.006252243183553219 0 0 0 0
2155086784 0.2266426831483841 -0.31210416555404663 -0.009577278047800064 0.006856526248157024 0 0 0 0
2158808868 0.202228382229805 -0.32736942172050476 -0.008184550330042839 0.007108190096914768 0 0 0 0
2162530952 0.1688646376132965 -0.3411737382411957 -0.007314629852771759 0.007069196552038193 0 0 0 0
2166253036 0.13700884580612183 -0.3467342257499695 -0.0070708142593503 0.007339157164096832 0 0 0 0
2169975120 0.10815172642469406 -0.34861379861831665 -0.0070696063339710236 0.008473966270685196 0 0 0 0
2173697204 0.07659609615802765 -0.3464372754096985 -0.005964069627225399 0.010089308954775333 0 0 0 0
2177419288 0.04566236585378647 -0.3383632004261017 -0.004003481008112431 0.011052112095057964 0 0 0 0
2181141372 0.01675448566675186 -0.3278614580631256 -0.0023919623345136642 0.011346246115863323 0 0 0 0
2184863456 -0.006702527403831482 -0.3111961781978607 -0.0010061636567115784 0.011679815128445625 0 0 0 0
2188585540 -0.03282672166824341 -0.29263001680374146 0.0007848255336284637 0.011907675303518772 0 0 0 0
2192307624 -0.05522557348012924 -0.2679140567779541 0.0027863141149282455 0.012151113711297512 0 0 0 0
2196029708 -0.07138991355895996 -0.24022740125656128 0.00511899683624506 0.011718678288161755 0 0 0 0
2199751792 -0.08194679766893387 -0.2115960270166397 0.0072948625311255455 0.01059371791779995 0 0 0 0
2203473876 -0.08923929929733276 -0.17861825227737427 0.009283896535634995 0.008496211841702461 0 0 0 0
2207195960 -0.08978027105331421 -0.14749668538570404 0.010266002267599106 0.006860530935227871 0 0 0 0
2210918044 -0.08558852225542068 -0.11488312482833862 0.010889244265854359 0.004946681670844555 0 0 0 0
2214640128 -0.0746406838297844 -0.08603258430957794 0.01134641282260418 0.0034844307228922844 0 0 0 0
2218362212 -0.061491709202528 -0.057927582412958145 0.011944277212023735 0.0018252143636345863 0 0 0 0
2222084296 -0.04196077212691307 -0.03431156277656555 0.012805452570319176 -2.5277957320213318e-05 0 0 0 0
2225806380 -0.019627174362540245 -0.01285919826477766 0.013199041597545147 -0.0029328931123018265 0 0 0 0
2229528464 0.00657008308917284 0.004863959737122059 0.012676718644797802 -0.006274247542023659 0 0 0 0
2233250548 0.03555624559521675 0.01745993085205555 0.010613258928060532 -0.00951873417943716 0 0 0 0
2236972632 0.06589638441801071 0.023724347352981567 0.0074915457516908646 -0.011681566014885902 0 0 0 0
2240694716 0.09722116589546204 0.023507989943027496 0.004277519881725311 -0.012672459706664085 0 0 0 0
2244416800 0.12830750644207 0.01951112411916256 0.0008309166878461838 -0.012611945159733295 0 0 0 0
2248138884 0.15647000074386597 0.008310430683195591 -0.0018381383270025253 -0.011844365857541561 0 0 0 0
2251860968 0.18116456270217896 -0.010923348367214203 -0.004390420392155647 -0.010263701900839806 0 0 0 0
2255583052 0.20209269225597382 -0.030283987522125244 -0.00552563089877367 -0.008693807758390903 0 0 0 0
2259305136 0.21995368599891663 -0.04863211140036583 -0.006400260142982006 -0.0072256457060575485 0 0 0 0
2263027220 0.22912651300430298 -0.08060801029205322 -0.0073225004598498344 -0.005715450271964073 0 0 0 0
2266749304 0.23851314187049866 -0.09860788285732269 -0.007680272683501244 -0.004166599363088608 0 0 0 0
2270471388 0.23822170495986938 -0.1285790055990219 -0.007681448943912983 -0.002670937217772007 0 0 0 0
2274193472 0.23422706127166748 -0.1538594663143158 -0.007347310893237591 -0.00141146220266819 0 0 0 0
2277915556 0.23273414373397827 -0.174424409866333 -0.006803522817790508 -0.00041184201836586 0 0 0 0
2281637640 0.2220827341079712 -0.19759203493595123 -0.006571189500391483 0.00010270066559314728 0 0 0 0
2285359724 0.20657025277614594 -0.2191077470779419 -0.0063257357105612755 0.0006462512537837029 0 0 0 0
2289081808 0.19048430025577545 -0.23486067354679108 -0.006206400692462921 0.0012997118756175041 0 0 0 0
2292803892 0.17145004868507385 -0.24778002500534058 -0.005760936066508293 0.002013079822063446 0 0 0 0
2296525976 0.14595526456832886 -0.25822681188583374 -0.005332392640411854 0.0023888805881142616 0 0 0 0
2300248060 0.13173964619636536 -0.26038292050361633 -0.00512573029845953 0.002491448074579239 0 0 0 0
2303970144 0.10807379335165024 -0.26665741205215454 -0.005039251409471035 0.0032597044482827187 0 0 0 0
2307692228 0.08394845575094223 -0.26413407921791077 -0.004428226500749588 0.004274114966392517 0 0 0 0
2311414312 0.0628311038017273 -0.2593441307544708 -0.003116542473435402 0.004850523546338081 0 0 0 0
2315136396 0.03701530396938324 -0.2492159605026245 -0.0019329451024532318 0.004414818249642849 0 0 0 0
2318858480 0.020422425121068954 -0.23631252348423004 -0.0010730484500527382 0.0037185167893767357 0 0 0 0
2322580564 -6.768107414245605e-05 -0.2183682769536972 -0.0007329061627388 0.002842242829501629 0 0 0 0
2326302648 -0.017030425369739532 -0.19774039089679718 -0.0006918245926499367 0.002163010649383068 0 0 0 0
2330024732 -0.02442135661840439 -0.17567025125026703 -0.0012526800855994225 0.001534826122224331 0 0 0 0
2333746816 -0.030976053327322006 -0.15193986892700195 -0.0018000239506363869 0.0013434216380119324 0 0 0 0
2337468900 -0.03284280747175217 -0.12679444253444672 -0.00231845211237669 0.0013396358117461205 0 0 0 0
2341190984 -0.028347928076982498 -0.10260900855064392 -0.0029402319341897964 0.0014490243047475815 0 0 0 0
2344913068 -0.022229034453630447 -0.0774732455611229 -0.0035860370844602585 0.0020072581246495247 0 0 0 0
2348635152 -0.011204762384295464 -0.05458102747797966 -0.004237598739564419 0.0030923979356884956 0 0 0 0
2352357236 0.004045016132295132 -0.03478237986564636 -0.004227787256240845 0.004302285611629486 0 0 0 0
2356079320 0.02160734124481678 -0.01740284450352192 -0.003278542309999466 0.005352317355573177 0 0 0 0
2359801404 0.04194077476859093 -0.003164393827319145 -0.002493303269147873 0.005966254509985447 0 0 0 0
2363523488 0.06495965272188187 0.008379900828003883 -0.0014049140736460686 0.006155567243695259 0 0 0 0
2367245572 0.08970677107572556 0.018241379410028458 -0.0009723762050271034 0.00618420634418726 0 0 0 0
2370967656 0.11722451448440552 0.020804256200790405 -0.000551917590200901 0.006087902933359146 0 0 0 0
2374689740 0.1452338695526123 0.01904291659593582 0.00013810116797685623 0.006319824606180191 0 0 0 0
2378411824 0.17154337465763092 0.01170528493821621 0.0007116701453924179 0.006352048367261887 0 0 0 0
2382133908 0.19600912928581238 0.0011536665260791779 0.0013161571696400642 0.006502104923129082 0 0 0 0
2385855992 0.21837013959884644 -0.014404356479644775 0.0020522503182291985 0.006660891696810722 0 0 0 0
2389578076 0.2375626564025879 -0.033778563141822815 0.0027622319757938385 0.0064927274361252785 0 0 0 0
2393300160 0.25195634365081787 -0.05460837483406067 0.003340025432407856 0.006454986520111561 0 0 0 0
2397022244 0.2640506327152252 -0.07593662291765213 0.004328744485974312 0.006860135123133659 0 0 0 0
2400744328 0.2711508870124817 -0.10144741833209991 0.00584215484559536 0.006648006848990917 0 0 0 0
2404466412 0.2761549949645996 -0.12414783984422684 0.007622016593813896 0.006170041859149933 0 0 0 0
2408188496 0.27811476588249207 -0.14932569861412048 0.009210499934852123 0.004708709195256233 0 0 0 0
2411910580 0.27659934759140015 -0.1726444959640503 0.010351914912462234 0.0029214974492788315 0 0 0 0
2415632664 0.27081888914108276 -0.19903413951396942 0.010984683409333229 0.0008688801899552345 0 0 0 0
2419354748 0.2614997327327728 -0.2220476120710373 0.011270871385931969 -0.0012993011623620987 0 0 0 0
2423076832 0.2499619424343109 -0.2463345229625702 0.011172547936439514 -0.003943030722439289 0 0 0 0
2426798916 0.23218002915382385 -0.2689743936061859 0.010124871507287025 -0.005820141173899174 0 0 0 0
2430521000 0.21390309929847717 -0.2838282287120819 0.008758078329265118 -0.007570983842015266 0 0 0 0
2434243084 0.19145318865776062 -0.29941025376319885 0.007241788320243359 -0.008801650255918503 0 0 0 0
2437965168 0.1639266312122345 -0.31293320655822754 0.005445248447358608 -0.00975400023162365 0 0 0 0
2441687252 0.1407414823770523 -0.3175261318683624 0.004183818586170673 -0.010392377153038979 0 0 0 0
2445409336 0.11261726915836334 -0.32241785526275635 0.002744380384683609 -0.010734294541180134 0 0 0 0
2449131420 0.08406113088130951 -0.3218897581100464 0.0010904287919402122 -0.011491689831018448 0 0 0 0
2452853504 0.06127049773931503 -0.3160720467567444 -0.00040786340832710266 -0.01153161283582449 0 0 0 0
2456575588 0.033057454973459244 -0.30852943658828735 -0.0019927648827433586 -0.011794516816735268 0 0 0 0
2460297672 0.00959758460521698 -0.2967797815799713 -0.003796287812292576 -0.011904176324605942 0 0 0 0
2464019756 -0.012947209179401398 -0.28044191002845764 -0.0057118795812129974 -0.011474215425550938 0 0 0 0
2467741840 -0.037976764142513275 -0.26024776697158813 -0.00796810258179903 -0.010836087167263031 0 0 0 0
2471463924 -0.052567560225725174 -0.2379118651151657 -0.009636562317609787 -0.009700472466647625 0 0 0 0
2475186008 -0.06396226584911346 -0.21447846293449402 -0.011296426877379417 -0.008634266443550587 0 0 0 0
2478908092 -0.07432971894741058 -0.1874387264251709 -0.012976621277630329 -0.006940164603292942 0 0 0 0
2482630176 -0.08039043843746185 -0.15984398126602173 -0.01440588291734457 -0.005099360831081867 0 0 0 0
2486352260 -0.08262956142425537 -0.13063204288482666 -0.015774639323353767 -0.0026542209088802338 0 0 0 0
2490074344 -0.07993049174547195 -0.10186991840600967 -0.016661761328577995 0.00011981185525655746 0 0 0 0
2493796428 -0.07153292000293732 -0.07379914820194244 -0.01677704229950905 0.0034009991213679314 0 0 0 0
2497518512 -0.060307424515485764 -0.04660717397928238 -0.015520528890192509 0.006784513592720032 0 0 0 0
2501240596 -0.04381783679127693 -0.023372720927000046 -0.013998562470078468 0.009218394756317139 0 0 0 0
2504962680 -0.024808688089251518 -0.0015462767332792282 -0.011766061186790466 0.011387888342142105 0 0 0 0
2508684764 -0.0023179342970252037 0.016028840094804764 -0.009759357199072838 0.013175200670957565 0 0 0 0
2512406848 0.02164267562329769 0.029656417667865753 -0.0074583617970347404 0.014588281512260437 0 0 0 0
2516128932 0.04817979037761688 0.040615662932395935 -0.004625926725566387 0.01567578688263893 0 0 0 0
2519851016 0.07596132904291153 0.04723074287176132 -0.0014377282932400703 0.016016701236367226 0 0 0 0
2523573100 0.10442618280649185 0.04823974519968033 0.0015504248440265656 0.01586979441344738 0 0 0 0
2527295184 0.1327584683895111 0.04530411958694458 0.004404827952384949 0.014843713492155075 0 0 0 0
2531017268 0.15973839163780212 0.03698967024683952 0.007017622701823711 0.013551594689488411 0 0 0 0
2534739352 0.18295890092849731 0.022844672203063965 0.00954407174140215 0.01143176294863224 0 0 0 0
2538461436 0.20473912358283997 0.009789370000362396 0.011312971822917461 0.009017672389745712 0 0 0 0
2542183520 0.22200849652290344 -0.009395800530910492 0.012525890953838825 0.006046450696885586 0 0 0 0
2545905604 0.23677527904510498 -0.03034854121506214 0.012875184416770935 0.003281473182141781 0 0 0 0
2549627688 0.2484709769487381 -0.050232671201229095 0.012584846466779709 0.00037832465022802353 0 0 0 0
2553349772 0.25833290815353394 -0.07092199474573135 0.011645728722214699 -0.0021153585985302925 0 0 0 0
2557071856 0.2647191286087036 -0.0951186865568161 0.01000230573117733 -0.0041799284517765045 0 0 0 0
2560793940 0.2651779353618622 -0.11803598701953888 0.008232548832893372 -0.005334601737558842 0 0 0 0
2564516024 0.26244616508483887 -0.14072933793067932 0.006814940832555294 -0.0058686258271336555 0 0 0 0
2568238108 0.25657162070274353 -0.1619643270969391 0.0055268025025725365 -0.00662261713296175 0 0 0 0
2571960192 0.24816203117370605 -0.1810254007577896 0.004244501702487469 -0.00687271635979414 0 0 0 0
2575682276 0.2365172803401947 -0.2010924220085144 0.003026191145181656 -0.006919488310813904 0 0 0 0
2579404360 0.2249022126197815 -0.21502362191677094 0.0021330323070287704 -0.006871792487800121 0 0 0 0
2583126444 0.2103918194770813 -0.22764073312282562 0.0012627867981791496 -0.007196125574409962 0 0 0 0
2586848528 0.1952342391014099 -0.23817351460456848 0.00030797719955444336 -0.007531158626079559 0 0 0 0
2590570612 0.17986485362052917 -0.24765345454216003 -0.0010396745055913925 -0.007264264859259129 0 0 0 0
2594292696 0.1594301164150238 -0.2563600540161133 -0.002222388982772827 -0.006760653108358383 0 0 0 0
2598014780 0.1412486732006073 -0.25962528586387634 -0.003121386282145977 -0.006151278503239155 0 0 0 0
2601736864 0.12686005234718323 -0.2613446116447449 -0.0038573015481233597 -0.005726860836148262 0 0 0 0
2605458948 0.10619395226240158 -0.26034367084503174 -0.004509275779128075 -0.00471100490540266 0 0 0 0
2609181032 0.08703020215034485 -0.25656750798225403 -0.00489925779402256 -0.003615092486143112 0 0 0 0
2612903116 0.06897122412919998 -0.2499072253704071 -0.004919051192700863 -0.0028725899755954742 0 0 0 0
2616625200 0.05232779681682587 -0.2393495738506317 -0.004972088150680065 -0.002273058518767357 0 0 0 0
2620347284 0.039265044033527374 -0.2274603545665741 -0.004886532202363014 -0.0016446514055132866 0 0 0 0
2624069368 0.028301414102315903 -0.21329167485237122 -0.004626483656466007 -0.0011922810226678848 0 0 0 0
2627791452 0.02111390233039856 -0.19681721925735474 -0.004421991296112537 -0.0010560844093561172 0 0 0 0
2631513536 0.015026502311229706 -0.18073993921279907 -0.0046550557017326355 -0.0011082133278250694 0 0 0 0
2635235620 0.012934507802128792 -0.16292612254619598 -0.00503859668970108 -0.0005662078037858009 0 0 0 0
2638957704 0.014674205332994461 -0.14823779463768005 -0.005036540329456329 0.00011494103819131851 0 0 0 0
2642679788 0.017993900924921036 -0.1315867006778717 -0.005042392760515213 0.0008894111961126328 0 0 0 0
2646401872 0.02561284974217415 -0.11733673512935638 -0.0047972360625863075 0.001360415481030941 0 0 0 0
2650123956 0.034842099994421005 -0.10519666969776154 -0.0043685557320714 0.0022345706820487976 0 0 0 0
2653846040 0.04505084455013275 -0.09577431529760361 -0.0037126876413822174 0.002889365889132023 0 0 0 0
2657568124 0.05854002758860588 -0.0876854658126831 -0.0029748762026429176 0.002929563634097576 0 0 0 0
2661290208 0.07215704768896103 -0.0834898129105568 -0.00257953442633152 0.0029121562838554382 0 0 0 0
2665012292 0.08602578192949295 -0.08354604244232178 -0.002267570234835148 0.003149714320898056 0 0 0 0
2668734376 0.09828104823827744 -0.0864645391702652 -0.0018291408196091652 0.0033210739493370056 0 0 0 0
2672456460 0.11120107024908066 -0.08951133489608765 -0.0013851886615157127 0.0033205514773726463 0 0 0 0
2676178544 0.12066555768251419 -0.09830104559659958 -0.000934709794819355 0.003443063236773014 0 0 0 0
2679900628 0.13017915189266205 -0.10673505067825317 -0.0005547814071178436 0.0036294041201472282 0 0 0 0
2683622712 0.135635644197464 -0.11767315864562988 0.0003113914281129837 0.0035862643271684647 0 0 0 0
2687344796 0.13815689086914062 -0.12885859608650208 0.0009603295475244522 0.003227023407816887 0 0 0 0
2691066880 0.14031434059143066 -0.14051564037799835 0.0014177951961755753 0.00266933161765337 0 0 0 0
2694788964 0.1372336447238922 -0.15378981828689575 0.0017456384375691414 0.002460828050971031 0 0 0 0
2698511048 0.13397035002708435 -0.16516385972499847 0.0021660039201378822 0.002136959694325924 0 0 0 0
2702233132 0.1281343549489975 -0.1750107854604721 0.0027011241763830185 0.001531217247247696 0 0 0 0
2705955216 0.12005831301212311 -0.18410031497478485 0.0027208421379327774 0.0007393602281808853 0 0 0 0
2709677300 0.10641986131668091 -0.19427834451198578 0.002563818357884884 -2.734363079071045e-05 0 0 0 0
2713399384 0.09541647136211395 -0.19977621734142303 0.0024209516122937202 -0.0005182242020964622 0 0 0 0
2717121468 0.080396868288517 -0.20218801498413086 0.0018866676837205887 -0.000883171334862709 0 0 0 0
2720843552 0.06449417769908905 -0.20313212275505066 0.0017127273604273796 -0.0011018738150596619 0 0 0 0
2724565636 0.050168849527835846 -0.19981712102890015 0.0013573095202445984 -0.0012331409379839897 0 0 0 0
2728287720 0.03556685894727707 -0.19426044821739197 0.0010860273614525795 -0.0014780033379793167 0 0 0 0
2732009804 0.019999239593744278 -0.18553774058818817 0.0008012121543288231 -0.001588878221809864 0 0 0 0
2735731888 0.00916617177426815 -0.17333514988422394 0.00045055709779262543 -0.0016042878851294518 0 0 0 0
2739453972 -0.001217566430568695 -0.15941008925437927 8.885283023118973e-05 -0.0015073958784341812 0 0 0 0
2743176056 -0.011228801682591438 -0.14239278435707092 -8.309353142976761e-05 -0.0010265326127409935 0 0 0 0
2746898140 -0.015058008953928947 -0.12339504063129425 0.00023436732590198517 -0.000548006035387516 0 0 0 0
2750620224 -0.015641991049051285 -0.1034538522362709 0.0008282093331217766 -0.000777876004576683 0 0 0 0
2754342308 -0.012605180963873863 -0.08363541960716248 0.0011672154068946838 -0.0014008218422532082 0 0 0 0
2758064392 -0.007240300998091698 -0.06561100482940674 0.0008167074993252754 -0.0022050468251109123 0 0 0 0
2761786476 0.002469697967171669 -0.04918603226542473 0.00024857837706804276 -0.0026608407497406006 0 0 0 0
2765508560 0.013222579844295979 -0.03383117914199829 -0.0006381087005138397 -0.0027506500482559204 0 0 0 0
2769230644 0.026249708607792854 -0.019401267170906067 -0.0012326408177614212 -0.0023085949942469597 0 0 0 0
2772952728 0.04217131435871124 -0.0066513679921627045 -0.001614125445485115 -0.001959472894668579 0 0 0 0
2776674812 0.06081003695726395 0.003386039286851883 -0.001864205114543438 -0.0014193188399076462 0 0 0 0
2780396896 0.08217331022024155 0.011202158406376839 -0.001721387729048729 -0.0007774224504828453 0 0 0 0
2784118980 0.10424521565437317 0.013772446662187576 -0.0015239082276821136 -0.0005139000713825226 0 0 0 0
2787841064 0.12704771757125854 0.013664750382304192 -0.00118967704474926 -0.00013022217899560928 0 0 0 0
2791563148 0.14960920810699463 0.008595189079642296 -0.0007959911599755287 -0.00021109078079462051 0 0 0 0
2795285232 0.17098109424114227 0.0030562281608581543 -0.0005153575912117958 -0.0005258489400148392 0 0 0 0
2799007316 0.19168776273727417 -0.00791575014591217 -0.0005964199081063271 -0.0007776841521263123 0 0 0 0
2802729400 0.2107839584350586 -0.0232272669672966 -0.0007182974368333817 -0.0009267320856451988 0 0 0 0
2806451484 0.2276851236820221 -0.0435473769903183 -0.0011240486055612564 -0.0010620355606079102 0 0 0 0
2810173568 0.24158868193626404 -0.06049761176109314 -0.001581571064889431 -0.0008139237761497498 0 0 0 0
2813895652 0.2504409849643707 -0.08531695604324341 -0.0017300639301538467 -0.0003566322848200798 0 0 0 0
2817617736 0.2584629952907562 -0.1085699275135994 -0.001652880571782589 0.00018265098333358765 0 0 0 0
2821339820 0.25970959663391113 -0.13524912297725677 -0.0015812991186976433 0.0004628291353583336 0 0 0 0
2825061904 0.2582583427429199 -0.16007423400878906 -0.0015022465959191322 0.0009080581367015839 0 0 0 0
2828783988 0.25382593274116516 -0.1825641393661499 -0.0009618066251277924 0.0015061404556035995 0 0 0 0
2832506072 0.24323932826519012 -0.20558777451515198 -8.678622543811798e-05 0.0016868440434336662 0 0 0 0
2836228156 0.23325267434120178 -0.22606587409973145 0.000626714900135994 0.0015179561451077461 0 0 0 0
2839950240 0.2209262102842331 -0.24351049959659576 0.0012920256704092026 0.000980304554104805 0 0 0 0
2843672324 0.20560401678085327 -0.2620721459388733 0.0015546958893537521 0.000234946608543396 0 0 0 0
2847394408 0.18471843004226685 -0.278164267539978 0.001628020778298378 -0.0005125058814883232 0 0 0 0
2851116492 0.16833136975765228 -0.28990602493286133 0.0012549683451652527 -0.0009824344888329506 0 0 0 0
2854838576 0.1459345817565918 -0.3012911379337311 0.0010147122666239738 -0.0014070747420191765 0 0 0 0
2858560660 0.12876248359680176 -0.3085125684738159 0.0007830969989299774 -0.0019394466653466225 0 0 0 0
2862282744 0.09834687411785126 -0.31592193245887756 0.00010799150913953781 -0.002067006193101406 0 0 0 0
2866004828 0.07881288230419159 -0.3163045048713684 -0.00033291522413492203 -0.001863451674580574 0 0 0 0
2869726912 0.05730602890253067 -0.31611424684524536 -0.0005288617685437202 -0.0016080979257822037 0 0 0 0
2873448996 0.03488051891326904 -0.3114340305328369 -0.0006032194942235947 -0.00133541040122509 0 0 0 0
2877171080 0.012695543467998505 -0.30527982115745544 -0.0006598187610507011 -0.0012203287333250046 0 0 0 0
2880893164 -0.011944077908992767 -0.29574641585350037 -0.0006532669067382812 -0.0010070893913507462 0 0 0 0
2884615248 -0.03142091631889343 -0.2841494083404541 -0.0007098531350493431 -0.0010168477892875671 0 0 0 0
2888337332 -0.054730840027332306 -0.2684236466884613 -0.0009196652099490166 -0.0008509475737810135 0 0 0 0
2892059416 -0.07294324785470963 -0.25226861238479614 -0.0009033177047967911 -0.0006762836128473282 0 0 0 0
2895781500 -0.08633648604154587 -0.2328336387872696 -0.0009259777143597603 -0.0005096374079585075 0 0 0 0
2899503584 -0.09939538687467575 -0.2108481526374817 -0.0009406432509422302 -0.00035735033452510834 0 0 0 0
2903225668 -0.11091219633817673 -0.1875407099723816 -0.000948593020439148 -0.0001712469384074211 0 0 0 0
2906947752 -0.11971043795347214 -0.1626189649105072 -0.0009494516998529434 3.7765130400657654e-06 0 0 0 0
2910669836 -0.12306076288223267 -0.13518008589744568 -0.0008730832487344742 8.702464401721954e-05 0 0 0 0
2914391920 -0.12409846484661102 -0.10753899812698364 -0.0009627053514122963 0.0005411431193351746 0 0 0 0
2918114004 -0.11957721412181854 -0.0811486542224884 -0.0008051516488194466 0.0009026061743497849 0 0 0 0
2921836088 -0.11211461573839188 -0.056413356214761734 -0.00047050416469573975 0.0012547709047794342 0 0 0 0
2925558172 -0.10232196748256683 -0.03209489956498146 -7.759872823953629e-05 0.0012847278267145157 0 0 0 0
2929280256 -0.08901151269674301 -0.010081913322210312 0.00023031886667013168 0.001364908181130886 0 0 0 0
2933002340 -0.07331183552742004 0.011291980743408203 0.0004873378202319145 0.0015100566670298576 0 0 0 0
2936724424 -0.05527041107416153 0.029931560158729553 0.000945541076362133 0.0015488872304558754 0 0 0 0
2940446508 -0.03482713922858238 0.04622461274266243 0.0012572463601827621 0.0016205497086048126 0 0 0 0
2944168592 -0.01220006588846445 0.060378942638635635 0.001867753453552723 0.0013438202440738678 0 0 0 0
2947890676 0.011728612706065178 0.07145155221223831 0.0021531488746404648 0.0011668428778648376 0 0 0 0
2951612760 0.03911548852920532 0.07898364216089249 0.0024050045758485794 0.0009025037288665771 0 0 0 0
2955334844 0.06506955623626709 0.08415620774030685 0.0027331234887242317 0.0006098384037613869 0 0 0 0
2959056928 0.09237312525510788 0.084535151720047 0.0030374079942703247 0.00015519745647907257 0 0 0 0
2962779012 0.11994872242212296 0.08117314428091049 0.0034396089613437653 -0.0002993745729327202 0 0 0 0
2966501096 0.1477668136358261 0.07256630063056946 0.0036994032561779022 -0.0009456593543291092 0 0 0 0
2970223180 0.17177242040634155 0.0630931556224823 0.003536785952746868 -0.0017984025180339813 0 0 0 0
2973945264 0.19525465369224548 0.047602977603673935 0.0030127232894301414 -0.0024875858798623085 0 0 0 0
2977667348 0.2171066552400589 0.02914813533425331 0.0025428878143429756 -0.002837207168340683 0 0 0 0
2981389432 0.23423969745635986 0.008397173136472702 0.001930350437760353 -0.0030985353514552116 0 0 0 0
2985111516 0.24783341586589813 -0.01394449733197689 0.0013705119490623474 -0.0034194672480225563 0 0 0 0
2988833600 0.2590266466140747 -0.038464732468128204 0.0009145895019173622 -0.003422941081225872 0 0 0 0
2992555684 0.265313982963562 -0.06488875299692154 0.0003156736493110657 -0.003393106162548065 0 0 0 0
2996277768 0.26842498779296875 -0.08894012868404388 -0.0001858435571193695 -0.0031961696222424507 0 0 0 0
2999999852 0.2712172865867615 -0.11033192276954651 -0.0008772136643528938 -0.0028150593861937523 0 0 0 0
