# HZ S RI R 50
1500000000 -0.008129632100462914 -0.033801157027482986 0.026902755722403526 -0.02598406746983528 0 0 0 0
1503722084 0.003911762498319149 -0.02657962590456009 0.021667595952749252 -0.0293898768723011 0 0 0 0
1507444168 0.01870189607143402 -0.020791204646229744 0.01670192927122116 -0.031472548842430115 0 0 0 0
1511166252 0.034980714321136475 -0.016665752977132797 0.012700369581580162 -0.03296489641070366 0 0 0 0
1514888336 0.05323746055364609 -0.014181611128151417 0.00825074128806591 -0.0355728343129158 0 0 0 0
1518610420 0.07212615013122559 -0.014170151203870773 0.0016968529671430588 -0.037637077271938324 0 0 0 0
1522332504 0.09098058938980103 -0.01570814847946167 -0.006205103360116482 -0.037237294018268585 0 0 0 0
1526054588 0.1116766631603241 -0.018267709761857986 -0.013139531016349792 -0.03413480147719383 0 0 0 0
1529776672 0.1339140236377716 -0.023113131523132324 -0.017907585948705673 -0.029732342809438705 0 0 0 0
1533498756 0.1574314683675766 -0.03127370774745941 -0.02162531577050686 -0.0252770334482193 0 0 0 0
1537220840 0.1813376247882843 -0.04385743290185928 -0.024415845051407814 -0.02046160213649273 0 0 0 0
1540942924 0.20647068321704865 -0.06059962511062622 -0.02607390470802784 -0.015800841152668 0 0 0 0
1544665008 0.22968131303787231 -0.08349689841270447 -0.02699391543865204 -0.011045854538679123 0 0 0 0
1548387092 0.24905627965927124 -0.11190057545900345 -0.027423303574323654 -0.006702937185764313 0 0 0 0
1552109176 0.2642401158809662 -0.14340579509735107 -0.02702038735151291 -0.002103765495121479 0 0 0 0
1555831260 0.2765374779701233 -0.1763598471879959 -0.02587800659239292 0.0018891198560595512 0 0 0 0
1559553344 0.28354305028915405 -0.2123783528804779 -0.024237219244241714 0.005237954668700695 0 0 0 0
1563275428 0.28034844994544983 -0.25410786271095276 -0.02234572544693947 0.008624792098999023 0 0 0 0
1566997512 0.2766927480697632 -0.2904888391494751 -0.01995137706398964 0.011575743556022644 0 0 0 0
1570719596 0.26556411385536194 -0.3284757435321808 -0.016780918464064598 0.014025010168552399 0 0 0 0
1574441680 0.24900957942008972 -0.3666260838508606 -0.013246106915175915 0.015396518632769585 0 0 0 0
1578163764 0.23100093007087708 -0.4038597345352173 -0.010306687094271183 0.015640178695321083 0 0 0 0
1581885848 0.2050708681344986 -0.4395226836204529 -0.007749165408313274 0.01574643701314926 0 0 0 0
1585607932 0.169925257563591 -0.4732116460800171 -0.005564461462199688 0.01540769636631012 0 0 0 0
1589330016 0.12934310734272003 -0.5022552013397217 -0.003522164188325405 0.01501998957246542 0 0 0 0
1593052100 0.08090215921401978 -0.5249411463737488 -0.002002554014325142 0.014464628882706165 0 0 0 0
1596774184 0.030177026987075806 -0.5396409034729004 -0.0008279448375105858 0.014084809459745884 0 0 0 0
1600496268 -0.022501319646835327 -0.5458207726478577 0.00035677477717399597 0.014157155528664589 0 0 0 0
1604218352 -0.07304718345403671 -0.5451631546020508 0.0018559545278549194 0.014303472824394703 0 0 0 0
1607940436 -0.12485961616039276 -0.5375952124595642 0.0038198092952370644 0.014039543457329273 0 0 0 0
1611662520 -0.17976337671279907 -0.5235031247138977 0.005720456130802631 0.0136333666741848 0 0 0 0
1615384604 -0.2346765249967575 -0.5000617504119873 0.007905839942395687 0.012916226871311665 0 0 0 0
1619106688 -0.28565242886543274 -0.4693262577056885 0.01012284867465496 0.011703049764037132 0 0 0 0
1622828772 -0.33420228958129883 -0.42726412415504456 0.012040223926305771 0.00979453232139349 0 0 0 0
1626550856 -0.3767043352127075 -0.3793412446975708 0.013310275040566921 0.007606763392686844 0 0 0 0
1630272940 -0.41192537546157837 -0.3206350803375244 0.014241935685276985 0.005065012723207474 0 0 0 0
1633995024 -0.4392727315425873 -0.25728657841682434 0.014613858424127102 0.0026766518130898476 0 0 0 0
1637717108 -0.4556698203086853 -0.18781843781471252 0.01462329737842083 0.0002016490325331688 0 0 0 0
1641439192 -0.46131765842437744 -0.11621326208114624 0.014322489500045776 -0.002268054522573948 0 0 0 0
1645161276 -0.4568105936050415 -0.042483240365982056 0.013448812067508698 -0.004883095622062683 0 0 0 0
1648883360 -0.4400237202644348 0.03136588633060455 0.011747484095394611 -0.0069842953234910965 0 0 0 0
1652605444 -0.40997111797332764 0.10238631814718246 0.009907737374305725 -0.008356094360351562 0 0 0 0
1656327528 -0.36697524785995483 0.17084380984306335 0.008085568435490131 -0.009280413389205933 0 0 0 0
1660049612 -0.314512699842453 0.22967684268951416 0.006679288111627102 -0.00978731457144022 0 0 0 0
1663771696 -0.25068381428718567 0.280422180891037 0.005425861105322838 -0.010583882220089436 0 0 0 0
1667493780 -0.1796388030052185 0.32166942954063416 0.0035012410953640938 -0.011372307315468788 0 0 0 0
1671215864 -0.10163871943950653 0.3505473732948303 0.001470254734158516 -0.011499183252453804 0 0 0 0
1674937948 -0.019265681505203247 0.3666629195213318 -0.0004162229597568512 -0.011451631784439087 0 0 0 0
1678660032 0.06272543966770172 0.37027156352996826 -0.0024629607796669006 -0.010895391926169395 0 0 0 0
1682382116 0.14669454097747803 0.3588368892669678 -0.0042896149680018425 -0.009618308395147324 0 0 0 0
1686104200 0.22794081270694733 0.3345094323158264 -0.005540630780160427 -0.008252176456153393 0 0 0 0
1689826284 0.30121275782585144 0.29975754022598267 -0.0063699036836624146 -0.006933180615305901 0 0 0 0
1693548368 0.3716790974140167 0.24879616498947144 -0.007209709845483303 -0.005307042971253395 0 0 0 0
1697270452 0.42984458804130554 0.1934833973646164 -0.007318132556974888 -0.0035994481295347214 0 0 0 0
1700992536 0.4796382784843445 0.12831947207450867 -0.0068547166883945465 -0.002094424329698086 0 0 0 0
1704714620 0.5181378722190857 0.05299010127782822 -0.006110865622758865 -0.0010271323844790459 0 0 0 0
1708436704 0.543726921081543 -0.023410066962242126 -0.005206002853810787 -0.0005759848281741142 0 0 0 0
1712158788 0.5581164360046387 -0.100071981549263 -0.004710945300757885 -0.0003988230600953102 0 0 0 0
1715880872 0.5582906603813171 -0.18071606755256653 -0.004448411054909229 -0.00037100352346897125 0 0 0 0
1719602956 0.5467427372932434 -0.25756245851516724 -0.004297587089240551 -0.00027990806847810745 0 0 0 0
1723325040 0.5239870548248291 -0.33581286668777466 -0.004177742637693882 -0.00027325283735990524 0 0 0 0
1727047124 0.49227288365364075 -0.40390029549598694 -0.0044016409665346146 -0.0002552065998315811 0 0 0 0
1730769208 0.4491293430328369 -0.46637070178985596 -0.004670049995183945 4.299543797969818e-05 0 0 0 0
1734491292 0.39550352096557617 -0.523795485496521 -0.00468797329813242 0.0006487658247351646 0 0 0 0
1738213376 0.33618879318237305 -0.5695507526397705 -0.0043630581349134445 0.0010973578318953514 0 0 0 0
1741935460 0.2751207649707794 -0.6058149337768555 -0.004083402454853058 0.0008053351193666458 0 0 0 0
1745657544 0.20376813411712646 -0.6325699687004089 -0.004604683257639408 0.0005231425166130066 0 0 0 0
1749379628 0.12992128729820251 -0.6480753421783447 -0.00540995504707098 0.000838584266602993 0 0 0 0
1753101712 0.058329902589321136 -0.6506352424621582 -0.0061592236161231995 0.0016535790637135506 0 0 0 0
1756823796 -0.012708187103271484 -0.6444286108016968 -0.0068502407521009445 0.0026880651712417603 0 0 0 0
1760545880 -0.07694672793149948 -0.6263623237609863 -0.0073258839547634125 0.00425375159829855 0 0 0 0
1764267964 -0.14138175547122955 -0.5982503890991211 -0.00728232879191637 0.006332033313810825 0 0 0 0
1767990048 -0.20393934845924377 -0.5592300891876221 -0.00616447813808918 0.00838552601635456 0 0 0 0
1771712132 -0.2510925829410553 -0.5169389843940735 -0.004546070471405983 0.009877360425889492 0 0 0 0
1775434216 -0.2935517430305481 -0.46540242433547974 -0.0027784043923020363 0.010807681828737259 0 0 0 0
1779156300 -0.3271709084510803 -0.41059404611587524 -0.0009100101888179779 0.011431782506406307 0 0 0 0
1782878384 -0.35290002822875977 -0.35211002826690674 0.0008450504392385483 0.011609484441578388 0 0 0 0
1786600468 -0.37200281023979187 -0.28840792179107666 0.002374761737883091 0.01170150563120842 0 0 0 0
1790322552 -0.37786275148391724 -0.22468997538089752 0.004168047569692135 0.011969427578151226 0 0 0 0
1794044636 -0.3751790225505829 -0.1618344634771347 0.006407109089195728 0.01173939649015665 0 0 0 0
1797766720 -0.36224186420440674 -0.10090652108192444 0.008496342226862907 0.01106505747884512 0 0 0 0
1801488804 -0.3396441638469696 -0.04476240277290344 0.010387420654296875 0.010175335220992565 0 0 0 0
1805210888 -0.31111985445022583 0.008188629522919655 0.012367762625217438 0.008966347202658653 0 0 0 0
1808932972 -0.27531811594963074 0.05584751069545746 0.014547262340784073 0.007572346366941929 0 0 0 0
1812655056 -0.23376302421092987 0.09569211304187775 0.0167763102799654 0.005489744246006012 0 0 0 0
1816377140 -0.18439045548439026 0.13130851089954376 0.01867138035595417 0.002513808198273182 0 0 0 0
1820099224 -0.13287825882434845 0.15621814131736755 0.020208002999424934 -0.0008127652108669281 0 0 0 0
1823821308 -0.0769805759191513 0.17276780307292938 0.020750349387526512 -0.005505315959453583 0 0 0 0
1827543392 -0.01934412121772766 0.18040987849235535 0.01992633007466793 -0.00962173379957676 0 0 0 0
1831265476 0.036114513874053955 0.17755722999572754 0.01839958131313324 -0.013479016721248627 0 0 0 0
1834987560 0.08924902975559235 0.16493360698223114 0.01642794907093048 -0.017625438049435616 0 0 0 0
1838709644 0.1384333372116089 0.1451474279165268 0.012810861691832542 -0.021803470328450203 0 0 0 0
1842431728 0.1822325438261032 0.11916359513998032 0.008077609352767467 -0.024510104209184647 0 0 0 0
1846153812 0.22002072632312775 0.08758748322725296 0.002968716435134411 -0.025904536247253418 0 0 0 0
1849875896 0.25098878145217896 0.04938551038503647 -0.002084575593471527 -0.02601861208677292 0 0 0 0
1853597980 0.27466511726379395 0.01054962445050478 -0.007097426801919937 -0.025085099041461945 0 0 0 0
1857320064 0.2912037968635559 -0.02985227108001709 -0.011419824324548244 -0.023225178942084312 0 0 0 0
1861042148 0.3011769652366638 -0.07487331330776215 -0.015316594392061234 -0.02111165039241314 0 0 0 0
1864764232 0.3044064939022064 -0.11783209443092346 -0.01895422674715519 -0.018518861383199692 0 0 0 0
1868486316 0.3006000816822052 -0.1591307371854782 -0.022274013608694077 -0.01524129044264555 0 0 0 0
1872208400 0.29050132632255554 -0.19858010113239288 -0.025455240160226822 -0.01159130223095417 0 0 0 0
1875930484 0.2749944031238556 -0.23277020454406738 -0.02808421105146408 -0.006560627371072769 0 0 0 0
1879652568 0.25004827976226807 -0.2683451771736145 -0.02939649485051632 -0.0005179448053240776 0 0 0 0
1883374652 0.223635733127594 -0.29340285062789917 -0.029212892055511475 0.005507819354534149 0 0 0 0
1887096736 0.19611380994319916 -0.3132155239582062 -0.02737497352063656 0.011336332187056541 0 0 0 0
1890818820 0.1648012399673462 -0.3277074694633484 -0.02432689629495144 0.016288304701447487 0 0 0 0
1894540904 0.1337404102087021 -0.3363440930843353 -0.02077465131878853 0.020205281674861908 0 0 0 0
1898262988 0.10245479643344879 -0.34033265709877014 -0.016834549605846405 0.02319599874317646 0 0 0 0
1901985072 0.07038915902376175 -0.3401941657066345 -0.012476971372961998 0.025843674317002296 0 0 0 0
1905707156 0.03879189491271973 -0.3319742977619171 -0.00777563638985157 0.027284760028123856 0 0 0 0
1909429240 0.013141319155693054 -0.3219571113586426 -0.003134859725832939 0.028428226709365845 0 0 0 0
1913151324 -0.010934121906757355 -0.3067552447319031 0.0017295237630605698 0.028964553028345108 0 0 0 0
1916873408 -0.03363583981990814 -0.2881438136100769 0.007504097186028957 0.028410332277417183 0 0 0 0
1920595492 -0.05364431440830231 -0.2659780979156494 0.012841230258345604 0.026629174128174782 0 0 0 0
1924317576 -0.0650368183851242 -0.24242864549160004 0.017517730593681335 0.02442556992173195 0 0 0 0
1928039660 -0.07651644945144653 -0.21639366447925568 0.02270355448126793 0.021079065278172493 0 0 0 0
1931761744 -0.07976526021957397 -0.18969391286373138 0.02719041518867016 0.016305670142173767 0 0 0 0
1935483828 -0.08009406924247742 -0.16051740944385529 0.03052148036658764 0.00893525779247284 0 0 0 0
1939205912 -0.07498142123222351 -0.1329035758972168 0.030653657391667366 0.0013197129592299461 0 0 0 0
1942927996 -0.06443484127521515 -0.10743947327136993 0.028546573594212532 -0.005012786015868187 0 0 0 0
1946650080 -0.04889482259750366 -0.08514636009931564 0.02574416808784008 -0.009596358053386211 0 0 0 0
1950372164 -0.030502265319228172 -0.06490650027990341 0.02267894707620144 -0.013534698635339737 0 0 0 0
1954094248 -0.008321726694703102 -0.04849791154265404 0.019532296806573868 -0.01653127931058407 0 0 0 0
1957816332 0.016913294792175293 -0.03728119656443596 0.016093501821160316 -0.019257841631770134 0 0 0 0
1961538416 0.0435461550951004 -0.03192184120416641 0.011926739476621151 -0.021480638533830643 0 0 0 0
1965260500 0.07082068175077438 -0.030489394441246986 0.007864393293857574 -0.023024000227451324 0 0 0 0
1968982584 0.0958024263381958 -0.036877959966659546 0.0037043634802103043 -0.023490523919463158 0 0 0 0
1972704668 0.11951445788145065 -0.04532121121883392 -0.000258076936006546 -0.023671917617321014 0 0 0 0
1976426752 0.13979563117027283 -0.058332789689302444 -0.004483545199036598 -0.022923747077584267 0 0 0 0
1980148836 0.1584520787000656 -0.0735795795917511 -0.008244567550718784 -0.021639294922351837 0 0 0 0
1983870920 0.17480258643627167 -0.09149424731731415 -0.0121427271515131 -0.019979804754257202 0 0 0 0
1987593004 0.1876206398010254 -0.11390130966901779 -0.015926457941532135 -0.017128827050328255 0 0 0 0
1991315088 0.19454529881477356 -0.13908836245536804 -0.019109589979052544 -0.01333676092326641 0 0 0 0
1995037172 0.19603750109672546 -0.16492325067520142 -0.02041439898312092 -0.008909069001674652 0 0 0 0
1998759256 0.1935327798128128 -0.18930067121982574 -0.020874401554465294 -0.005121720023453236 0 0 0 0
2002481340 0.18796813488006592 -0.21118292212486267 -0.020845793187618256 -0.0017733816057443619 0 0 0 0
2006203424 0.18007215857505798 -0.23167435824871063 -0.02064128965139389 0.001593010500073433 0 0 0 0
2009925508 0.16359111666679382 -0.25335338711738586 -0.019630862399935722 0.005116523243486881 0 0 0 0
2013647592 0.1452793926000595 -0.2695634365081787 -0.017687933519482613 0.008010218851268291 0 0 0 0
2017369676 0.1249004378914833 -0.28319206833839417 -0.01606571115553379 0.010169446468353271 0 0 0 0
2021091760 0.10350321978330612 -0.2925814688205719 -0.014165615662932396 0.011785886250436306 0 0 0 0
2024813844 0.08203677088022232 -0.2993597388267517 -0.012493995949625969 0.013314297422766685 0 0 0 0
2028535928 0.05299173295497894 -0.3015472888946533 -0.011136035434901714 0.015074317343533039 0 0 0 0
2032258012 0.030085060745477676 -0.29958653450012207 -0.00901210680603981 0.017302459105849266 0 0 0 0
2035980096 0.003630518913269043 -0.29380494356155396 -0.006293562240898609 0.01911352574825287 0 0 0 0
2039702180 -0.018607214093208313 -0.28259286284446716 -0.002936726436018944 0.020262975245714188 0 0 0 0
2043424264 -0.0434274896979332 -0.266549676656723 0.0004559643566608429 0.020598340779542923 0 0 0 0
2047146348 -0.06415703892707825 -0.24606114625930786 0.004450968466699123 0.02041788585484028 0 0 0 0
2050868432 -0.07954597473144531 -0.2238280177116394 0.007434273138642311 0.01869037002325058 0 0 0 0
2054590516 -0.09203581511974335 -0.19686532020568848 0.009546326473355293 0.017150798812508583 0 0 0 0
2058312600 -0.09951276332139969 -0.16897325217723846 0.011661700904369354 0.016299337148666382 0 0 0 0
2062034684 -0.10250238329172134 -0.14058324694633484 0.01468597911298275 0.014720886014401913 0 0 0 0
2065756768 -0.1037047728896141 -0.11009465903043747 0.017378851771354675 0.012362897396087646 0 0 0 0
2069478852 -0.09801509976387024 -0.07891884446144104 0.01997271738946438 0.009229730814695358 0 0 0 0
2073200936 -0.08625729382038116 -0.04869092255830765 0.021721143275499344 0.005772842094302177 0 0 0 0
2076923020 -0.06938966363668442 -0.0202900730073452 0.02323012240231037 0.0015330221503973007 0 0 0 0
2080645104 -0.04747415706515312 0.004373532719910145 0.02352757379412651 -0.0031730681657791138 0 0 0 0
2084367188 -0.02170424535870552 0.025521203875541687 0.022173089906573296 -0.008802635595202446 0 0 0 0
2088089272 0.007771206088364124 0.042515385895967484 0.019124740734696388 -0.01284996047616005 0 0 0 0
2091811356 0.03990927338600159 0.053210530430078506 0.015412522479891777 -0.015953948721289635 0 0 0 0
2095533440 0.07283944636583328 0.05840993672609329 0.01149420253932476 -0.01774653233587742 0 0 0 0
2099255524 0.10626983642578125 0.059055179357528687 0.007409832440316677 -0.018493104726076126 0 0 0 0
2102977608 0.13940873742103577 0.055695511400699615 0.0042693521827459335 -0.018075518310070038 0 0 0 0
2106699692 0.17328356206417084 0.04466080665588379 0.0020813746377825737 -0.017893986776471138 0 0 0 0
2110421776 0.20433439314365387 0.02775024250149727 -1.97654590010643e-05 -0.018072696402668953 0 0 0 0
2114143860 0.23134049773216248 0.006672628223896027 -0.0025471625849604607 -0.018526069819927216 0 0 0 0
2117865944 0.25454795360565186 -0.01923656463623047 -0.005805797874927521 -0.01855148933827877 0 0 0 0
2121588028 0.27105119824409485 -0.04855651408433914 -0.009504815563559532 -0.017549294978380203 0 0 0 0
2125310112 0.283762663602829 -0.0789637565612793 -0.012737576849758625 -0.015748292207717896 0 0 0 0
2129032196 0.2902453541755676 -0.11046446114778519 -0.015746094286441803 -0.013016890734434128 0 0 0 0
2132754280 0.29230284690856934 -0.1400565505027771 -0.018210936337709427 -0.009611641988158226 0 0 0 0
2136476364 0.28781837224960327 -0.17158327996730804 -0.01952272467315197 -0.005433476530015469 0 0 0 0
2140198448 0.27869173884391785 -0.20224380493164062 -0.019454456865787506 -0.0011267410591244698 0 0 0 0
2143920532 0.2662370204925537 -0.22834010422229767 -0.018369341269135475 0.002396112307906151 0 0 0 0
2147642616 0.25136756896972656 -0.2522173225879669 -0.01665828935801983 0.004771998152136803 0 0 0 0
2151364700 0.23173557221889496 -0.27340567111968994 -0.01547494251281023 0.006561389192938805 0 0 0 0
2155086784 0.2096497118473053 -0.2924734354019165 -0.014247938059270382 0.008623228408396244 0 0 0 0
2158808868 0.18718063831329346 -0.3037065863609314 -0.012926287949085236 0.01025872491300106 0 0 0 0
2162530952 0.1607852727174759 -0.31470271944999695 -0.011769982986152172 0.012117019854485989 0 0 0 0
2166253036 0.13644933700561523 -0.31982216238975525 -0.009936720132827759 0.014284676872193813 0 0 0 0
2169975120 0.10806361585855484 -0.32269448041915894 -0.007282736711204052 0.016086192801594734 0 0 0 0
2173697204 0.08276038616895676 -0.32111430168151855 -0.004144097678363323 0.01705569215118885 0 0 0 0
2177419288 0.056866150349378586 -0.31723353266716003 -0.0008961856365203857 0.01726054586470127 0 0 0 0
2181141372 0.031141355633735657 -0.30961641669273376 0.0017276862636208534 0.016804806888103485 0 0 0 0
2184863456 0.009179424494504929 -0.2958712875843048 0.004433313384652138 0.01601673848927021 0 0 0 0
2188585540 -0.014423057436943054 -0.27904456853866577 0.0067216819152235985 0.015148483216762543 0 0 0 0
2192307624 -0.034419916570186615 -0.2572954595088959 0.009325271472334862 0.013716178014874458 0 0 0 0
2196029708 -0.049518901854753494 -0.23318392038345337 0.011397240683436394 0.011913105845451355 0 0 0 0
2199751792 -0.05945213884115219 -0.20689015090465546 0.01344094518572092 0.010044671595096588 0 0 0 0
2203473876 -0.06383759528398514 -0.1781250536441803 0.015517868101596832 0.007178911007940769 0 0 0 0
2207195960 -0.06318645924329758 -0.15203146636486053 0.016650637611746788 0.0037908563390374184 0 0 0 0
2210918044 -0.05720654875040054 -0.12733159959316254 0.016337163746356964 -0.00039705727249383926 0 0 0 0
2214640128 -0.0510387159883976 -0.10354568809270859 0.014800770208239555 -0.003932292573153973 0 0 0 0
2218362212 -0.041274964809417725 -0.08265073597431183 0.012358788400888443 -0.005945941433310509 0 0 0 0
2222084296 -0.029172837734222412 -0.06239441782236099 0.01022549718618393 -0.007099051959812641 0 0 0 0
2225806380 -0.013974899426102638 -0.0420309416949749 0.00848088227212429 -0.007862308993935585 0 0 0 0
2229528464 0.004623314365744591 -0.024260612204670906 0.0070996368303895 -0.008460897020995617 0 0 0 0
2233250548 0.02867838367819786 -0.009880319237709045 0.005874875001609325 -0.008989855647087097 0 0 0 0
2236972632 0.053422071039676666 -0.0017044786363840103 0.004752033390104771 -0.009445673786103725 0 0 0 0
2240694716 0.07963210344314575 0.0034747961908578873 0.003337201662361622 -0.00990625936537981 0 0 0 0
2244416800 0.1060732901096344 0.0029071643948554993 0.0015270458534359932 -0.010252601467072964 0 0 0 0
2248138884 0.1327553242444992 -0.0036240853369235992 2.7492642402648926e-06 -0.01014201994985342 0 0 0 0
2251860968 0.1561724990606308 -0.017723171040415764 -0.0013652443885803223 -0.00966760516166687 0 0 0 0
2255583052 0.1762882024049759 -0.032663680613040924 -0.0025178389623761177 -0.00950394943356514 0 0 0 0
2259305136 0.19409582018852234 -0.04878593236207962 -0.0040007540956139565 -0.009175886400043964 0 0 0 0
2263027220 0.20801761746406555 -0.06822407245635986 -0.005520999431610107 -0.008325694128870964 0 0 0 0
2266749304 0.21747618913650513 -0.08945401012897491 -0.006679722107946873 -0.007149960845708847 0 0 0 0
2270471388 0.22613666951656342 -0.10885029286146164 -0.007415519095957279 -0.005835322663187981 0 0 0 0
2274193472 0.2253129482269287 -0.13385522365570068 -0.007800179533660412 -0.004505072720348835 0 0 0 0
2277915556 0.2168559581041336 -0.16006310284137726 -0.007766940630972385 -0.0033915266394615173 0 0 0 0
2281637640 0.216308131814003 -0.17274370789527893 -0.007707868702709675 -0.0026907632127404213 0 0 0 0
2285359724 0.20438402891159058 -0.19341684877872467 -0.007674511522054672 -0.002094237133860588 0 0 0 0
2289081808 0.1931666135787964 -0.21088466048240662 -0.007882007397711277 -0.0015561683103442192 0 0 0 0
2292803892 0.1776891052722931 -0.2267906665802002 -0.008179575204849243 -0.0010069403797388077 0 0 0 0
2296525976 0.16166627407073975 -0.2387082278728485 -0.008594954386353493 -0.00039415620267391205 0 0 0 0
2300248060 0.14319561421871185 -0.24626125395298004 -0.008901633322238922 0.00029245205223560333 0 0 0 0
2303970144 0.12886683642864227 -0.2559165060520172 -0.009099284186959267 0.001407683826982975 0 0 0 0
2307692228 0.10034440457820892 -0.2551867365837097 -0.009435188956558704 0.0023895278573036194 0 0 0 0
2311414312 0.08151698112487793 -0.2528550624847412 -0.009667756967246532 0.003687000833451748 0 0 0 0
2315136396 0.06408846378326416 -0.2458478808403015 -0.00975632481276989 0.005330980755388737 0 0 0 0
2318858480 0.04307516664266586 -0.23835477232933044 -0.009115727618336678 0.007250902242958546 0 0 0 0
2322580564 0.0228525772690773 -0.22583656013011932 -0.007868306711316109 0.008971220813691616 0 0 0 0
2326302648 0.005919512361288071 -0.20998317003250122 -0.005935379303991795 0.010082408785820007 0 0 0 0
2330024732 -0.0025262832641601562 -0.19129982590675354 -0.004398779943585396 0.010466301813721657 0 0 0 0
2333746816 -0.012899433262646198 -0.1724759042263031 -0.0027543483301997185 0.010606064461171627 0 0 0 0
2337468900 -0.018115084618330002 -0.15058086812496185 -0.0012816451489925385 0.010747130028903484 0 0 0 0
2341190984 -0.022728901356458664 -0.12674018740653992 0.0005182391032576561 0.010627768002450466 0 0 0 0
2344913068 -0.018809467554092407 -0.10376005619764328 0.002064497210085392 0.010046243667602539 0 0 0 0
2348635152 -0.013429418206214905 -0.08020418882369995 0.0036566713824868202 0.008975228294730186 0 0 0 0
2352357236 -0.004794375970959663 -0.05797798931598663 0.004303033463656902 0.007579857483506203 0 0 0 0
2356079320 0.011524301022291183 -0.03717599809169769 0.004234661348164082 0.006553169339895248 0 0 0 0
2359801404 0.02938586100935936 -0.020280569791793823 0.004446760751307011 0.006225357763469219 0 0 0 0
2363523488 0.05048150196671486 -0.0069457050412893295 0.004984388127923012 0.006144428625702858 0 0 0 0
2367245572 0.07301950454711914 0.003263290971517563 0.005961298011243343 0.005637099966406822 0 0 0 0
2370967656 0.09714056551456451 0.007978960871696472 0.007100173272192478 0.004368462599813938 0 0 0 0
2374689740 0.12165407091379166 0.009648299776017666 0.0075346725061535835 0.0026679066941142082 0 0 0 0
2378411824 0.1457570344209671 0.0072244759649038315 0.007053048349916935 0.0011848974972963333 0 0 0 0
2382133908 0.1690475195646286 0.0018564537167549133 0.006390271708369255 0.00010567624121904373 0 0 0 0
2385855992 0.19061315059661865 -0.007303424179553986 0.005779856815934181 -0.0003054281696677208 0 0 0 0
2389578076 0.2114192247390747 -0.021422088146209717 0.005517752841114998 -0.000788416713476181 0 0 0 0
2393300160 0.2304246723651886 -0.03346388041973114 0.005444178357720375 -0.001310599036514759 0 0 0 0
2397022244 0.2478080838918686 -0.053093645721673965 0.00533259566873312 -0.002311449497938156 0 0 0 0
2400744328 0.2618241608142853 -0.07418671250343323 0.004690531641244888 -0.0031629521399736404 0 0 0 0
2404466412 0.27207282185554504 -0.09775282442569733 0.003887312486767769 -0.0033856621012091637 0 0 0 0
2408188496 0.2810729742050171 -0.12268272042274475 0.0031834878027439117 -0.0038023842498660088 0 0 0 0
2411910580 0.2852957844734192 -0.1462942659854889 0.0027633272111415863 -0.004164223559200764 0 0 0 0
2415632664 0.282745361328125 -0.17771294713020325 0.0021293973550200462 -0.004667479544878006 0 0 0 0
2419354748 0.2763977646827698 -0.20394104719161987 0.001062808558344841 -0.004926171153783798 0 0 0 0
2423076832 0.2651919424533844 -0.23075667023658752 0.0002552000805735588 -0.004884710535407066 0 0 0 0
2426798916 0.24927657842636108 -0.2570033073425293 -0.0004658671095967293 -0.004870622418820858 0 0 0 0
2430521000 0.2309304028749466 -0.2760532796382904 -0.0012258822098374367 -0.004630193114280701 0 0 0 0
2434243084 0.21124204993247986 -0.29367920756340027 -0.0020609386265277863 -0.0044104428961873055 0 0 0 0
2437965168 0.18729233741760254 -0.3071545958518982 -0.003362121991813183 -0.004703613929450512 0 0 0 0
2441687252 0.16197538375854492 -0.3168390095233917 -0.0037860404700040817 -0.0030475789681077003 0 0 0 0
2445409336 0.1355968713760376 -0.3250638246536255 -0.004200286231935024 -0.001734456978738308 0 0 0 0
2449131420 0.10316568613052368 -0.3287777304649353 -0.003814377821981907 -0.0006613871082663536 0 0 0 0
2452853504 0.07893294095993042 -0.326343297958374 -0.0033292509615421295 0.0001160893589258194 0 0 0 0
2456575588 0.05058330297470093 -0.32098400592803955 -0.002398085780441761 0.00029916223138570786 0 0 0 0
2460297672 0.02426738291978836 -0.31137362122535706 -0.001963915303349495 8.943025022745132e-05 0 0 0 0
2464019756 -0.0005521699786186218 -0.2987256944179535 -0.0019489014521241188 7.269252091646194e-05 0 0 0 0
2467741840 -0.02565149962902069 -0.28168362379074097 -0.0020418157801032066 0.00017048511654138565 0 0 0 0
2471463924 -0.04862836003303528 -0.2614097595214844 -0.001803896389901638 0.0006198389455676079 0 0 0 0
2475186008 -0.06443125009536743 -0.2387596070766449 -0.0010888734832406044 0.0007799332961440086 0 0 0 0
2478908092 -0.07932594418525696 -0.21138879656791687 -0.0006065685302019119 0.00026380736380815506 0 0 0 0
2482630176 -0.09051386266946793 -0.18012234568595886 -0.0003658868372440338 -0.0003662779927253723 0 0 0 0
2486352260 -0.09454023838043213 -0.149800643324852 -0.0007352521643042564 -0.000830688513815403 0 0 0 0
2490074344 -0.09662577509880066 -0.11694769561290741 -0.001084890216588974 -0.0008416660130023956 0 0 0 0
2493796428 -0.09162281453609467 -0.08465901762247086 -0.0010708915069699287 -0.0007904684171080589 0 0 0 0
2497518512 -0.08166645467281342 -0.053597088903188705 -0.0008296305313706398 -0.0009509678930044174 0 0 0 0
2501240596 -0.06539329141378403 -0.025022411718964577 -0.0008775191381573677 -0.0014162557199597359 0 0 0 0
2504962680 -0.04580589383840561 0.002049501985311508 -0.0011121435090899467 -0.001990457996726036 0 0 0 0
2508684764 -0.02193664200603962 0.023754388093948364 -0.0019549373537302017 -0.0025872215628623962 0 0 0 0
2512406848 0.005345487035810947 0.04179273918271065 -0.0029591154307127 -0.0025259852409362793 0 0 0 0
2516128932 0.03499565273523331 0.05492081120610237 -0.003969836048781872 -0.002197262831032276 0 0 0 0
2519851016 0.06549100577831268 0.06395762413740158 -0.00482440460473299 -0.0015939967706799507 0 0 0 0
2523573100 0.09803476184606552 0.06621941179037094 -0.005440150387585163 -0.0006973501294851303 0 0 0 0
2527295184 0.13055583834648132 0.06425648182630539 -0.005773449316620827 0.0003559533506631851 0 0 0 0
2531017268 0.16203884780406952 0.057368919253349304 -0.0056898705661296844 0.0010988451540470123 0 0 0 0
2534739352 0.19154033064842224 0.042846012860536575 -0.005575326271355152 0.00211443193256855 0 0 0 0
2538461436 0.2170981764793396 0.02573402225971222 -0.005350505001842976 0.0026065614074468613 0 0 0 0
2542183520 0.23839649558067322 0.004752345383167267 -0.00534252543002367 0.003235654905438423 0 0 0 0
2545905604 0.25543826818466187 -0.020850688219070435 -0.005203659646213055 0.004058814607560635 0 0 0 0
2549627688 0.267752468585968 -0.0457083061337471 -0.004940008744597435 0.005045890808105469 0 0 0 0
2553349772 0.2776127755641937 -0.07328608632087708 -0.004360715858638287 0.006263790652155876 0 0 0 0
2557071856 0.2795428931713104 -0.10023745149374008 -0.0030047930777072906 0.0072902292013168335 0 0 0 0
2560793940 0.28136134147644043 -0.12437791377305984 -0.0016465913504362106 0.007904354482889175 0 0 0 0
2564516024 0.2765055000782013 -0.15151694416999817 -0.00034218747168779373 0.008077127858996391 0 0 0 0
2568238108 0.2678256034851074 -0.17642532289028168 0.001051611267030239 0.008245619013905525 0 0 0 0
2571960192 0.257883757352829 -0.19668278098106384 0.0024885665625333786 0.00812438502907753 0 0 0 0
2575682276 0.24309426546096802 -0.2156129628419876 0.003913470543920994 0.007824924774467945 0 0 0 0
2579404360 0.22724738717079163 -0.23357823491096497 0.005612345412373543 0.00715317577123642 0 0 0 0
2583126444 0.20684568583965302 -0.24888472259044647 0.007053336128592491 0.005827557295560837 0 0 0 0
2586848528 0.18873775005340576 -0.2601955831050873 0.007981179282069206 0.004383930936455727 0 0 0 0
2590570612 0.16973096132278442 -0.26579904556274414 0.008433912880718708 0.003017122857272625 0 0 0 0
2594292696 0.14767861366271973 -0.26930874586105347 0.008803763426840305 0.0017917212098836899 0 0 0 0
2598014780 0.1254362314939499 -0.270618736743927 0.009476715698838234 0.0004706168547272682 0 0 0 0
2601736864 0.1045878678560257 -0.26660120487213135 0.009916562587022781 -0.0014369282871484756 0 0 0 0
2605458948 0.08693218976259232 -0.26028314232826233 0.009774146601557732 -0.0033604027703404427 0 0 0 0
2609181032 0.06800875812768936 -0.252574622631073 0.009097838774323463 -0.005266149528324604 0 0 0 0
2612903116 0.05326439440250397 -0.24105298519134521 0.007870986126363277 -0.006993290968239307 0 0 0 0
2616625200 0.04229340702295303 -0.22784638404846191 0.006742814555764198 -0.008044439367949963 0 0 0 0
2620347284 0.029910720884799957 -0.213638037443161 0.005351065658032894 -0.009144424460828304 0 0 0 0
2624069368 0.022204460576176643 -0.1978926658630371 0.003918611444532871 -0.010043713264167309 0 0 0 0
2627791452 0.01557331532239914 -0.17980271577835083 0.0023439638316631317 -0.010677766986191273 0 0 0 0
2631513536 0.015350550413131714 -0.1614389717578888 0.0009561730548739433 -0.011146442964673042 0 0 0 0
2635235620 0.01780782639980316 -0.1453540027141571 -0.00032960064709186554 -0.011555718258023262 0 0 0 0
2638957704 0.02411918342113495 -0.1292290985584259 -0.001918257214128971 -0.012157678604125977 0 0 0 0
2642679788 0.031311143189668655 -0.11651864647865295 -0.004279605112969875 -0.012741929851472378 0 0 0 0
2646401872 0.040608856827020645 -0.10670217126607895 -0.007172945886850357 -0.012420016340911388 0 0 0 0
2650123956 0.050969935953617096 -0.09899609535932541 -0.00989597663283348 -0.011264110915362835 0 0 0 0
2653846040 0.0626327320933342 -0.09272829443216324 -0.012374105863273144 -0.009157399646937847 0 0 0 0
2657568124 0.07502540946006775 -0.08825640380382538 -0.01414346694946289 -0.006716576404869556 0 0 0 0
2661290208 0.0878375992178917 -0.08751846104860306 -0.015242507681250572 -0.003627162426710129 0 0 0 0
2665012292 0.10188812017440796 -0.08921816945075989 -0.015296673402190208 -0.0007547866553068161 0 0 0 0
2668734376 0.11191808432340622 -0.09477343410253525 -0.014749840833246708 0.0020151762291789055 0 0 0 0
2672456460 0.1221822202205658 -0.10296451300382614 -0.014083008281886578 0.004125264473259449 0 0 0 0
2676178544 0.13067194819450378 -0.11120276153087616 -0.013523836620151997 0.006353933364152908 0 0 0 0
2679900628 0.13692282140254974 -0.12115578353404999 -0.01229106169193983 0.008932271972298622 0 0 0 0
2683622712 0.13938546180725098 -0.13259181380271912 -0.010230239480733871 0.011400447227060795 0 0 0 0
2687344796 0.14014853537082672 -0.14378340542316437 -0.007200656458735466 0.012739831581711769 0 0 0 0
2691066880 0.13737493753433228 -0.1569790244102478 -0.004522312432527542 0.013345404528081417 0 0 0 0
2694788964 0.13113150000572205 -0.1680750846862793 -0.0020097875967621803 0.013398750685155392 0 0 0 0
2698511048 0.12649144232273102 -0.17628870904445648 0.00012941565364599228 0.01321496907621622 0 0 0 0
2702233132 0.11794248223304749 -0.18462061882019043 0.002220599912106991 0.012971374206244946 0 0 0 0
2705955216 0.10592988133430481 -0.1927737444639206 0.004567870870232582 0.012102428823709488 0 0 0 0
2709677300 0.09349659830331802 -0.19857798516750336 0.006776401773095131 0.011064834892749786 0 0 0 0
2713399384 0.08105884492397308 -0.20040768384933472 0.00900530256330967 0.009595617651939392 0 0 0 0
2717121468 0.06757105141878128 -0.20120248198509216 0.010646035894751549 0.007256561890244484 0 0 0 0
2720843552 0.0540631040930748 -0.19957181811332703 0.011439470574259758 0.00488661602139473 0 0 0 0
2724565636 0.03949741646647453 -0.1939990222454071 0.011606195010244846 0.0027387291193008423 0 0 0 0
2728287720 0.02616812288761139 -0.18579712510108948 0.011816528625786304 0.0008223177865147591 0 0 0 0
2732009804 0.013561345636844635 -0.17464473843574524 0.011966678313910961 -0.0011560944840312004 0 0 0 0
2735731888 0.003553127869963646 -0.16145049035549164 0.011926681734621525 -0.0035342853516340256 0 0 0 0
2739453972 -0.0035140886902809143 -0.1477973759174347 0.011233541183173656 -0.006200805306434631 0 0 0 0
2743176056 -0.010132314637303352 -0.13196414709091187 0.009664070792496204 -0.008588487282395363 0 0 0 0
2746898140 -0.013651840388774872 -0.1146940141916275 0.007571944035589695 -0.010528032667934895 0 0 0 0
2750620224 -0.013611741364002228 -0.0961945652961731 0.005222472362220287 -0.011720964685082436 0 0 0 0
2754342308 -0.010991252027451992 -0.0767672136425972 0.002578482963144779 -0.01260246429592371 0 0 0 0
2758064392 -0.004091937094926834 -0.057430751621723175 -0.00020454544574022293 -0.012464288622140884 0 0 0 0
2761786476 0.006856609135866165 -0.040244076400995255 -0.0025270869955420494 -0.01180493924766779 0 0 0 0
2765508560 0.02026493102312088 -0.025605421513319016 -0.004607486538589001 -0.010555294342339039 0 0 0 0
2769230644 0.03571571782231331 -0.01317363977432251 -0.006063178181648254 -0.00920945592224598 0 0 0 0
2772952728 0.05275077372789383 -0.0033124852925539017 -0.007271020673215389 -0.00764275249093771 0 0 0 0
2776674812 0.07172193378210068 0.004761300981044769 -0.00822445098310709 -0.006214667111635208 0 0 0 0
2780396896 0.09158336371183395 0.008870724588632584 -0.008828183636069298 -0.004923585802316666 0 0 0 0
2784118980 0.11230794340372086 0.01022389903664589 -0.009647861123085022 -0.0032017575576901436 0 0 0 0
2787841064 0.133484348654747 0.010526809841394424 -0.01007136795669794 -0.0012487079948186874 0 0 0 0
2791563148 0.1559344232082367 0.006051287055015564 -0.009935753419995308 0.0010409727692604065 0 0 0 0
2795285232 0.17656520009040833 -0.0029018744826316833 -0.008849019184708595 0.0029127318412065506 0 0 0 0
2799007316 0.19652126729488373 -0.014703641645610332 -0.007622248493134975 0.004050674848258495 0 0 0 0
2802729400 0.213957741856575 -0.031220410019159317 -0.006491732783615589 0.00500988494604826 0 0 0 0
2806451484 0.23003767430782318 -0.04746469855308533 -0.0054042404517531395 0.005923758260905743 0 0 0 0
2810173568 0.2407900094985962 -0.06972701847553253 -0.0040087029337882996 0.006554204970598221 0 0 0 0
2813895652 0.2509450316429138 -0.09122210741043091 -0.0026048514991998672 0.006840411573648453 0 0 0 0
2817617736 0.25604820251464844 -0.11649072915315628 -0.0012404965236783028 0.006946959532797337 0 0 0 0
2821339820 0.2569272518157959 -0.1395992934703827 8.297618478536606e-05 0.006793513894081116 0 0 0 0
2825061904 0.25487419962882996 -0.16272056102752686 0.0012779897078871727 0.0065947845578193665 0 0 0 0
2828783988 0.24971306324005127 -0.18525433540344238 0.002463345415890217 0.005865318700671196 0 0 0 0
2832506072 0.239340141415596 -0.20849362015724182 0.003353479318320751 0.004970110021531582 0 0 0 0
2836228156 0.22896456718444824 -0.2271600216627121 0.003863421268761158 0.004127924330532551 0 0 0 0
2839950240 0.21232451498508453 -0.24918828904628754 0.004182523116469383 0.003372463397681713 0 0 0 0
2843672324 0.19933964312076569 -0.26244449615478516 0.004506385885179043 0.0029356544837355614 0 0 0 0
2847394408 0.18316274881362915 -0.27697741985321045 0.004929223097860813 0.0023947712033987045 0 0 0 0
2851116492 0.16006678342819214 -0.28947553038597107 0.0056184036657214165 0.00164053775370121 0 0 0 0
2854838576 0.13962896168231964 -0.29823368787765503 0.006104947067797184 0.0006189104169607162 0 0 0 0
2858560660 0.1221592053771019 -0.30449357628822327 0.006611066870391369 -0.001051299273967743 0 0 0 0
2862282744 0.09506025910377502 -0.30897584557533264 0.006304471753537655 -0.0025422153994441032 0 0 0 0
2866004828 0.07900990545749664 -0.3083069324493408 0.00574509147554636 -0.0038268575444817543 0 0 0 0
2869726912 0.05588904023170471 -0.3076929450035095 0.004899598658084869 -0.00484814029186964 0 0 0 0
2873448996 0.03287067264318466 -0.30395543575286865 0.0038348352536559105 -0.005793960765004158 0 0 0 0
2877171080 0.012086087837815285 -0.29816722869873047 0.0026026973500847816 -0.006475323811173439 0 0 0 0
2880893164 -0.009439647197723389 -0.29099753499031067 0.0011369399726390839 -0.0066284118220210075 0 0 0 0
2884615248 -0.0301830992102623 -0.2774524688720703 2.086162567138672e-06 -0.006336974911391735 0 0 0 0
2888337332 -0.046834178268909454 -0.2636798322200775 -0.0008580498397350311 -0.0060060517862439156 0 0 0 0
2892059416 -0.06714769452810287 -0.24566249549388885 -0.0017691785469651222 -0.005513908341526985 0 0 0 0
2895781500 -0.07909828424453735 -0.22800728678703308 -0.0025240331888198853 -0.0049711959436535835 0 0 0 0
2899503584 -0.09148969501256943 -0.20638404786586761 -0.0031903963536024094 -0.00410798005759716 0 0 0 0
2903225668 -0.10205794870853424 -0.18430791795253754 -0.003589300438761711 -0.003022715449333191 0 0 0 0
2906947752 -0.10753779113292694 -0.1613975465297699 -0.0036375727504491806 -0.0021667759865522385 0 0 0 0
2910669836 -0.11281714588403702 -0.13754141330718994 -0.003565779887139797 -0.0012157633900642395 0 0 0 0
2914391920 -0.1127539873123169 -0.11191365122795105 -0.0033346032723784447 -0.00040238816291093826 0 0 0 0
2918114004 -0.1090090200304985 -0.08649446070194244 -0.002932845614850521 0.00022247154265642166 0 0 0 0
2921836088 -0.10200199484825134 -0.06374829262495041 -0.0025825360789895058 0.0006254306063055992 0 0 0 0
2925558172 -0.09279309213161469 -0.0411732979118824 -0.002123255282640457 0.0011595729738473892 0 0 0 0
2929280256 -0.08008608222007751 -0.021991128101944923 -0.001710471697151661 0.0013424530625343323 0 0 0 0
2933002340 -0.06707099825143814 -0.0028377557173371315 -0.001415974460542202 0.00162466149777174 0 0 0 0
2936724424 -0.05068757385015488 0.015170115977525711 -0.0011556986719369888 0.0018453942611813545 0 0 0 0
2940446508 -0.03292573243379593 0.030076026916503906 -0.0007827365770936012 0.0021148808300495148 0 0 0 0
2944168592 -0.013116010464727879 0.042725853621959686 -0.00017365533858537674 0.002530772238969803 0 0 0 0
2947890676 0.007865219376981258 0.05258410796523094 0.0005285264924168587 0.0027246633544564247 0 0 0 0
2951612760 0.02953498624265194 0.059918031096458435 0.0013911621645092964 0.002560831606388092 0 0 0 0
2955334844 0.05130670219659805 0.06557346880435944 0.0023675430566072464 0.001858007162809372 0 0 0 0
2959056928 0.07467979192733765 0.06850487738847733 0.0026182085275650024 0.0010519791394472122 0 0 0 0
2962779012 0.09805475175380707 0.06884688138961792 0.0024657566100358963 0.0004021385684609413 0 0 0 0
2966501096 0.1216219961643219 0.06696322560310364 0.0023596640676259995 7.602386176586151e-06 0 0 0 0
2970223180 0.1458156704902649 0.06204865872859955 0.002232401631772518 -7.79666006565094e-05 0 0 0 0
2973945264 0.16999346017837524 0.053250692784786224 0.00212300568819046 -0.00015135761350393295 0 0 0 0
2977667348 0.19404511153697968 0.03576945513486862 0.002574530430138111 -0.0003200378268957138 0 0 0 0
2981389432 0.2146775722503662 0.023739993572235107 0.0027701184153556824 -0.0007080305367708206 0 0 0 0
2985111516 0.23202839493751526 0.006245836615562439 0.0028102295473217964 -0.0014165574684739113 0 0 0 0
2988833600 0.24569107592105865 -0.019465692341327667 0.0026279594749212265 -0.0019352259114384651 0 0 0 0
2992555684 0.2581497132778168 -0.03992534428834915 0.002196342684328556 -0.0025825006887316704 0 0 0 0
2996277768 0.2664230167865753 -0.06281253695487976 0.001635618507862091 -0.003206445835530758 0 0 0 0
2999999852 0.2708478271961212 -0.09128247946500778 0.0007555866613984108 -0.0034511005505919456 0 0 0 0
