# HZ S RI R 50
1500000000 -0.10703255236148834 -0.032106541097164154 0.035461053252220154 -0.0383913516998291 0 0 0 0
1503722084 -0.09021144360303879 -0.006492108106613159 0.02681679278612137 -0.04463772103190422 0 0 0 0
1507444168 -0.06868398189544678 0.016462886705994606 0.01626417599618435 -0.048550937324762344 0 0 0 0
1511166252 -0.042550623416900635 0.03643500432372093 0.005536142736673355 -0.04916895553469658 0 0 0 0
1514888336 -0.012711435556411743 0.05331120640039444 -0.004884760826826096 -0.04691767320036888 0 0 0 0
1518610420 0.02169778011739254 0.06549283862113953 -0.013490376994013786 -0.0420503094792366 0 0 0 0
1522332504 0.058802444487810135 0.07264086604118347 -0.01936129480600357 -0.03587659075856209 0 0 0 0
1526054588 0.09918860346078873 0.0729350820183754 -0.023395439609885216 -0.029474152252078056 0 0 0 0
1529776672 0.13972873985767365 0.06716392189264297 -0.025870952755212784 -0.02355659380555153 0 0 0 0
1533498756 0.1814797818660736 0.05368983373045921 -0.027231432497501373 -0.017749769613146782 0 0 0 0
1537220840 0.22220641374588013 0.03437209129333496 -0.027226250618696213 -0.012312260456383228 0 0 0 0
1540942924 0.2599518895149231 0.0066664814949035645 -0.02608226239681244 -0.007521584630012512 0 0 0 0
1544665008 0.2938590347766876 -0.02924647554755211 -0.024592237547039986 -0.004111330024898052 0 0 0 0
1548387092 0.32177627086639404 -0.0703122615814209 -0.023305149748921394 -0.0015824660658836365 0 0 0 0
1552109176 0.34352990984916687 -0.1148960292339325 -0.022210534662008286 0.0008711488917469978 0 0 0 0
1555831260 0.35891056060791016 -0.16487367451190948 -0.0210576131939888 0.0030927620828151703 0 0 0 0
1559553344 0.3652350902557373 -0.21878542006015778 -0.019976677373051643 0.005183546803891659 0 0 0 0
1563275428 0.3633451759815216 -0.27236735820770264 -0.01874176412820816 0.007360965013504028 0 0 0 0
1566997512 0.3519432246685028 -0.32864540815353394 -0.017033923417329788 0.009615970775485039 0 0 0 0
1570719596 0.3335970342159271 -0.3798237144947052 -0.014897210523486137 0.01130102388560772 0 0 0 0
1574441680 0.30376335978507996 -0.43224915862083435 -0.012694764882326126 0.01241582166403532 0 0 0 0
1578163764 0.26920074224472046 -0.47730982303619385 -0.010740121826529503 0.013173154555261135 0 0 0 0
1581885848 0.22354824841022491 -0.518648087978363 -0.008664289489388466 0.013799294829368591 0 0 0 0
1585607932 0.17319147288799286 -0.5508968830108643 -0.006945522502064705 0.014022374525666237 0 0 0 0
1589330016 0.1187324970960617 -0.5768958926200867 -0.00531227421015501 0.01417506393045187 0 0 0 0
1593052100 0.058252155780792236 -0.595403790473938 -0.003992474637925625 0.014295448549091816 0 0 0 0
1596774184 -0.0035253427922725677 -0.6050950884819031 -0.002767058089375496 0.01489278580993414 0 0 0 0
1600496268 -0.06795784831047058 -0.6034308075904846 -0.0007578246295452118 0.015511996112763882 0 0 0 0
1604218352 -0.13048170506954193 -0.5936025977134705 0.0014300160109996796 0.015665696933865547 0 0 0 0
1607940436 -0.19037675857543945 -0.5738746523857117 0.003577154129743576 0.01520626712590456 0 0 0 0
1611662520 -0.2525121569633484 -0.5457563400268555 0.005655248649418354 0.014534524641931057 0 0 0 0
1615384604 -0.30856460332870483 -0.507314920425415 0.007556462660431862 0.013851097784936428 0 0 0 0
1619106688 -0.3603319823741913 -0.45820412039756775 0.009499019011855125 0.012853926047682762 0 0 0 0
1622828772 -0.40235069394111633 -0.4042665958404541 0.011527247726917267 0.011665754951536655 0 0 0 0
1626550856 -0.4389728903770447 -0.34020373225212097 0.013667660765349865 0.010199454613029957 0 0 0 0
1630272940 -0.4630809426307678 -0.2723196744918823 0.01576504483819008 0.008183763362467289 0 0 0 0
1633995024 -0.47894954681396484 -0.20243418216705322 0.01762567088007927 0.005296965129673481 0 0 0 0
1637717108 -0.48380595445632935 -0.1273261159658432 0.018710890784859657 0.0017830701544880867 0 0 0 0
1641439192 -0.47759464383125305 -0.053687140345573425 0.01875484362244606 -0.001965472474694252 0 0 0 0
1645161276 -0.45953935384750366 0.022434700280427933 0.017996538430452347 -0.0054626911878585815 0 0 0 0
1648883360 -0.43041205406188965 0.0940762460231781 0.016842998564243317 -0.008755218237638474 0 0 0 0
1652605444 -0.3889130651950836 0.16285471618175507 0.015241099521517754 -0.011794385500252247 0 0 0 0
1656327528 -0.3378930687904358 0.22134485840797424 0.012689312919974327 -0.015099617652595043 0 0 0 0
1660049612 -0.2753932774066925 0.27548331022262573 0.008914345875382423 -0.017646094784140587 0 0 0 0
1663771696 -0.20668143033981323 0.31705841422080994 0.004562179557979107 -0.018654096871614456 0 0 0 0
1667493780 -0.13138851523399353 0.349161297082901 0.000505475327372551 -0.018526174128055573 0 0 0 0
1671215864 -0.05154494196176529 0.36882439255714417 -0.0031288694590330124 -0.017608489841222763 0 0 0 0
1674937948 0.033098459243774414 0.37694013118743896 -0.006418824195861816 -0.015963461250066757 0 0 0 0
1678660032 0.11696398258209229 0.3705841898918152 -0.009353186003863811 -0.013868975453078747 0 0 0 0
1682382116 0.195865660905838 0.3519686460494995 -0.011493929661810398 -0.011040467768907547 0 0 0 0
1686104200 0.2764931917190552 0.3176913857460022 -0.01277134008705616 -0.007706294767558575 0 0 0 0
1689826284 0.3482343852519989 0.27322787046432495 -0.012972436845302582 -0.004582265391945839 0 0 0 0
1693548368 0.4096209406852722 0.22128339111804962 -0.012445032596588135 -0.0018788203597068787 0 0 0 0
1697270452 0.4630832076072693 0.15828324854373932 -0.011574270203709602 0.00018602516502141953 0 0 0 0
1700992536 0.5065280795097351 0.08676579594612122 -0.010461629368364811 0.0019159624353051186 0 0 0 0
1704714620 0.5378219485282898 0.009832650423049927 -0.009527897462248802 0.003211589530110359 0 0 0 0
1708436704 0.5565418004989624 -0.06825616955757141 -0.008435682393610477 0.004589566960930824 0 0 0 0
1712158788 0.5627232789993286 -0.15033815801143646 -0.006996789947152138 0.00583402905613184 0 0 0 0
1715880872 0.5564038753509521 -0.22877104580402374 -0.005256901495158672 0.0067101167514920235 0 0 0 0
1719602956 0.5365614891052246 -0.3114241361618042 -0.00331215001642704 0.006876375526189804 0 0 0 0
1723325040 0.5063148140907288 -0.380694180727005 -0.0017831958830356598 0.006555122323334217 0 0 0 0
1727047124 0.4670436382293701 -0.44632136821746826 -0.0004374384880065918 0.005720634013414383 0 0 0 0
1730769208 0.4152015447616577 -0.505028247833252 0.0002448130398988724 0.0048215314745903015 0 0 0 0
1734491292 0.3576918840408325 -0.5533288717269897 0.000738765113055706 0.004355349577963352 0 0 0 0
1738213376 0.2902509570121765 -0.5958033800125122 0.001212296076118946 0.00358368456363678 0 0 0 0
1741935460 0.22763343155384064 -0.620934784412384 0.0013849269598722458 0.0026849163696169853 0 0 0 0
1745657544 0.15586940944194794 -0.637586236000061 0.0011155521497130394 0.001831216737627983 0 0 0 0
1749379628 0.08375190198421478 -0.643959641456604 0.0004775607958436012 0.0015885550528764725 0 0 0 0
1753101712 0.009283125400543213 -0.6374839544296265 -5.252659320831299e-07 0.0017978549003601074 0 0 0 0
1756823796 -0.055355265736579895 -0.6232376098632812 -0.0002048388123512268 0.0022361939772963524 0 0 0 0
1760545880 -0.11770308762788773 -0.5964292287826538 6.819237023591995e-05 0.002560025081038475 0 0 0 0
1764267964 -0.1762428879737854 -0.5625857710838318 0.0005395207554101944 0.0028108013793826103 0 0 0 0
1767990048 -0.22280988097190857 -0.5206369161605835 0.0011062612757086754 0.0026735756546258926 0 0 0 0
1771712132 -0.26820605993270874 -0.4736506938934326 0.001687733456492424 0.002342873252928257 0 0 0 0
1775434216 -0.29935842752456665 -0.4241372346878052 0.0019007595255970955 0.0018409136682748795 0 0 0 0
1779156300 -0.3286110460758209 -0.3667827844619751 0.001789049245417118 0.0012868773192167282 0 0 0 0
1782878384 -0.34431588649749756 -0.31162652373313904 0.0017817215994000435 0.0008830400183796883 0 0 0 0
1786600468 -0.3541145324707031 -0.2542879283428192 0.001282786950469017 0.00024971552193164825 0 0 0 0
1790322552 -0.3567299246788025 -0.19762645661830902 0.0002010362222790718 5.739741027355194e-05 0 0 0 0
1794044636 -0.3524653911590576 -0.13937179744243622 -0.0007486259564757347 0.0006187940016388893 0 0 0 0
1797766720 -0.33891424536705017 -0.08276005834341049 -0.0015163319185376167 0.0018630465492606163 0 0 0 0
1801488804 -0.31797027587890625 -0.03136967122554779 -0.001748288981616497 0.0035682497546076775 0 0 0 0
1805210888 -0.2899899184703827 0.019191334024071693 -0.0007578432559967041 0.005540943704545498 0 0 0 0
1808932972 -0.25416573882102966 0.06612300127744675 0.0011675339192152023 0.006999525241553783 0 0 0 0
1812655056 -0.2113049179315567 0.1054355651140213 0.0032010655850172043 0.007577802985906601 0 0 0 0
1816377140 -0.16079160571098328 0.13760127127170563 0.005883176811039448 0.007944676093757153 0 0 0 0
1820099224 -0.10646727681159973 0.1602306365966797 0.009215732105076313 0.00716936681419611 0 0 0 0
1823821308 -0.05171339213848114 0.1710517406463623 0.01234741322696209 0.004776217974722385 0 0 0 0
1827543392 0.004530774429440498 0.17403513193130493 0.014246281236410141 0.0007668156176805496 0 0 0 0
1831265476 0.05910976231098175 0.1674962341785431 0.014485182240605354 -0.0032756878063082695 0 0 0 0
1834987560 0.10935929417610168 0.15284904837608337 0.013099529780447483 -0.007109842263162136 0 0 0 0
1838709644 0.1561392843723297 0.13034477829933167 0.01084823813289404 -0.009936081245541573 0 0 0 0
1842431728 0.19722086191177368 0.10306870937347412 0.008081778883934021 -0.011728819459676743 0 0 0 0
1846153812 0.23283950984477997 0.06915207952260971 0.005491018295288086 -0.01240399107336998 0 0 0 0
1849875896 0.26229992508888245 0.032193489372730255 0.003532158210873604 -0.012647739611566067 0 0 0 0
1853597980 0.2835293710231781 -0.010030925273895264 0.0019394773989915848 -0.012769350782036781 0 0 0 0
1857320064 0.297985315322876 -0.051441892981529236 0.0003903219476342201 -0.013201875612139702 0 0 0 0
1861042148 0.3065411448478699 -0.09390702843666077 -0.0009355898946523666 -0.014163072220981121 0 0 0 0
1864764232 0.3050180673599243 -0.13822491466999054 -0.00369461253285408 -0.014962374232709408 0 0 0 0
1868486316 0.29785528779029846 -0.18026210367679596 -0.006886097602546215 -0.014790615066885948 0 0 0 0
1872208400 0.2856680750846863 -0.21723030507564545 -0.009930625557899475 -0.013617933727800846 0 0 0 0
1875930484 0.2667059898376465 -0.2533794045448303 -0.012600415386259556 -0.011842291802167892 0 0 0 0
1879652568 0.243605375289917 -0.284370094537735 -0.014694800600409508 -0.01016232743859291 0 0 0 0
1883374652 0.21585939824581146 -0.3106119632720947 -0.01704217493534088 -0.008283847942948341 0 0 0 0
1887096736 0.18436330556869507 -0.33098942041397095 -0.01980929635465145 -0.005643722601234913 0 0 0 0
1890818820 0.1503666192293167 -0.34366387128829956 -0.022249994799494743 -0.001504378393292427 0 0 0 0
1894540904 0.11371271312236786 -0.350342333316803 -0.023606710135936737 0.0040701329708099365 0 0 0 0
1898262988 0.07862553000450134 -0.3508851230144501 -0.02257847972214222 0.010257812216877937 0 0 0 0
1901985072 0.047765202820301056 -0.34503814578056335 -0.019405053928494453 0.01528337225317955 0 0 0 0
1905707156 0.019090473651885986 -0.3332299292087555 -0.015543147921562195 0.018895016983151436 0 0 0 0
1909429240 -0.009615346789360046 -0.31964343786239624 -0.011363858357071877 0.02151927724480629 0 0 0 0
1913151324 -0.0352601520717144 -0.3008789122104645 -0.006479459814727306 0.023490337654948235 0 0 0 0
1916873408 -0.052950456738471985 -0.27984732389450073 -0.0017647817730903625 0.02435007318854332 0 0 0 0
1920595492 -0.07026349008083344 -0.25380760431289673 0.0034689512103796005 0.02417595311999321 0 0 0 0
1924317576 -0.08211038261651993 -0.2253539264202118 0.008624417707324028 0.022993626073002815 0 0 0 0
1928039660 -0.08530010282993317 -0.19755223393440247 0.013411345891654491 0.020521171391010284 0 0 0 0
1931761744 -0.0863625556230545 -0.17005035281181335 0.017834465950727463 0.01622573286294937 0 0 0 0
1935483828 -0.08233679085969925 -0.14482279121875763 0.020257994532585144 0.011240730062127113 0 0 0 0
1939205912 -0.07654990255832672 -0.11965891718864441 0.020798666402697563 0.005871939472854137 0 0 0 0
1942927996 -0.06586139649152756 -0.09480087459087372 0.019558949396014214 0.0016578296199440956 0 0 0 0
1946650080 -0.05060533434152603 -0.07204379141330719 0.018324533477425575 -0.0014603035524487495 0 0 0 0
1950372164 -0.03126014396548271 -0.05142029747366905 0.01715925708413124 -0.004029960371553898 0 0 0 0
1954094248 -0.008156130090355873 -0.03492201119661331 0.01604423113167286 -0.00618168618530035 0 0 0 0
1957816332 0.01803291216492653 -0.022320926189422607 0.01481117308139801 -0.008511046878993511 0 0 0 0
1961538416 0.045925844460725784 -0.015467974357306957 0.01278216764330864 -0.010933575220406055 0 0 0 0
1965260500 0.07542698830366135 -0.013674180954694748 0.010076310485601425 -0.012628545984625816 0 0 0 0
1968982584 0.10528288781642914 -0.017514342442154884 0.007982132025063038 -0.013073950074613094 0 0 0 0
1972704668 0.13319171965122223 -0.028794385492801666 0.00626375712454319 -0.014103049412369728 0 0 0 0
1976426752 0.15823769569396973 -0.04403802007436752 0.004332335665822029 -0.014841665513813496 0 0 0 0
1980148836 0.17978473007678986 -0.06405346095561981 0.002273986116051674 -0.016034545376896858 0 0 0 0
1983870920 0.1967177391052246 -0.08842458575963974 -0.0003330521285533905 -0.017313377931714058 0 0 0 0
1987593004 0.20765143632888794 -0.11504754424095154 -0.003919538110494614 -0.017560983076691628 0 0 0 0
1991315088 0.2132343202829361 -0.1425618678331375 -0.007847782224416733 -0.01681056059896946 0 0 0 0
1995037172 0.21443602442741394 -0.16896475851535797 -0.010976426303386688 -0.014801693148911 0 0 0 0
1998759256 0.21084290742874146 -0.19677740335464478 -0.013363996520638466 -0.012348380871117115 0 0 0 0
2002481340 0.20334458351135254 -0.22215555608272552 -0.015332763083279133 -0.01004992239177227 0 0 0 0
2006203424 0.19227205216884613 -0.24451111257076263 -0.017031092196702957 -0.007402436807751656 0 0 0 0
2009925508 0.17496243119239807 -0.265638530254364 -0.018376432359218597 -0.004398391582071781 0 0 0 0
2013647592 0.15568315982818604 -0.28412842750549316 -0.019084710627794266 -0.0013171220198273659 0 0 0 0
2017369676 0.13174279034137726 -0.2992129921913147 -0.019705474376678467 0.0017963703721761703 0 0 0 0
2021091760 0.10729870200157166 -0.30967310070991516 -0.02003461867570877 0.005783846601843834 0 0 0 0
2024813844 0.0817839652299881 -0.31536146998405457 -0.019273774698376656 0.010447422042489052 0 0 0 0
2028535928 0.052789993584156036 -0.3162384331226349 -0.016375910490751266 0.015046455897390842 0 0 0 0
2032258012 0.0228208526968956 -0.31275486946105957 -0.012491490691900253 0.017979901283979416 0 0 0 0
2035980096 -0.0025642365217208862 -0.3034149706363678 -0.008269818499684334 0.019690020009875298 0 0 0 0
2039702180 -0.026259198784828186 -0.2907441258430481 -0.004153277724981308 0.020269641652703285 0 0 0 0
2043424264 -0.04889319837093353 -0.27391698956489563 -0.0003409767523407936 0.019755138084292412 0 0 0 0
2047146348 -0.0698004886507988 -0.2520185112953186 0.0032431259751319885 0.018722055479884148 0 0 0 0
2050868432 -0.08431295305490494 -0.23033949732780457 0.005674886517226696 0.0173303484916687 0 0 0 0
2054590516 -0.0968397855758667 -0.20564180612564087 0.00815510842949152 0.015981389209628105 0 0 0 0
2058312600 -0.10596156120300293 -0.17746508121490479 0.010392707772552967 0.014223022386431694 0 0 0 0
2062034684 -0.11094802618026733 -0.14921243488788605 0.012539383955299854 0.012077482417225838 0 0 0 0
2065756768 -0.11203107237815857 -0.11921606957912445 0.013992033898830414 0.009549424983561039 0 0 0 0
2069478852 -0.11015642434358597 -0.08789652585983276 0.01518818736076355 0.006837351247668266 0 0 0 0
2073200936 -0.10168928653001785 -0.05587947368621826 0.01579718478024006 0.0036910679191350937 0 0 0 0
2076923020 -0.087815061211586 -0.024565504863858223 0.015255792997777462 0.0009799916297197342 0 0 0 0
2080645104 -0.06722503155469894 0.00448271632194519 0.014094503596425056 -0.0014239288866519928 0 0 0 0
2084367188 -0.04165078327059746 0.029531629756093025 0.012686153873801231 -0.0030929269269108772 0 0 0 0
2088089272 -0.011690040118992329 0.05011192709207535 0.011621984653174877 -0.0041210949420928955 0 0 0 0
2091811356 0.021304937079548836 0.06545595824718475 0.011137060821056366 -0.0048202332109212875 0 0 0 0
2095533440 0.056914687156677246 0.07521748542785645 0.011224291287362576 -0.005736101418733597 0 0 0 0
2099255524 0.09430697560310364 0.07796743512153625 0.011086532846093178 -0.007978665642440319 0 0 0 0
2102977608 0.13136783242225647 0.07559221237897873 0.009954649955034256 -0.010299253277480602 0 0 0 0
2106699692 0.1675041913986206 0.06715312600135803 0.007678113877773285 -0.012561607174575329 0 0 0 0
2110421776 0.20371891558170319 0.051441121846437454 0.004889084026217461 -0.013898171484470367 0 0 0 0
2114143860 0.2362452745437622 0.028275102376937866 0.002402879297733307 -0.01419736072421074 0 0 0 0
2117865944 0.26256242394447327 0.003970399498939514 -0.0001582615077495575 -0.014471866190433502 0 0 0 0
2121588028 0.28282585740089417 -0.02940473146736622 -0.0028603579849004745 -0.014302889816462994 0 0 0 0
2125310112 0.2977832853794098 -0.06232164800167084 -0.005899733863770962 -0.013562253676354885 0 0 0 0
2129032196 0.3074911832809448 -0.0938362330198288 -0.008625700138509274 -0.011853772215545177 0 0 0 0
2132754280 0.3114835023880005 -0.12849080562591553 -0.010820596478879452 -0.009102250449359417 0 0 0 0
2136476364 0.31107860803604126 -0.16283553838729858 -0.0115568982437253 -0.005844470113515854 0 0 0 0
2140198448 0.3048861026763916 -0.19801972806453705 -0.011280476115643978 -0.003109634853899479 0 0 0 0
2143920532 0.29408055543899536 -0.22814884781837463 -0.010191326960921288 -0.0013697268441319466 0 0 0 0
2147642616 0.2776340842247009 -0.25850769877433777 -0.009340916760265827 -0.0005219355225563049 0 0 0 0
2151364700 0.2568265497684479 -0.28279876708984375 -0.008881826885044575 0.0002446947619318962 0 0 0 0
2155086784 0.2311968207359314 -0.3066837191581726 -0.008619135245680809 0.0009816456586122513 0 0 0 0
2158808868 0.20572903752326965 -0.32411694526672363 -0.008341205306351185 0.0016375258564949036 0 0 0 0
2162530952 0.17641878128051758 -0.3372921943664551 -0.008145802654325962 0.002231227234005928 0 0 0 0
2166253036 0.14311887323856354 -0.34642159938812256 -0.008313977159559727 0.0029937801882624626 0 0 0 0
2169975120 0.11307323724031448 -0.3489237427711487 -0.008353580720722675 0.004222055897116661 0 0 0 0
2173697204 0.08076992630958557 -0.3475903868675232 -0.007955759763717651 0.00548584945499897 0 0 0 0
2177419288 0.05034198239445686 -0.3407300114631653 -0.007274743169546127 0.0065676504746079445 0 0 0 0
2181141372 0.025758400559425354 -0.33019304275512695 -0.006713009439408779 0.00770306121557951 0 0 0 0
2184863456 -0.004807144403457642 -0.31592732667922974 -0.005708965472877026 0.009008543565869331 0 0 0 0
2188585540 -0.027344614267349243 -0.29750263690948486 -0.004598238505423069 0.010208682157099247 0 0 0 0
2192307624 -0.05178143456578255 -0.27410614490509033 -0.002687547355890274 0.011332645080983639 0 0 0 0
2196029708 -0.06905199587345123 -0.24796275794506073 -0.0007115015760064125 0.011938784271478653 0 0 0 0
2199751792 -0.08191940188407898 -0.2176019251346588 0.0015389230102300644 0.011884642764925957 0 0 0 0
2203473876 -0.09167852252721786 -0.1847236454486847 0.003612144850194454 0.011397089809179306 0 0 0 0
2207195960 -0.09298200905323029 -0.1524091362953186 0.00518213864415884 0.010696075856685638 0 0 0 0
2210918044 -0.08743558824062347 -0.12165163457393646 0.006788706406950951 0.01009454857558012 0 0 0 0
2214640128 -0.07819022983312607 -0.09051663428544998 0.008594203740358353 0.00907323881983757 0 0 0 0
2218362212 -0.06537821888923645 -0.06112959235906601 0.010592944920063019 0.007604594342410564 0 0 0 0
2222084296 -0.04675346240401268 -0.035212770104408264 0.012119072489440441 0.005215056240558624 0 0 0 0
2225806380 -0.023679036647081375 -0.013485899195075035 0.013235834427177906 0.0027744974941015244 0 0 0 0
2229528464 0.0026160599663853645 0.004827908240258694 0.01340666227042675 -9.511876851320267e-05 0 0 0 0
2233250548 0.03233475610613823 0.017165131866931915 0.012970604002475739 -0.0028788484632968903 0 0 0 0
2236972632 0.06278872489929199 0.02366561070084572 0.011695191264152527 -0.005525168031454086 0 0 0 0
2240694716 0.09338919818401337 0.024785803630948067 0.009921673685312271 -0.007422531023621559 0 0 0 0
2244416800 0.12366978824138641 0.020596779882907867 0.00825059786438942 -0.009068015962839127 0 0 0 0
2248138884 0.15212377905845642 0.012368932366371155 0.006167070008814335 -0.010237912647426128 0 0 0 0
2251860968 0.17889346182346344 -0.0014880597591400146 0.004204273223876953 -0.010876260697841644 0 0 0 0
2255583052 0.20218773186206818 -0.020843854174017906 0.0019554682075977325 -0.011283843778073788 0 0 0 0
2259305136 0.21992769837379456 -0.04600432515144348 -0.0003371238708496094 -0.011135358363389969 0 0 0 0
2263027220 0.23156072199344635 -0.0719010978937149 -0.0021824128925800323 -0.010300315916538239 0 0 0 0
2266749304 0.24186567962169647 -0.09297934919595718 -0.0031432313844561577 -0.009438781999051571 0 0 0 0
2270471388 0.2428298145532608 -0.1221512109041214 -0.003810645081102848 -0.009029083885252476 0 0 0 0
2274193472 0.24266557395458221 -0.14914099872112274 -0.004982881247997284 -0.008844404481351376 0 0 0 0
2277915556 0.23856617510318756 -0.1710720956325531 -0.006413566879928112 -0.00889953039586544 0 0 0 0
2281637640 0.22566263377666473 -0.20027267932891846 -0.00852205976843834 -0.008228015154600143 0 0 0 0
2285359724 0.2150201052427292 -0.2168506234884262 -0.01039921585470438 -0.00675549078732729 0 0 0 0
2289081808 0.1997842937707901 -0.23444144427776337 -0.011691433377563953 -0.004974537529051304 0 0 0 0
2292803892 0.17277491092681885 -0.25219255685806274 -0.01255122572183609 -0.002560417167842388 0 0 0 0
2296525976 0.15554800629615784 -0.2593556046485901 -0.012749014422297478 -0.00031330808997154236 0 0 0 0
2300248060 0.13215605914592743 -0.2659291923046112 -0.012719507329165936 0.0017667626962065697 0 0 0 0
2303970144 0.11459150910377502 -0.2716825604438782 -0.012317848391830921 0.003919902257621288 0 0 0 0
2307692228 0.0912569984793663 -0.26827454566955566 -0.011570172384381294 0.006113514304161072 0 0 0 0
2311414312 0.06181252747774124 -0.26570072770118713 -0.00963809248059988 0.008047228679060936 0 0 0 0
2315136396 0.03944990038871765 -0.25590503215789795 -0.007391397841274738 0.009197404608130455 0 0 0 0
2318858480 0.017796404659748077 -0.24365809559822083 -0.0055239442735910416 0.009477054700255394 0 0 0 0
2322580564 -0.004391521215438843 -0.22543905675411224 -0.0038850679993629456 0.00910311471670866 0 0 0 0
2326302648 -0.014402084052562714 -0.20516487956047058 -0.0028866343200206757 0.008623704314231873 0 0 0 0
2330024732 -0.02609793096780777 -0.18232186138629913 -0.0020629772916436195 0.008455628529191017 0 0 0 0
2333746816 -0.03749275580048561 -0.15651942789554596 -0.0011674147099256516 0.008290935307741165 0 0 0 0
2337468900 -0.039801545441150665 -0.1303863227367401 -0.0004719682037830353 0.008177961222827435 0 0 0 0
2341190984 -0.037479184567928314 -0.10297802090644836 0.0002906434237957001 0.007897859439253807 0 0 0 0
2344913068 -0.031227808445692062 -0.0754849761724472 0.0008129775524139404 0.007537776604294777 0 0 0 0
2348635152 -0.017790934070944786 -0.0516597181558609 0.0013464149087667465 0.007532027550041676 0 0 0 0
2352357236 -0.0016364166513085365 -0.02964523434638977 0.0021607372909784317 0.007399668917059898 0 0 0 0
2356079320 0.01737300492823124 -0.010321853682398796 0.0033605163916945457 0.007185503840446472 0 0 0 0
2359801404 0.040367621928453445 0.005684780888259411 0.0045523932203650475 0.006496056914329529 0 0 0 0
2363523488 0.06588315963745117 0.017474204301834106 0.005668994039297104 0.005009086802601814 0 0 0 0
2367245572 0.09305629134178162 0.02563490904867649 0.005781658925116062 0.003703438676893711 0 0 0 0
2370967656 0.12203952670097351 0.028001826256513596 0.005536562763154507 0.002374333329498768 0 0 0 0
2374689740 0.15094052255153656 0.025185389444231987 0.005095994099974632 0.001561206765472889 0 0 0 0
2378411824 0.17820987105369568 0.013788994401693344 0.004771648906171322 0.0006531057879328728 0 0 0 0
2382133908 0.2021876573562622 0.003032705746591091 0.003977704793214798 0.0002283155918121338 0 0 0 0
2385855992 0.2257278561592102 -0.013458676636219025 0.0033438745886087418 -0.00019054580479860306 0 0 0 0
2389578076 0.24571847915649414 -0.03318677097558975 0.0026666391640901566 6.050802767276764e-06 0 0 0 0
2393300160 0.2609741687774658 -0.05604957044124603 0.0021391240879893303 0.0005149189382791519 0 0 0 0
2397022244 0.2737273871898651 -0.08024650812149048 0.002481076866388321 0.0011518560349941254 0 0 0 0
2400744328 0.28027087450027466 -0.10880476236343384 0.0033265231177210808 0.0011974358931183815 0 0 0 0
2404466412 0.2804502248764038 -0.13328132033348083 0.004076891578733921 0.00045905355364084244 0 0 0 0
2408188496 0.27948012948036194 -0.15926826000213623 0.004209296777844429 -0.0005242079496383667 0 0 0 0
2411910580 0.27550747990608215 -0.18430551886558533 0.003871398977935314 -0.0011818427592515945 0 0 0 0
2415632664 0.2696630358695984 -0.20619478821754456 0.0034930408000946045 -0.0016739917919039726 0 0 0 0
2419354748 0.25725817680358887 -0.2290879338979721 0.0034374604001641273 -0.0019244896247982979 0 0 0 0
2423076832 0.24544183909893036 -0.2485126554965973 0.0033011483028531075 -0.0025281067937612534 0 0 0 0
2426798916 0.2246347814798355 -0.2701709568500519 0.0027293311432003975 -0.0032689282670617104 0 0 0 0
2430521000 0.2070963829755783 -0.28282010555267334 0.0018378980457782745 -0.0035247253254055977 0 0 0 0
2434243084 0.1857418715953827 -0.29746150970458984 0.0010933876037597656 -0.0032900217920541763 0 0 0 0
2437965168 0.1600165218114853 -0.3077469766139984 0.0008713752031326294 -0.0026256106793880463 0 0 0 0
2441687252 0.1371695101261139 -0.3140249252319336 0.0011714911088347435 -0.002357237972319126 0 0 0 0
2445409336 0.11117550730705261 -0.31807249784469604 0.001805662177503109 -0.0025580571964383125 0 0 0 0
2449131420 0.08490291237831116 -0.31657564640045166 0.0021542375907301903 -0.0033300593495368958 0 0 0 0
2452853504 0.05764515697956085 -0.31118422746658325 0.001938793808221817 -0.00429151114076376 0 0 0 0
2456575588 0.03122107684612274 -0.303999125957489 0.0015895022079348564 -0.00523128267377615 0 0 0 0
2460297672 0.011561723425984383 -0.29171130061149597 0.0009054047986865044 -0.006152646616101265 0 0 0 0
2464019756 -0.011953189969062805 -0.2753375470638275 -0.00036203302443027496 -0.006985758431255817 0 0 0 0
2467741840 -0.02882055751979351 -0.2572230100631714 -0.0014600986614823341 -0.007515370845794678 0 0 0 0
2471463924 -0.04640917479991913 -0.23536011576652527 -0.002849029377102852 -0.007811708375811577 0 0 0 0
2475186008 -0.06022151559591293 -0.21220433712005615 -0.004643487744033337 -0.007797949947416782 0 0 0 0
2478908092 -0.06902773678302765 -0.18645796179771423 -0.0064968205988407135 -0.00725405290722847 0 0 0 0
2482630176 -0.07443170249462128 -0.15904176235198975 -0.008097836747765541 -0.00622006319463253 0 0 0 0
2486352260 -0.07544384151697159 -0.1324649304151535 -0.009398377500474453 -0.004823997616767883 0 0 0 0
2490074344 -0.07369391620159149 -0.10530979931354523 -0.010166510939598083 -0.0032518450170755386 0 0 0 0
2493796428 -0.06709254533052444 -0.07866605371236801 -0.010655301623046398 -0.0015507517382502556 0 0 0 0
2497518512 -0.05749918520450592 -0.05228227376937866 -0.010974152013659477 -0.00018974579870700836 0 0 0 0
2501240596 -0.04265250638127327 -0.02828127145767212 -0.011318161152303219 0.0015011429786682129 0 0 0 0
2504962680 -0.024345209822058678 -0.00810916442424059 -0.0112493596971035 0.0034688273444771767 0 0 0 0
2508684764 -0.003638133406639099 0.009703805670142174 -0.010897754691541195 0.005534075200557709 0 0 0 0
2512406848 0.017921997234225273 0.02426103688776493 -0.009862920269370079 0.007593411020934582 0 0 0 0
2516128932 0.042228374630212784 0.0361635684967041 -0.008147741667926311 0.009008007124066353 0 0 0 0
2519851016 0.06935037672519684 0.044917330145835876 -0.006555906496942043 0.010075513273477554 0 0 0 0
2523573100 0.09774259477853775 0.049181051552295685 -0.005102262832224369 0.01099289022386074 0 0 0 0
2527295184 0.12692438066005707 0.04745576158165932 -0.0033040158450603485 0.01177041046321392 0 0 0 0
2531017268 0.1549411118030548 0.04101642221212387 -0.0013953298330307007 0.0122548071667552 0 0 0 0
2534739352 0.1801515817642212 0.031027305871248245 0.0007825298234820366 0.01228234451264143 0 0 0 0
2538461436 0.20335949957370758 0.01447279378771782 0.0030328035354614258 0.011830681934952736 0 0 0 0
2542183520 0.22287636995315552 -0.001890026032924652 0.00480322539806366 0.010984712280333042 0 0 0 0
2545905604 0.2392825186252594 -0.022663041949272156 0.0064808521419763565 0.009990984573960304 0 0 0 0
2549627688 0.25247201323509216 -0.045852646231651306 0.008225767873227596 0.008750369772315025 0 0 0 0
2553349772 0.26231858134269714 -0.06721442937850952 0.009596475400030613 0.007302834652364254 0 0 0 0
2557071856 0.27019205689430237 -0.0918571949005127 0.010594168677926064 0.005246930755674839 0 0 0 0
2560793940 0.27112841606140137 -0.11382708698511124 0.011108464561402798 0.0033132554963231087 0 0 0 0
2564516024 0.2685103714466095 -0.13991200923919678 0.01153552159667015 0.0014524077996611595 0 0 0 0
2568238108 0.2652103304862976 -0.1620560735464096 0.0117889903485775 -0.0004830574616789818 0 0 0 0
2571960192 0.2561032772064209 -0.1847289800643921 0.011818061582744122 -0.002533774822950363 0 0 0 0
2575682276 0.2440982609987259 -0.2020431011915207 0.011294448748230934 -0.004951942712068558 0 0 0 0
2579404360 0.22679775953292847 -0.2210564762353897 0.01024771947413683 -0.007236304692924023 0 0 0 0
2583126444 0.2148933857679367 -0.2327755242586136 0.008838559500873089 -0.009277689270675182 0 0 0 0
2586848528 0.19668236374855042 -0.24536943435668945 0.006640797480940819 -0.010825509205460548 0 0 0 0
2590570612 0.17937469482421875 -0.25365549325942993 0.003973253071308136 -0.011776087805628777 0 0 0 0
2594292696 0.1610286980867386 -0.2607807219028473 0.0014406247064471245 -0.011815877631306648 0 0 0 0
2598014780 0.14253446459770203 -0.26507148146629333 -0.0006275279447436333 -0.011563427746295929 0 0 0 0
2601736864 0.12375034391880035 -0.26560908555984497 -0.0026668766513466835 -0.010712259449064732 0 0 0 0
2605458948 0.1047675684094429 -0.2650317847728729 -0.0041010258719325066 -0.009411015547811985 0 0 0 0
2609181032 0.08721740543842316 -0.2618412375450134 -0.004967835731804371 -0.008274296298623085 0 0 0 0
2612903116 0.06653319299221039 -0.25547605752944946 -0.0056315939873456955 -0.007241011597216129 0 0 0 0
2616625200 0.0516054704785347 -0.2450798898935318 -0.006293372251093388 -0.006234939210116863 0 0 0 0
2620347284 0.03588699921965599 -0.2315664142370224 -0.006608730182051659 -0.0053485119715332985 0 0 0 0
2624069368 0.023368827998638153 -0.21615168452262878 -0.0067945970222353935 -0.004664911888539791 0 0 0 0
2627791452 0.014118634164333344 -0.1985599249601364 -0.007142499089241028 -0.004097467288374901 0 0 0 0
2631513536 0.009737126529216766 -0.1799052357673645 -0.007578948512673378 -0.003649987280368805 0 0 0 0
2635235620 0.0071982890367507935 -0.16263169050216675 -0.008449848741292953 -0.0029737791046500206 0 0 0 0
2638957704 0.008395802229642868 -0.14460965991020203 -0.00926420371979475 -0.0018309336155653 0 0 0 0
2642679788 0.013764526695013046 -0.1266322135925293 -0.00977364182472229 -0.0003751888871192932 0 0 0 0
2646401872 0.021430909633636475 -0.11161552369594574 -0.009993706829845905 0.0013547083362936974 0 0 0 0
2650123956 0.03456138074398041 -0.09867236763238907 -0.00984366424381733 0.0030866246670484543 0 0 0 0
2653846040 0.046922553330659866 -0.08861418813467026 -0.008870135992765427 0.004989491775631905 0 0 0 0
2657568124 0.06090644747018814 -0.0818948969244957 -0.0074813347309827805 0.006309661082923412 0 0 0 0
2661290208 0.07614421844482422 -0.07874564826488495 -0.006190950982272625 0.007228008471429348 0 0 0 0
2665012292 0.09103279560804367 -0.07951174676418304 -0.005030074156820774 0.008092189207673073 0 0 0 0
2668734376 0.10417898744344711 -0.0832219049334526 -0.0035500293597579002 0.008653565309941769 0 0 0 0
2672456460 0.11691223829984665 -0.0899038091301918 -0.0016485750675201416 0.009134406223893166 0 0 0 0
2676178544 0.12848587334156036 -0.09796541929244995 0.00023972243070602417 0.009115765802562237 0 0 0 0
2679900628 0.13700105249881744 -0.10867972671985626 0.002094915136694908 0.008567903190851212 0 0 0 0
2683622712 0.14182902872562408 -0.12040845304727554 0.0036684824153780937 0.007588863372802734 0 0 0 0
2687344796 0.14308294653892517 -0.13510967791080475 0.004935623146593571 0.006303407251834869 0 0 0 0
2691066880 0.1418517827987671 -0.14951173961162567 0.0056883301585912704 0.004949375055730343 0 0 0 0
2694788964 0.13794559240341187 -0.16052857041358948 0.006087177433073521 0.0035520121455192566 0 0 0 0
2698511048 0.1323498785495758 -0.17124062776565552 0.006601777859032154 0.0025267191231250763 0 0 0 0
2702233132 0.12532657384872437 -0.17956258356571198 0.007033993490040302 0.0012014368548989296 0 0 0 0
2705955216 0.11489266157150269 -0.187980517745018 0.006859189830720425 -0.0006117532029747963 0 0 0 0
2709677300 0.10407108068466187 -0.19434812664985657 0.006235629320144653 -0.0020420998334884644 0 0 0 0
2713399384 0.09137121587991714 -0.1994062066078186 0.005434702150523663 -0.002974020317196846 0 0 0 0
2717121468 0.07616572082042694 -0.20193742215633392 0.004534509964287281 -0.00353216752409935 0 0 0 0
2720843552 0.06192788481712341 -0.1998540759086609 0.004024241119623184 -0.004233601503074169 0 0 0 0
2724565636 0.047248199582099915 -0.19543346762657166 0.003330659121274948 -0.004928004927933216 0 0 0 0
2728287720 0.03437670320272446 -0.18857134878635406 0.002413436770439148 -0.005763053894042969 0 0 0 0
2732009804 0.02099718153476715 -0.17954868078231812 0.001124488189816475 -0.0060897087678313255 0 0 0 0
2735731888 0.012173522263765335 -0.16863186657428741 -0.00032022874802351 -0.006060420535504818 0 0 0 0
2739453972 0.003071621060371399 -0.155474454164505 -0.001507963053882122 -0.0054414477199316025 0 0 0 0
2743176056 -0.006211906671524048 -0.1407071202993393 -0.002400236204266548 -0.004639077931642532 0 0 0 0
2746898140 -0.012161020189523697 -0.12248744815587997 -0.002674493007361889 -0.0038333088159561157 0 0 0 0
2750620224 -0.01266876608133316 -0.103805772960186 -0.002700580283999443 -0.0035624289885163307 0 0 0 0
2754342308 -0.010544652119278908 -0.08421286195516586 -0.003126053139567375 -0.0035068439319729805 0 0 0 0
2758064392 -0.004241501912474632 -0.06636969745159149 -0.0038090869784355164 -0.003290712833404541 0 0 0 0
2761786476 0.004677655175328255 -0.050440430641174316 -0.0046506356447935104 -0.002656439319252968 0 0 0 0
2765508560 0.015252633020281792 -0.03485212102532387 -0.005276461131870747 -0.0017228182405233383 0 0 0 0
2769230644 0.02832101471722126 -0.020604874938726425 -0.005620332434773445 -0.0004712594673037529 0 0 0 0
2772952728 0.043616943061351776 -0.008514832705259323 -0.005799117498099804 0.0010480713099241257 0 0 0 0
2776674812 0.06276129186153412 0.0017611486837267876 -0.005326668731868267 0.0025508739054203033 0 0 0 0
2780396896 0.0839194506406784 0.008285429328680038 -0.0042690737172961235 0.0038528377190232277 0 0 0 0
2784118980 0.10531854629516602 0.011395139619708061 -0.002739613875746727 0.004751990549266338 0 0 0 0
2787841064 0.12721286714076996 0.011405427008867264 -0.0012204330414533615 0.005096123553812504 0 0 0 0
2791563148 0.14871522784233093 0.0074100010097026825 0.00033942796289920807 0.004892521537840366 0 0 0 0
2795285232 0.16979125142097473 -0.0010213889181613922 0.0017649214714765549 0.00428328663110733 0 0 0 0
2799007316 0.19092661142349243 -0.009992072358727455 0.0027438951656222343 0.0032797949388623238 0 0 0 0
2802729400 0.20946848392486572 -0.028364267200231552 0.0034667113795876503 0.0019888784736394882 0 0 0 0
2806451484 0.22587868571281433 -0.04374487325549126 0.0034832851961255074 0.0008553126826882362 0 0 0 0
2810173568 0.23908482491970062 -0.06177274510264397 0.0032483600080013275 3.4718774259090424e-05 0 0 0 0
2813895652 0.25020408630371094 -0.08258615434169769 0.0031477222219109535 -0.000584818422794342 0 0 0 0
2817617736 0.256521999835968 -0.10784047842025757 0.0027683107182383537 -0.0012531308457255363 0 0 0 0
2821339820 0.25804978609085083 -0.1341305375099182 0.0022064680233597755 -0.001794557087123394 0 0 0 0
2825061904 0.2582729458808899 -0.15659555792808533 0.001597885973751545 -0.0019552111625671387 0 0 0 0
2828783988 0.25613752007484436 -0.17993181943893433 0.0012227846309542656 -0.0018170205876231194 0 0 0 0
2832506072 0.2482142597436905 -0.20267558097839355 0.0011323485523462296 -0.0017737876623868942 0 0 0 0
2836228156 0.23501890897750854 -0.22665369510650635 0.001216723583638668 -0.0017010066658258438 0 0 0 0
2839950240 0.22005793452262878 -0.2488543689250946 0.001287613995373249 -0.0021059801802039146 0 0 0 0
2843672324 0.20661835372447968 -0.2625432312488556 0.0011324146762490273 -0.0024158386513590813 0 0 0 0
2847394408 0.18954573571681976 -0.2796901762485504 0.0008268505334854126 -0.0028441036120057106 0 0 0 0
2851116492 0.16521672904491425 -0.2940296232700348 0.00039508193731307983 -0.0031870901584625244 0 0 0 0
2854838576 0.14581520855426788 -0.30220770835876465 -0.00011263694614171982 -0.0035164514556527138 0 0 0 0
2858560660 0.12740175426006317 -0.3096493184566498 -0.0006251800805330276 -0.004092251881957054 0 0 0 0
2862282744 0.1004127487540245 -0.3163908123970032 -0.001599765382707119 -0.003961576148867607 0 0 0 0
2866004828 0.07768596708774567 -0.3176538646221161 -0.002474060282111168 -0.0035453056916594505 0 0 0 0
2869726912 0.05431239679455757 -0.31666770577430725 -0.0031895842403173447 -0.0028125932440161705 0 0 0 0
2873448996 0.03227560594677925 -0.3121049404144287 -0.003474995493888855 -0.001898077316582203 0 0 0 0
2877171080 0.011494018137454987 -0.30518174171447754 -0.003577754832804203 -0.0011714063584804535 0 0 0 0
2880893164 -0.013711348176002502 -0.29628103971481323 -0.0034167971462011337 -0.0004170592874288559 0 0 0 0
2884615248 -0.037514373660087585 -0.2833142578601837 -0.0031396793201565742 0.0001415656879544258 0 0 0 0
2888337332 -0.055818408727645874 -0.26804834604263306 -0.0029136883094906807 0.000584309920668602 0 0 0 0
2892059416 -0.0726488009095192 -0.25210312008857727 -0.002561984583735466 0.0010751523077487946 0 0 0 0
2895781500 -0.0874965637922287 -0.23286515474319458 -0.002153913490474224 0.0013400502502918243 0 0 0 0
2899503584 -0.10090447962284088 -0.21026287972927094 -0.0017151907086372375 0.0015502488240599632 0 0 0 0
2903225668 -0.11131105571985245 -0.18702296912670135 -0.0014834990724921227 0.0016667144373059273 0 0 0 0
2906947752 -0.12056045979261398 -0.1608726531267166 -0.001178015023469925 0.0018226029351353645 0 0 0 0
2910669836 -0.12430958449840546 -0.13384127616882324 -0.0008503459393978119 0.002070872113108635 0 0 0 0
2914391920 -0.12528665363788605 -0.10542608797550201 -0.00060317013412714 0.00229826383292675 0 0 0 0
2918114004 -0.1200982928276062 -0.0791378766298294 -0.0002484656870365143 0.002585587091743946 0 0 0 0
2921836088 -0.11180618405342102 -0.05346051603555679 0.00023978576064109802 0.002735077403485775 0 0 0 0
2925558172 -0.10150017589330673 -0.03012903966009617 0.0009765243157744408 0.0027231918647885323 0 0 0 0
2929280256 -0.08807522803544998 -0.007807618007063866 0.0014936532825231552 0.0025716572999954224 0 0 0 0
2933002340 -0.072087362408638 0.013812461867928505 0.001974562183022499 0.0025003571063280106 0 0 0 0
2936724424 -0.05283767729997635 0.032717496156692505 0.0024797404184937477 0.002188044600188732 0 0 0 0
2940446508 -0.03193911910057068 0.04862724989652634 0.0030359430238604546 0.0019619129598140717 0 0 0 0
2944168592 -0.008840128779411316 0.061413876712322235 0.003311839886009693 0.0013809921219944954 0 0 0 0
2947890676 0.016007453203201294 0.07204089313745499 0.0035798875615000725 0.0010987306013703346 0 0 0 0
2951612760 0.04132627323269844 0.0790066197514534 0.003800751641392708 0.0007347315549850464 0 0 0 0
2955334844 0.06812596321105957 0.08224055916070938 0.0042476290836930275 3.277137875556946e-05 0 0 0 0
2959056928 0.09453709423542023 0.08261053264141083 0.004531150683760643 -0.0006690984591841698 0 0 0 0
2962779012 0.12186799943447113 0.0802847146987915 0.004590410739183426 -0.001489114947617054 0 0 0 0
2966501096 0.14768482744693756 0.07350169867277145 0.004407375119626522 -0.0019619110971689224 0 0 0 0
2970223180 0.17412102222442627 0.06029586121439934 0.004240258596837521 -0.002742484211921692 0 0 0 0
2973945264 0.19640778005123138 0.04562532156705856 0.003743738867342472 -0.003570491448044777 0 0 0 0
2977667348 0.2172611951828003 0.02519199252128601 0.0031990567222237587 -0.004371626302599907 0 0 0 0
2981389432 0.234695166349411 0.006463184952735901 0.002316311001777649 -0.004770541563630104 0 0 0 0
2985111516 0.24893943965435028 -0.014398612082004547 0.0014760829508304596 -0.005038045346736908 0 0 0 0
2988833600 0.2597429156303406 -0.04068050906062126 0.00066373310983181 -0.005181388929486275 0 0 0 0
2992555684 0.2669830620288849 -0.06426341086626053 -0.0004543447867035866 -0.005293665453791618 0 0 0 0
2996277768 0.2689874470233917 -0.09014381468296051 -0.0014576828107237816 -0.0050111617892980576 0 0 0 0
2999999852 0.2693753242492676 -0.1158342957496643 -0.0023732446134090424 -0.004343620501458645 0 0 0 0
