# HZ S RI R 50
1500000000 -0.12245150655508041 -0.06181441247463226 0.038832105696201324 -0.03217225521802902 0 0 0 0
1503722084 -0.113034687936306 -0.029541969299316406 0.03214106336236 -0.03961484134197235 0 0 0 0
1507444168 -0.0956391990184784 0.0005459636449813843 0.023539429530501366 -0.045213304460048676 0 0 0 0
1511166252 -0.07090464979410172 0.029028285294771194 0.01376318745315075 -0.04844900965690613 0 0 0 0
1514888336 -0.039505649358034134 0.05276082828640938 0.003544052131474018 -0.04916703328490257 0 0 0 0
1518610420 -0.00279910396784544 0.07095468044281006 -0.006138775497674942 -0.04736490175127983 0 0 0 0
1522332504 0.03813449293375015 0.08176863193511963 -0.014680645428597927 -0.043173667043447495 0 0 0 0
1526054588 0.08067356795072556 0.08626320958137512 -0.02154666930437088 -0.037841856479644775 0 0 0 0
1529776672 0.12591107189655304 0.08372862637042999 -0.026656266301870346 -0.03179152309894562 0 0 0 0
1533498756 0.17186151444911957 0.07137890160083771 -0.03041292168200016 -0.02454083226621151 0 0 0 0
1537220840 0.21671876311302185 0.051768817007541656 -0.03201226517558098 -0.017737843096256256 0 0 0 0
1540942924 0.25893425941467285 0.02357058972120285 -0.03185063600540161 -0.011283431202173233 0 0 0 0
1544665008 0.2960968315601349 -0.01351878046989441 -0.030706632882356644 -0.005818206816911697 0 0 0 0
1548387092 0.32674020528793335 -0.053817201405763626 -0.029199736192822456 -0.0018266746774315834 0 0 0 0
1552109176 0.3515670597553253 -0.10361427068710327 -0.027668453752994537 0.002236246131360531 0 0 0 0
1555831260 0.36800751090049744 -0.15619918704032898 -0.02575913444161415 0.005993473343551159 0 0 0 0
1559553344 0.37414997816085815 -0.21276187896728516 -0.023141520097851753 0.008913238532841206 0 0 0 0
1563275428 0.3711807131767273 -0.26988881826400757 -0.0204815361648798 0.011076422408223152 0 0 0 0
1566997512 0.36187875270843506 -0.3263537287712097 -0.01804233528673649 0.012949707917869091 0 0 0 0
1570719596 0.34115517139434814 -0.3818541467189789 -0.015357592143118382 0.01431773230433464 0 0 0 0
1574441680 0.31026074290275574 -0.43506255745887756 -0.012507679872214794 0.015240509063005447 0 0 0 0
1578163764 0.27322304248809814 -0.48036181926727295 -0.01026242133229971 0.015552212484180927 0 0 0 0
1581885848 0.2265852689743042 -0.5214925408363342 -0.008213777095079422 0.015872035175561905 0 0 0 0
1585607932 0.1768573373556137 -0.5542004108428955 -0.0063760168850421906 0.016094405204057693 0 0 0 0
1589330016 0.11968648433685303 -0.5808641314506531 -0.004636682569980621 0.016280626878142357 0 0 0 0
1593052100 0.059272632002830505 -0.5991926789283752 -0.0030796872451901436 0.01673627644777298 0 0 0 0
1596774184 -0.0010722577571868896 -0.6074017286300659 -0.0010862210765480995 0.01720956712961197 0 0 0 0
1600496268 -0.06840196251869202 -0.6057019829750061 0.0014202576130628586 0.01746365800499916 0 0 0 0
1604218352 -0.129832461476326 -0.5938048958778381 0.0038121165707707405 0.017034955322742462 0 0 0 0
1607940436 -0.19144974648952484 -0.5745009183883667 0.006310385651886463 0.016102496534585953 0 0 0 0
1611662520 -0.2529233992099762 -0.5455501675605774 0.008434670977294445 0.014952169731259346 0 0 0 0
1615384604 -0.3085707426071167 -0.5065336227416992 0.010316058993339539 0.013490241952240467 0 0 0 0
1619106688 -0.35711199045181274 -0.46018296480178833 0.011820264160633087 0.012367896735668182 0 0 0 0
1622828772 -0.40079307556152344 -0.4040507972240448 0.013890963979065418 0.011016380973160267 0 0 0 0
1626550856 -0.4374273419380188 -0.3411424160003662 0.016115952283143997 0.008783301338553429 0 0 0 0
1630272940 -0.4615417420864105 -0.2737075388431549 0.017946381121873856 0.006102513521909714 0 0 0 0
1633995024 -0.4780125916004181 -0.2024458944797516 0.019127558916807175 0.0026261210441589355 0 0 0 0
1637717108 -0.4824039340019226 -0.1317678987979889 0.019572509452700615 -0.0008265674114227295 0 0 0 0
1641439192 -0.47732430696487427 -0.056144628673791885 0.019095631316304207 -0.004696746356785297 0 0 0 0
1645161276 -0.45915067195892334 0.01592308282852173 0.01796910911798477 -0.007960952818393707 0 0 0 0
1648883360 -0.4303729832172394 0.09106321632862091 0.016279054805636406 -0.011420907452702522 0 0 0 0
1652605444 -0.38959813117980957 0.15854623913764954 0.013787569478154182 -0.014440709725022316 0 0 0 0
1656327528 -0.3392069637775421 0.21891924738883972 0.010727239772677422 -0.017123878002166748 0 0 0 0
1660049612 -0.277681827545166 0.2729904055595398 0.006685816682875156 -0.018687386065721512 0 0 0 0
1663771696 -0.20835477113723755 0.31601282954216003 0.0023758038878440857 -0.01913103088736534 0 0 0 0
1667493780 -0.13362126052379608 0.34752678871154785 -0.0013139285147190094 -0.018470026552677155 0 0 0 0
1671215864 -0.05451975017786026 0.3690621256828308 -0.0047011589631438255 -0.01765354350209236 0 0 0 0
1674937948 0.030537184327840805 0.375855416059494 -0.008277080953121185 -0.01578419655561447 0 0 0 0
1678660032 0.11265924572944641 0.37025144696235657 -0.01100941188633442 -0.013097133487462997 0 0 0 0
1682382116 0.1936749666929245 0.3513268530368805 -0.012752752751111984 -0.00985397957265377 0 0 0 0
1686104200 0.271241158246994 0.3209688663482666 -0.013407443650066853 -0.006595032289624214 0 0 0 0
1689826284 0.34521228075027466 0.27498286962509155 -0.013373157009482384 -0.0036758221685886383 0 0 0 0
1693548368 0.4083917438983917 0.22146281599998474 -0.013035159558057785 -0.001260858029127121 0 0 0 0
1697270452 0.4622863531112671 0.15746289491653442 -0.012071807868778706 0.0010101068764925003 0 0 0 0
1700992536 0.5055524110794067 0.08556243777275085 -0.010976656340062618 0.00268356129527092 0 0 0 0
1704714620 0.5361126661300659 0.010655999183654785 -0.0100582679733634 0.004113585688173771 0 0 0 0
1708436704 0.5544605255126953 -0.06513817608356476 -0.008895013481378555 0.005731339566409588 0 0 0 0
1712158788 0.5602068305015564 -0.14795713126659393 -0.007169483229517937 0.00730555597692728 0 0 0 0
1715880872 0.5535753965377808 -0.22622549533843994 -0.00490682665258646 0.008162644691765308 0 0 0 0
1719602956 0.5359428524971008 -0.3040851652622223 -0.0025497358292341232 0.008217933587729931 0 0 0 0
1723325040 0.5033298134803772 -0.37875646352767944 -0.0005351025611162186 0.007371583953499794 0 0 0 0
1727047124 0.46530455350875854 -0.4426470994949341 0.0007576262578368187 0.006235003471374512 0 0 0 0
1730769208 0.4139057993888855 -0.5016535520553589 0.001438894309103489 0.0050344280898571014 0 0 0 0
1734491292 0.356195867061615 -0.5513119101524353 0.001928558573126793 0.003938962705433369 0 0 0 0
1738213376 0.29340624809265137 -0.590096116065979 0.001943446695804596 0.0028862887993454933 0 0 0 0
1741935460 0.22654029726982117 -0.6161049604415894 0.0015947045758366585 0.0018449686467647552 0 0 0 0
1745657544 0.15434792637825012 -0.6339325308799744 0.0009005134925246239 0.0013038823381066322 0 0 0 0
1749379628 0.0844641625881195 -0.6400138139724731 0.0001574438065290451 0.0014223409816622734 0 0 0 0
1753101712 0.015161785297095776 -0.6338828802108765 -0.00015985220670700073 0.0018922900781035423 0 0 0 0
1756823796 -0.052136510610580444 -0.6186232566833496 -0.0002612583339214325 0.0023473361507058144 0 0 0 0
1760545880 -0.1126832365989685 -0.5942357778549194 -2.042856067419052e-05 0.002949923276901245 0 0 0 0
1764267964 -0.17234031856060028 -0.5603507161140442 0.0006251586601138115 0.0032614655792713165 0 0 0 0
1767990048 -0.2176191359758377 -0.5209711194038391 0.0014173416420817375 0.0031041158363223076 0 0 0 0
1771712132 -0.2631673216819763 -0.4752713739871979 0.0019511505961418152 0.0025157686322927475 0 0 0 0
1775434216 -0.2973366379737854 -0.42507871985435486 0.0019233338534832 0.0019588032737374306 0 0 0 0
1779156300 -0.3247373104095459 -0.37048572301864624 0.0017536580562591553 0.0017766617238521576 0 0 0 0
1782878384 -0.34349703788757324 -0.3154115080833435 0.0018444396555423737 0.0015356121584773064 0 0 0 0
1786600468 -0.3556012809276581 -0.2559148073196411 0.0015425635501742363 0.001376541331410408 0 0 0 0
1790322552 -0.35816866159439087 -0.19695065915584564 0.0014341119676828384 0.0013295868411660194 0 0 0 0
1794044636 -0.3522969186306 -0.13696298003196716 0.0012225359678268433 0.0015929117798805237 0 0 0 0
1797766720 -0.3366777002811432 -0.08197376877069473 0.0009491443634033203 0.0018997620791196823 0 0 0 0
1801488804 -0.3144233822822571 -0.027358099818229675 0.0009947316721081734 0.0029629915952682495 0 0 0 0
1805210888 -0.2841989994049072 0.019699878990650177 0.002038399688899517 0.004048355855047703 0 0 0 0
1808932972 -0.2477208375930786 0.06261515617370605 0.003865462727844715 0.004285385832190514 0 0 0 0
1812655056 -0.20423048734664917 0.1000882089138031 0.005138746462762356 0.003585636615753174 0 0 0 0
1816377140 -0.15507292747497559 0.12895271182060242 0.006264692172408104 0.002989436499774456 0 0 0 0
1820099224 -0.1045537143945694 0.14853312075138092 0.007700640708208084 0.0021068258211016655 0 0 0 0
1823821308 -0.050134215503931046 0.16053520143032074 0.009027899242937565 -2.777576446533203e-05 0 0 0 0
1827543392 0.0018952935934066772 0.16290244460105896 0.009241150692105293 -0.002437143586575985 0 0 0 0
1831265476 0.05261238291859627 0.1576530784368515 0.008617566898465157 -0.004787910729646683 0 0 0 0
1834987560 0.1009926050901413 0.14355115592479706 0.0071318261325359344 -0.006585690192878246 0 0 0 0
1838709644 0.14524208009243011 0.12301655858755112 0.005167177878320217 -0.007974889129400253 0 0 0 0
1842431728 0.184197336435318 0.09926936030387878 0.003366154618561268 -0.008223896846175194 0 0 0 0
1846153812 0.21889667212963104 0.06943798065185547 0.0020662257447838783 -0.007691561244428158 0 0 0 0
1849875896 0.24748045206069946 0.03343096002936363 0.001466980203986168 -0.007437216117978096 0 0 0 0
1853597980 0.27125710248947144 -0.003912355750799179 0.0012686457484960556 -0.007364371791481972 0 0 0 0
1857320064 0.2875286638736725 -0.04341509938240051 0.0011666184291243553 -0.007833085022866726 0 0 0 0
1861042148 0.29776400327682495 -0.08506948500871658 0.00047797802835702896 -0.008874344639480114 0 0 0 0
1864764232 0.30056527256965637 -0.12729856371879578 -0.0010337373241782188 -0.009444573894143105 0 0 0 0
1868486316 0.29715707898139954 -0.16690297424793243 -0.0025746216997504234 -0.009506257250905037 0 0 0 0
1872208400 0.28882476687431335 -0.20511981844902039 -0.0038043195381760597 -0.009220334701240063 0 0 0 0
1875930484 0.27081528306007385 -0.2389267235994339 -0.0063086217269301414 -0.007196805439889431 0 0 0 0
1879652568 0.24929742515087128 -0.2738999128341675 -0.0067485058680176735 -0.006999127566814423 0 0 0 0
1883374652 0.2221831977367401 -0.30202919244766235 -0.008128466084599495 -0.007772218436002731 0 0 0 0
1887096736 0.19249746203422546 -0.32379209995269775 -0.011250773444771767 -0.007794080302119255 0 0 0 0
1890818820 0.15720462799072266 -0.33975982666015625 -0.01471023540943861 -0.005990724079310894 0 0 0 0
1894540904 0.12237463146448135 -0.347335547208786 -0.017407424747943878 -0.0024595865979790688 0 0 0 0
1898262988 0.08881688863039017 -0.3490699827671051 -0.018643276765942574 0.0019158991053700447 0 0 0 0
1901985072 0.05551080405712128 -0.3455965220928192 -0.018048662692308426 0.00651831179857254 0 0 0 0
1905707156 0.02597080171108246 -0.3377564251422882 -0.016764139756560326 0.009900067001581192 0 0 0 0
1909429240 -0.0011296048760414124 -0.3227403163909912 -0.01495400071144104 0.013333742506802082 0 0 0 0
1913151324 -0.026142336428165436 -0.3058876097202301 -0.012288369238376617 0.016640590503811836 0 0 0 0
1916873408 -0.04859624803066254 -0.285251259803772 -0.0085251834243536 0.019481010735034943 0 0 0 0
1920595492 -0.06495101004838943 -0.2617492973804474 -0.004217203706502914 0.02104741334915161 0 0 0 0
1924317576 -0.0785863995552063 -0.2349691390991211 0.0004683062434196472 0.021308843046426773 0 0 0 0
1928039660 -0.08596709370613098 -0.20773060619831085 0.004834466613829136 0.0205558892339468 0 0 0 0
1931761744 -0.09059427678585052 -0.17957189679145813 0.009400824084877968 0.01855984516441822 0 0 0 0
1935483828 -0.08866874873638153 -0.15234827995300293 0.012199290096759796 0.015466928482055664 0 0 0 0
1939205912 -0.08272805064916611 -0.12536920607089996 0.013678638264536858 0.012169154360890388 0 0 0 0
1942927996 -0.07323077321052551 -0.09750852733850479 0.01452372595667839 0.009529015980660915 0 0 0 0
1946650080 -0.05804947018623352 -0.07270267605781555 0.015163460746407509 0.00772515032440424 0 0 0 0
1950372164 -0.03798874467611313 -0.05068930238485336 0.01589570939540863 0.005526513792574406 0 0 0 0
1954094248 -0.014227679930627346 -0.03302719444036484 0.016816284507513046 0.0033904453739523888 0 0 0 0
1957816332 0.012145030312240124 -0.01997285522520542 0.017777901142835617 0.0007209246978163719 0 0 0 0
1961538416 0.041205909103155136 -0.011143757030367851 0.01788792759180069 -0.002257060259580612 0 0 0 0
1965260500 0.07121235132217407 -0.00864974595606327 0.017320265993475914 -0.00470390822738409 0 0 0 0
1968982584 0.10228069126605988 -0.013274382799863815 0.017585119232535362 -0.007529472000896931 0 0 0 0
1972704668 0.131855309009552 -0.024204598739743233 0.017308130860328674 -0.011563452892005444 0 0 0 0
1976426752 0.15672919154167175 -0.03891216218471527 0.01564006507396698 -0.01587219163775444 0 0 0 0
1980148836 0.17859087884426117 -0.05993592366576195 0.01203184574842453 -0.02054605446755886 0 0 0 0
1983870920 0.19625531136989594 -0.08283790200948715 0.00671094935387373 -0.023310750722885132 0 0 0 0
1987593004 0.20802508294582367 -0.1092795729637146 0.0011391574516892433 -0.024245360866189003 0 0 0 0
1991315088 0.21584738790988922 -0.1364174634218216 -0.004483708180487156 -0.023530421778559685 0 0 0 0
1995037172 0.2181641012430191 -0.1639614701271057 -0.009630279615521431 -0.021282266825437546 0 0 0 0
1998759256 0.21663671731948853 -0.19191472232341766 -0.012941859662532806 -0.01826845481991768 0 0 0 0
2002481340 0.2083379477262497 -0.21915675699710846 -0.01508859172463417 -0.015043502673506737 0 0 0 0
2006203424 0.1961325854063034 -0.2432537078857422 -0.01701485738158226 -0.012665355578064919 0 0 0 0
2009925508 0.17925457656383514 -0.2652530074119568 -0.01902800425887108 -0.010373113676905632 0 0 0 0
2013647592 0.16118797659873962 -0.28321757912635803 -0.020922593772411346 -0.007582514546811581 0 0 0 0
2017369676 0.13719257712364197 -0.29996412992477417 -0.023280462250113487 -0.004104881547391415 0 0 0 0
2021091760 0.10977266728878021 -0.31228676438331604 -0.025121310725808144 0.000492519699037075 0 0 0 0
2024813844 0.08124681562185287 -0.31758275628089905 -0.025244954973459244 0.006647096946835518 0 0 0 0
2028535928 0.05370131507515907 -0.318193256855011 -0.023311838507652283 0.01254733931273222 0 0 0 0
2032258012 0.025142304599285126 -0.3129746615886688 -0.019884467124938965 0.016828998923301697 0 0 0 0
2035980096 0.0005630850791931152 -0.3043256998062134 -0.01593172550201416 0.020291252061724663 0 0 0 0
2039702180 -0.02290710061788559 -0.2920367121696472 -0.011811325326561928 0.023004094138741493 0 0 0 0
2043424264 -0.04704897850751877 -0.2750214636325836 -0.006696595810353756 0.02432296611368656 0 0 0 0
2047146348 -0.064872607588768 -0.25653350353240967 -0.0019505396485328674 0.024813586845993996 0 0 0 0
2050868432 -0.0820438414812088 -0.23506133258342743 0.002426721155643463 0.024108093231916428 0 0 0 0
2054590516 -0.09566215425729752 -0.2107817679643631 0.00676034577190876 0.022996854037046432 0 0 0 0
2058312600 -0.10495191067457199 -0.1837558150291443 0.010459300130605698 0.02100457437336445 0 0 0 0
2062034684 -0.111333929002285 -0.15529519319534302 0.013798065483570099 0.018893852829933167 0 0 0 0
2065756768 -0.11600717902183533 -0.1234455406665802 0.01680893823504448 0.015322237275540829 0 0 0 0
2069478852 -0.11366556584835052 -0.09226096421480179 0.01897536963224411 0.012170878238976002 0 0 0 0
2073200936 -0.1064562276005745 -0.05967503786087036 0.02045999839901924 0.008157530799508095 0 0 0 0
2076923020 -0.09297530353069305 -0.02745041996240616 0.020640473812818527 0.004211478866636753 0 0 0 0
2080645104 -0.07319222390651703 0.0020948871970176697 0.019888315349817276 0.0006310567259788513 0 0 0 0
2084367188 -0.04864265397191048 0.028882747516036034 0.018835606053471565 -0.0022512227296829224 0 0 0 0
2088089272 -0.01863863691687584 0.051368698477745056 0.017812244594097137 -0.004259956069290638 0 0 0 0
2091811356 0.014734718948602676 0.06860043853521347 0.01731836423277855 -0.006415765732526779 0 0 0 0
2095533440 0.051935143768787384 0.07893958687782288 0.016743043437600136 -0.00923194084316492 0 0 0 0
2099255524 0.08858343213796616 0.08383206278085709 0.015607244335114956 -0.012073135934770107 0 0 0 0
2102977608 0.12811774015426636 0.08103348314762115 0.013266950845718384 -0.015365811064839363 0 0 0 0
2106699692 0.165376678109169 0.07357816398143768 0.010220742784440517 -0.017785919830203056 0 0 0 0
2110421776 0.2025652974843979 0.05971686914563179 0.006947587244212627 -0.019480017945170403 0 0 0 0
2114143860 0.23686347901821136 0.03702603653073311 0.0031721852719783783 -0.02058790624141693 0 0 0 0
2117865944 0.2650793194770813 0.007555179297924042 -0.0008590621873736382 -0.020953282713890076 0 0 0 0
2121588028 0.2873901128768921 -0.023780696094036102 -0.0050627607852220535 -0.020869078114628792 0 0 0 0
2125310112 0.30195561051368713 -0.059274084866046906 -0.00994934979826212 -0.019416319206357002 0 0 0 0
2129032196 0.31165194511413574 -0.09473474323749542 -0.013913611881434917 -0.016423840075731277 0 0 0 0
2132754280 0.31549397110939026 -0.12749773263931274 -0.016908640041947365 -0.012253841385245323 0 0 0 0
2136476364 0.3147279620170593 -0.16322262585163116 -0.01795344054698944 -0.007366301491856575 0 0 0 0
2140198448 0.30866876244544983 -0.19789843261241913 -0.017406132072210312 -0.0032296674326062202 0 0 0 0
2143920532 0.2968326210975647 -0.23092402517795563 -0.016246812418103218 -0.0003449879586696625 0 0 0 0
2147642616 0.2795683741569519 -0.26115673780441284 -0.015061373822391033 0.002018699422478676 0 0 0 0
2151364700 0.2593114972114563 -0.28503379225730896 -0.013493591919541359 0.0037772981449961662 0 0 0 0
2155086784 0.23526903986930847 -0.3086349368095398 -0.012151483446359634 0.005267021246254444 0 0 0 0
2158808868 0.2047768384218216 -0.3281673789024353 -0.011022159829735756 0.006114318035542965 0 0 0 0
2162530952 0.17510372400283813 -0.3402850031852722 -0.01037992350757122 0.00693577341735363 0 0 0 0
2166253036 0.1427556276321411 -0.3485228419303894 -0.010023676790297031 0.00817947369068861 0 0 0 0
2169975120 0.10851624608039856 -0.3508628010749817 -0.009257563389837742 0.00990808755159378 0 0 0 0
2173697204 0.07885849475860596 -0.3481227159500122 -0.007496346719563007 0.011922378093004227 0 0 0 0
2177419288 0.048543475568294525 -0.34185364842414856 -0.005215190351009369 0.013087373226881027 0 0 0 0
2181141372 0.018519967794418335 -0.33093389868736267 -0.002857016399502754 0.013654174283146858 0 0 0 0
2184863456 -0.0075540319085121155 -0.31478151679039 -0.0008677560836076736 0.013585103675723076 0 0 0 0
2188585540 -0.03322479873895645 -0.29549330472946167 0.0012310966849327087 0.013572907075285912 0 0 0 0
2192307624 -0.056151751428842545 -0.27099207043647766 0.003429514355957508 0.013426543213427067 0 0 0 0
2196029708 -0.07091418653726578 -0.24350008368492126 0.005720485933125019 0.012868399731814861 0 0 0 0
2199751792 -0.08356550335884094 -0.21261578798294067 0.008282249793410301 0.011348010040819645 0 0 0 0
2203473876 -0.09321898221969604 -0.17880943417549133 0.010194412432610989 0.0094434954226017 0 0 0 0
2207195960 -0.09225756675004959 -0.14811111986637115 0.011425393633544445 0.007112860679626465 0 0 0 0
2210918044 -0.08610128611326218 -0.1168941929936409 0.012063437141478062 0.005228612571954727 0 0 0 0
2214640128 -0.07678471505641937 -0.0867706909775734 0.012905548326671124 0.0033128783106803894 0 0 0 0
2218362212 -0.062175922095775604 -0.0582771971821785 0.01318635419011116 0.0009786821901798248 0 0 0 0
2222084296 -0.04292850196361542 -0.033126186579465866 0.013487458229064941 -0.0016093431040644646 0 0 0 0
2225806380 -0.019210273399949074 -0.010909712873399258 0.01310800202190876 -0.004492947831749916 0 0 0 0
2229528464 0.008366342633962631 0.005892197601497173 0.012363797053694725 -0.007438952103257179 0 0 0 0
2233250548 0.03757245093584061 0.01632373221218586 0.010238991118967533 -0.010413197800517082 0 0 0 0
2236972632 0.06814892590045929 0.020063001662492752 0.006966400891542435 -0.012739676982164383 0 0 0 0
2240694716 0.09728732705116272 0.021876618266105652 0.0034462735056877136 -0.01343599334359169 0 0 0 0
2244416800 0.1264263242483139 0.013012677431106567 -5.968660116195679e-05 -0.013281261548399925 0 0 0 0
2248138884 0.15328949689865112 0.004421845078468323 -0.0030260570347309113 -0.012078508734703064 0 0 0 0
2251860968 0.17478115856647491 -0.012047287076711655 -0.004707610234618187 -0.009722238406538963 0 0 0 0
2255583052 0.19655270874500275 -0.027198154479265213 -0.006138904020190239 -0.008015111088752747 0 0 0 0
2259305136 0.2111978530883789 -0.05495834723114967 -0.0071100881323218346 -0.0062960367649793625 0 0 0 0
2263027220 0.22481654584407806 -0.07291130721569061 -0.007593025453388691 -0.004746639169752598 0 0 0 0
2266749304 0.23089319467544556 -0.09944240748882294 -0.007797596976161003 -0.0028676437214016914 0 0 0 0
2270471388 0.23432904481887817 -0.12448067963123322 -0.00728651974350214 -0.001337837427854538 0 0 0 0
2274193472 0.23641757667064667 -0.14432626962661743 -0.006286456249654293 -0.00023582763969898224 0 0 0 0
2277915556 0.23182818293571472 -0.16955888271331787 -0.005446053110063076 1.804158091545105e-05 0 0 0 0
2281637640 0.22008134424686432 -0.19588454067707062 -0.005126467905938625 -4.5915134251117706e-05 0 0 0 0
2285359724 0.2084231972694397 -0.21430201828479767 -0.004996472038328648 -7.91577622294426e-05 0 0 0 0
2289081808 0.18798306584358215 -0.2335154265165329 -0.005300700664520264 -3.74913215637207e-05 0 0 0 0
2292803892 0.17191001772880554 -0.24485871195793152 -0.0058161476626992226 0.00034346338361501694 0 0 0 0
2296525976 0.15443125367164612 -0.25140005350112915 -0.006060332991182804 0.0011192196980118752 0 0 0 0
2300248060 0.12878289818763733 -0.2612212896347046 -0.006035666912794113 0.0018375171348452568 0 0 0 0
2303970144 0.11416434496641159 -0.26484647393226624 -0.006019694730639458 0.0028824014589190483 0 0 0 0
2307692228 0.09088849276304245 -0.2619768977165222 -0.005681862123310566 0.00413365475833416 0 0 0 0
2311414312 0.06460203975439072 -0.26074081659317017 -0.00436971802264452 0.004877377301454544 0 0 0 0
2315136396 0.045412421226501465 -0.25147876143455505 -0.0029487162828445435 0.0050924792885780334 0 0 0 0
2318858480 0.02710030972957611 -0.23967082798480988 -0.0018356963992118835 0.004468628205358982 0 0 0 0
2322580564 0.006416440010070801 -0.22409051656723022 -0.0011855512857437134 0.0034330077469348907 0 0 0 0
2326302648 -0.009464949369430542 -0.2060510218143463 -0.0011662403121590614 0.0025121038779616356 0 0 0 0
2330024732 -0.02320544794201851 -0.18431544303894043 -0.0018614483997225761 0.0020083272829651833 0 0 0 0
2333746816 -0.03235338628292084 -0.1598290503025055 -0.0023551825433969498 0.00198192335665226 0 0 0 0
2337468900 -0.03381616622209549 -0.13610176742076874 -0.002509094774723053 0.0022002756595611572 0 0 0 0
2341190984 -0.03446163982152939 -0.11018616706132889 -0.0026808520779013634 0.0021529728546738625 0 0 0 0
2344913068 -0.031780872493982315 -0.08297591656446457 -0.0031380606815218925 0.0024842172861099243 0 0 0 0
2348635152 -0.020181946456432343 -0.05818887799978256 -0.003602447919547558 0.0032623568549752235 0 0 0 0
2352357236 -0.0064688874408602715 -0.03551868349313736 -0.0036719245836138725 0.003993041813373566 0 0 0 0
2356079320 0.01190124824643135 -0.015331330709159374 -0.0032126251608133316 0.004900635220110416 0 0 0 0
2359801404 0.03348066657781601 0.00198260135948658 -0.0025178147479891777 0.005746003240346909 0 0 0 0
2363523488 0.057987477630376816 0.014728058129549026 -0.001401776447892189 0.006110944785177708 0 0 0 0
2367245572 0.08516240119934082 0.02374170906841755 -0.0003089243546128273 0.0060858773067593575 0 0 0 0
2370967656 0.11345159262418747 0.027379345148801804 0.0002573709934949875 0.005724003538489342 0 0 0 0
2374689740 0.1422930210828781 0.024744423106312752 0.000580931082367897 0.005384191870689392 0 0 0 0
2378411824 0.16907232999801636 0.016920432448387146 0.000984453596174717 0.005340550094842911 0 0 0 0
2382133908 0.19374394416809082 0.007921394892036915 0.001086447387933731 0.005364653654396534 0 0 0 0
2385855992 0.21772439777851105 -0.006115585565567017 0.0014872383326292038 0.005405908450484276 0 0 0 0
2389578076 0.23900477588176727 -0.024914130568504333 0.0017370646819472313 0.005531721748411655 0 0 0 0
2393300160 0.25610601902008057 -0.045498088002204895 0.0021251216530799866 0.006169745698571205 0 0 0 0
2397022244 0.2705121338367462 -0.0689675360918045 0.0032615046948194504 0.0066223302856087685 0 0 0 0
2400744328 0.2794462740421295 -0.09769625961780548 0.00498549360781908 0.006509639322757721 0 0 0 0
2404466412 0.2841312885284424 -0.12228773534297943 0.006490292958915234 0.005565796047449112 0 0 0 0
2408188496 0.28546005487442017 -0.14888082444667816 0.007278714329004288 0.004314946010708809 0 0 0 0
2411910580 0.28402453660964966 -0.1747330129146576 0.008134358562529087 0.003296608105301857 0 0 0 0
2415632664 0.2758944034576416 -0.2004627138376236 0.00873796921223402 0.0018279887735843658 0 0 0 0
2419354748 0.26535895466804504 -0.22318163514137268 0.009278658777475357 0.00037024635821580887 0 0 0 0
2423076832 0.25278961658477783 -0.24570167064666748 0.00987604632973671 -0.0015058470889925957 0 0 0 0
2426798916 0.23397861421108246 -0.2657816410064697 0.008708580397069454 -0.002328953705728054 0 0 0 0
2430521000 0.21414701640605927 -0.2864353358745575 0.008759932592511177 -0.005974745377898216 0 0 0 0
2434243084 0.19449478387832642 -0.301258385181427 0.007308701053261757 -0.00741537194699049 0 0 0 0
2437965168 0.17036005854606628 -0.3138091564178467 0.005870109423995018 -0.008374121971428394 0 0 0 0
2441687252 0.14621776342391968 -0.3208586275577545 0.004705263301730156 -0.008957386948168278 0 0 0 0
2445409336 0.11789263784885406 -0.32653719186782837 0.0036822939291596413 -0.009693928994238377 0 0 0 0
2449131420 0.08730404078960419 -0.3264324963092804 0.0023698098957538605 -0.01060079038143158 0 0 0 0
2452853504 0.060109943151474 -0.3229010999202728 0.0007861042395234108 -0.011257629841566086 0 0 0 0
2456575588 0.03354854881763458 -0.3136332631111145 -0.001184568740427494 -0.011962599121034145 0 0 0 0
2460297672 0.006742201745510101 -0.3009377121925354 -0.00319600198417902 -0.01216559112071991 0 0 0 0
2464019756 -0.01814858615398407 -0.2838539779186249 -0.00541618000715971 -0.011825289577245712 0 0 0 0
2467741840 -0.03835058957338333 -0.2631292939186096 -0.007416564039885998 -0.01107783243060112 0 0 0 0
2471463924 -0.055018678307533264 -0.2399486005306244 -0.009155981242656708 -0.01006610132753849 0 0 0 0
2475186008 -0.06821180135011673 -0.21458885073661804 -0.01108951773494482 -0.008552631363272667 0 0 0 0
2478908092 -0.07705014199018478 -0.18852171301841736 -0.012794085778295994 -0.006717192009091377 0 0 0 0
2482630176 -0.08284279704093933 -0.1600019931793213 -0.014030175283551216 -0.004737480543553829 0 0 0 0
2486352260 -0.08398599177598953 -0.13160380721092224 -0.015146090649068356 -0.0025143632665276527 0 0 0 0
2490074344 -0.08106549084186554 -0.10309720039367676 -0.016046568751335144 -5.088094621896744e-05 0 0 0 0
2493796428 -0.07422279566526413 -0.074466273188591 -0.015964677557349205 0.0031582070514559746 0 0 0 0
2497518512 -0.06408179551362991 -0.04621218517422676 -0.014978708699345589 0.006367110647261143 0 0 0 0
2501240596 -0.0476367212831974 -0.022880984470248222 -0.013613731600344181 0.00858982838690281 0 0 0 0
2504962680 -0.029135687276721 -0.0007943538948893547 -0.011864695698022842 0.01066339761018753 0 0 0 0
2508684764 -0.006483468227088451 0.018499892204999924 -0.010007399134337902 0.01266915537416935 0 0 0 0
2512406848 0.01791304349899292 0.03346974775195122 -0.007550952956080437 0.014472704380750656 0 0 0 0
2516128932 0.04560129716992378 0.044347502291202545 -0.004389656707644463 0.015541061758995056 0 0 0 0
2519851016 0.07371897995471954 0.05101602151989937 -0.001157950609922409 0.015868011862039566 0 0 0 0
2523573100 0.10278121381998062 0.052757617086172104 0.0018516341224312782 0.01535023096948862 0 0 0 0
2527295184 0.1320098638534546 0.049193382263183594 0.004438316449522972 0.014242403209209442 0 0 0 0
2531017268 0.16003380715847015 0.04104394093155861 0.006943649612367153 0.012670056894421577 0 0 0 0
2534739352 0.18507003784179688 0.029758337885141373 0.00891963206231594 0.010867057368159294 0 0 0 0
2538461436 0.20730306208133698 0.013001769781112671 0.010310545563697815 0.008533948101103306 0 0 0 0
2542183520 0.22625868022441864 -0.006091803312301636 0.011246462352573872 0.006188052706420422 0 0 0 0
2545905604 0.2408444583415985 -0.02761317789554596 0.011685777455568314 0.003907102160155773 0 0 0 0
2549627688 0.25280892848968506 -0.04774967581033707 0.012163995765149593 0.0014851242303848267 0 0 0 0
2553349772 0.2618151903152466 -0.07144442945718765 0.011803213506937027 -0.0009244401007890701 0 0 0 0
2557071856 0.2670460343360901 -0.09196498990058899 0.010510140098631382 -0.003050173632800579 0 0 0 0
2560793940 0.26765456795692444 -0.1194145455956459 0.009006311185657978 -0.0047184377908706665 0 0 0 0
2564516024 0.26380717754364014 -0.14453016221523285 0.007561872713267803 -0.0057244813069701195 0 0 0 0
2568238108 0.25783571600914 -0.16433820128440857 0.00618397630751133 -0.006394894793629646 0 0 0 0
2571960192 0.24972152709960938 -0.18326517939567566 0.004772714339196682 -0.006594384089112282 0 0 0 0
2575682276 0.23944611847400665 -0.20058555901050568 0.003999447450041771 -0.006679407320916653 0 0 0 0
2579404360 0.22502920031547546 -0.21626421809196472 0.003331119194626808 -0.006938965991139412 0 0 0 0
2583126444 0.21262572705745697 -0.22832617163658142 0.0025646863505244255 -0.007386593148112297 0 0 0 0
2586848528 0.19602403044700623 -0.23885801434516907 0.001460985280573368 -0.0077782198786735535 0 0 0 0
2590570612 0.17884507775306702 -0.24950361251831055 0.00019797496497631073 -0.008033656515181065 0 0 0 0
2594292696 0.1634281426668167 -0.254990816116333 -0.0009725568816065788 -0.008121941238641739 0 0 0 0
2598014780 0.14634430408477783 -0.2605403959751129 -0.002460939809679985 -0.007829369977116585 0 0 0 0
2601736864 0.1289391815662384 -0.26169532537460327 -0.003818388096988201 -0.0072784023359417915 0 0 0 0
2605458948 0.10651519894599915 -0.26438671350479126 -0.005021091550588608 -0.006211944855749607 0 0 0 0
2609181032 0.09101906418800354 -0.25980344414711 -0.005486040376126766 -0.005243086256086826 0 0 0 0
2612903116 0.06987596303224564 -0.2542402744293213 -0.005921168252825737 -0.004035888239741325 0 0 0 0
2616625200 0.05533692240715027 -0.24362851679325104 -0.006131080910563469 -0.0029231812804937363 0 0 0 0
2620347284 0.03951944783329964 -0.23248235881328583 -0.005760169588029385 -0.0019677123054862022 0 0 0 0
2624069368 0.026974640786647797 -0.21787945926189423 -0.0054787518456578255 -0.00148116797208786 0 0 0 0
2627791452 0.01873946189880371 -0.2025091052055359 -0.005379396490752697 -0.001853523775935173 0 0 0 0
2631513536 0.011088378727436066 -0.1854117214679718 -0.006015513092279434 -0.0015390096232295036 0 0 0 0
2635235620 0.008499681949615479 -0.16694463789463043 -0.006494412198662758 -0.0007450999692082405 0 0 0 0
2638957704 0.010496743023395538 -0.14879214763641357 -0.006735473871231079 0.00035457033663988113 0 0 0 0
2642679788 0.012923512607812881 -0.13284513354301453 -0.006750021129846573 0.0015263520181179047 0 0 0 0
2646401872 0.019615937024354935 -0.11861027032136917 -0.006409788504242897 0.0026956768706440926 0 0 0 0
2650123956 0.030002426356077194 -0.10488211363554001 -0.005558177828788757 0.003885507583618164 0 0 0 0
2653846040 0.03906211256980896 -0.09513379633426666 -0.0043143099173903465 0.004721323028206825 0 0 0 0
2657568124 0.05152743309736252 -0.0861588791012764 -0.003095582127571106 0.004965752363204956 0 0 0 0
2661290208 0.06732422113418579 -0.08068861812353134 -0.0022866837680339813 0.004812760278582573 0 0 0 0
2665012292 0.08072316646575928 -0.07895875722169876 -0.0015489179641008377 0.004919447936117649 0 0 0 0
2668734376 0.0955013781785965 -0.07916011661291122 -0.00029344484210014343 0.00469551794230938 0 0 0 0
2672456460 0.10952876508235931 -0.0836339220404625 0.0005296505987644196 0.0041318731382489204 0 0 0 0
2676178544 0.12128862738609314 -0.0912923812866211 0.0010617179796099663 0.0033607473596930504 0 0 0 0
2679900628 0.13159391283988953 -0.10024826973676682 0.0011242441833019257 0.00272961612790823 0 0 0 0
2683622712 0.13783720135688782 -0.11305709183216095 0.0012374557554721832 0.0022973529994487762 0 0 0 0
2687344796 0.14189304411411285 -0.12603409588336945 0.0013181241229176521 0.001978299580514431 0 0 0 0
2691066880 0.14485011994838715 -0.1377008855342865 0.001084829680621624 0.0017539625987410545 0 0 0 0
2694788964 0.14153116941452026 -0.1518496572971344 0.0012180386111140251 0.001964307390153408 0 0 0 0
2698511048 0.13868387043476105 -0.16399730741977692 0.0016536638140678406 0.0020179366692900658 0 0 0 0
2702233132 0.13117478787899017 -0.17536067962646484 0.002485767938196659 0.001535492017865181 0 0 0 0
2705955216 0.1245819628238678 -0.18478058278560638 0.0028475886210799217 0.0006415043026208878 0 0 0 0
2709677300 0.11245577782392502 -0.19407904148101807 0.002668997272849083 -0.0002207895740866661 0 0 0 0
2713399384 0.09872550517320633 -0.1998453289270401 0.0023420704528689384 -0.0007170867174863815 0 0 0 0
2717121468 0.08212296664714813 -0.204148530960083 0.0021057026460766792 -0.0008956845849752426 0 0 0 0
2720843552 0.06876617670059204 -0.20430834591388702 0.0019530169665813446 -0.0012518856674432755 0 0 0 0
2724565636 0.053409479558467865 -0.20179297029972076 0.0016398681327700615 -0.0017510373145341873 0 0 0 0
2728287720 0.03968362137675285 -0.1967392861843109 0.001120191067457199 -0.0020632268860936165 0 0 0 0
2732009804 0.02322062849998474 -0.189200758934021 0.0004822472110390663 -0.002153756096959114 0 0 0 0
2735731888 0.009597335942089558 -0.17697936296463013 -0.00010806135833263397 -0.0019022384658455849 0 0 0 0
2739453972 -0.0009800642728805542 -0.16446852684020996 -0.00023958366364240646 -0.0015849974006414413 0 0 0 0
2743176056 -0.012255050241947174 -0.1475800722837448 -0.0005018990486860275 -0.001265346072614193 0 0 0 0
2746898140 -0.017475206404924393 -0.1279464066028595 -0.00016721710562705994 -0.0008362559601664543 0 0 0 0
2750620224 -0.0178166963160038 -0.10841645300388336 0.00014295801520347595 -0.0010048281401395798 0 0 0 0
2754342308 -0.016379665583372116 -0.08900628983974457 0.000340278260409832 -0.001385992392897606 0 0 0 0
2758064392 -0.01116563007235527 -0.0702509880065918 3.9431266486644745e-05 -0.0018092142418026924 0 0 0 0
2761786476 -0.0029501263052225113 -0.052894555032253265 -0.0003612879663705826 -0.001967489719390869 0 0 0 0
2765508560 0.006542115472257137 -0.035854943096637726 -0.0006789620965719223 -0.00179985910654068 0 0 0 0
2769230644 0.0191227737814188 -0.020068250596523285 -0.0009628999978303909 -0.001690625213086605 0 0 0 0
2772952728 0.03482305258512497 -0.005247038789093494 -0.001236269250512123 -0.001427256502211094 0 0 0 0
2776674812 0.05323926359415054 0.006893088109791279 -0.0014518331736326218 -0.0010151751339435577 0 0 0 0
2780396896 0.0754609927535057 0.016109278425574303 -0.0013521481305360794 -0.0007912935689091682 0 0 0 0
2784118980 0.09918145090341568 0.021063871681690216 -0.0011768965050578117 -0.0003681909292936325 0 0 0 0
2787841064 0.12362372875213623 0.020384496077895164 -0.0008298000320792198 -0.00024206936359405518 0 0 0 0
2791563148 0.14748463034629822 0.01646868884563446 -0.0005175601691007614 -0.00033749639987945557 0 0 0 0
2795285232 0.17118240892887115 0.009294040501117706 -0.00045724865049123764 -0.0006278147920966148 0 0 0 0
2799007316 0.1942601203918457 -0.002711629495024681 -0.000560264103114605 -0.0008126245811581612 0 0 0 0
2802729400 0.213108628988266 -0.01818636991083622 -0.0007207179442048073 -0.0010037757456302643 0 0 0 0
2806451484 0.23154518008232117 -0.03541817516088486 -0.0011135386303067207 -0.0009354520589113235 0 0 0 0
2810173568 0.24614489078521729 -0.05591176450252533 -0.001429857686161995 -0.0005981158465147018 0 0 0 0
2813895652 0.25878071784973145 -0.08071780204772949 -0.0013462966307997704 -0.0002732854336500168 0 0 0 0
2817617736 0.26662400364875793 -0.1057005301117897 -0.0013211695477366447 1.7851591110229492e-05 0 0 0 0
2821339820 0.2682795822620392 -0.13398538529872894 -0.0012320727109909058 0.00022481102496385574 0 0 0 0
2825061904 0.2676060199737549 -0.16134029626846313 -0.0012103645130991936 0.0005893437191843987 0 0 0 0
2828783988 0.26151496171951294 -0.18737764656543732 -0.0008645467460155487 0.0010166838765144348 0 0 0 0
2832506072 0.25123128294944763 -0.21179546415805817 -0.00035511981695890427 0.0013292348012328148 0 0 0 0
2836228156 0.2404431253671646 -0.23378939926624298 0.00028104521334171295 0.001334608532488346 0 0 0 0
2839950240 0.22558458149433136 -0.2527194619178772 0.0008506886661052704 0.001162167638540268 0 0 0 0
2843672324 0.20702895522117615 -0.2697690725326538 0.0014173360541462898 0.0005005011335015297 0 0 0 0
2847394408 0.18833599984645844 -0.28302863240242004 0.0016622375696897507 -3.1995587050914764e-05 0 0 0 0
2851116492 0.16626526415348053 -0.2981715500354767 0.0015735840424895287 -0.0007583871483802795 0 0 0 0
2854838576 0.14439556002616882 -0.3067797124385834 0.0012856749817728996 -0.0013206861913204193 0 0 0 0
2858560660 0.12585055828094482 -0.31409481167793274 0.0009948955848813057 -0.0020238077268004417 0 0 0 0
2862282744 0.0967063382267952 -0.32087934017181396 0.0003325697034597397 -0.002209644764661789 0 0 0 0
2866004828 0.07479797303676605 -0.3220401704311371 -0.00014194753021001816 -0.0021171150729060173 0 0 0 0
2869726912 0.04756231978535652 -0.3199043869972229 -0.0005239127203822136 -0.001862567849457264 0 0 0 0
2873448996 0.024742068722844124 -0.31462782621383667 -0.0007486063987016678 -0.0015662917867302895 0 0 0 0
2877171080 -0.00015291571617126465 -0.3056345582008362 -0.0009177876636385918 -0.0013216370716691017 0 0 0 0
2880893164 -0.022804036736488342 -0.29429560899734497 -0.0010579358786344528 -0.0010539591312408447 0 0 0 0
2884615248 -0.04496639221906662 -0.2797970175743103 -0.0009899558499455452 -0.0008172011002898216 0 0 0 0
2888337332 -0.05939522758126259 -0.2628902792930603 -0.0008665835484862328 -0.0005857460200786591 0 0 0 0
2892059416 -0.0762418806552887 -0.24459068477153778 -0.000790037214756012 -0.0004352135583758354 0 0 0 0
2895781500 -0.0905139148235321 -0.22460320591926575 -0.0006550094112753868 -0.00039816275238990784 0 0 0 0
2899503584 -0.10180757194757462 -0.20295876264572144 -0.0006092945113778114 -0.00023009814321994781 0 0 0 0
2903225668 -0.11039210110902786 -0.17914259433746338 -0.0004663486033678055 -0.0001569688320159912 0 0 0 0
2906947752 -0.11923445761203766 -0.1524849534034729 -0.0002760952338576317 -0.0001070341095328331 0 0 0 0
2910669836 -0.11986397206783295 -0.12890391051769257 -0.00024333130568265915 -2.0267441868782043e-05 0 0 0 0
2914391920 -0.11947381496429443 -0.10138237476348877 -0.00024092569947242737 -1.8369406461715698e-05 0 0 0 0
2918114004 -0.11332663893699646 -0.07668497413396835 -0.0002353144809603691 -1.4823861420154572e-05 0 0 0 0
2921836088 -0.1054736077785492 -0.052154526114463806 -0.00023951474577188492 0.00020135566592216492 0 0 0 0
2925558172 -0.0940164253115654 -0.030660148710012436 -0.0001472504809498787 0.00018439814448356628 0 0 0 0
2929280256 -0.0814293622970581 -0.009158099070191383 -0.0001734597608447075 0.00016757193952798843 0 0 0 0
2933002340 -0.06646791100502014 0.009411057457327843 -0.00031559448689222336 0.00031444523483514786 0 0 0 0
2936724424 -0.04827791824936867 0.02682941034436226 -0.000388437882065773 0.0007302593439817429 0 0 0 0
2940446508 -0.028868405148386955 0.04128187149763107 -0.00019798055291175842 0.0008245622739195824 0 0 0 0
2944168592 -0.008119240403175354 0.0534275621175766 -0.00015455856919288635 0.0011683907359838486 0 0 0 0
2947890676 0.01410328783094883 0.0641343742609024 0.00035933032631874084 0.0017206156626343727 0 0 0 0
2951612760 0.037985820323228836 0.07106558978557587 0.0009016785770654678 0.0019512781873345375 0 0 0 0
2955334844 0.06344840675592422 0.0755758136510849 0.0018563168123364449 0.0020934278145432472 0 0 0 0
2959056928 0.08820907771587372 0.07739152759313583 0.002655290998518467 0.0017458954825997353 0 0 0 0
2962779012 0.11419056355953217 0.07545196264982224 0.003280031494796276 0.0012457305565476418 0 0 0 0
2966501096 0.14064113795757294 0.06907597929239273 0.0037502655759453773 0.0003649536520242691 0 0 0 0
2970223180 0.16506430506706238 0.059693168848752975 0.003983751870691776 -0.00048561766743659973 0 0 0 0
2973945264 0.18804234266281128 0.047524794936180115 0.0036859512329101562 -0.001350446604192257 0 0 0 0
2977667348 0.2098252922296524 0.029837843030691147 0.003564732149243355 -0.0018785391002893448 0 0 0 0
2981389432 0.22863253951072693 0.011720411479473114 0.0030676843598484993 -0.002394110895693302 0 0 0 0
2985111516 0.24402453005313873 -0.009790655225515366 0.002718544565141201 -0.0027625542134046555 0 0 0 0
2988833600 0.25567901134490967 -0.03435642272233963 0.0019071334972977638 -0.0032435422763228416 0 0 0 0
2992555684 0.2631828188896179 -0.05853988975286484 0.0013022003695368767 -0.0032919058576226234 0 0 0 0
2996277768 0.26798850297927856 -0.08295606076717377 0.0006985319778323174 -0.003280501812696457 0 0 0 0
2999999852 0.2701389491558075 -0.10725348442792892 0.00039560534060001373 -0.0029753679409623146 0 0 0 0
