# HZ S RI R 50
1500000000 -0.11516450345516205 -0.04088861867785454 0.03701957315206528 -0.030411724001169205 0 0 0 0
1503722084 -0.10081151127815247 -0.01234472543001175 0.031047150492668152 -0.03700197488069534 0 0 0 0
1507444168 -0.08042852580547333 0.014521675184369087 0.023388080298900604 -0.042064111679792404 0 0 0 0
1511166252 -0.05418795347213745 0.038870103657245636 0.014760632999241352 -0.04528982937335968 0 0 0 0
1514888336 -0.021450692787766457 0.05884385108947754 0.00526945386081934 -0.046662598848342896 0 0 0 0
1518610420 0.01571166329085827 0.07366722077131271 -0.0033301785588264465 -0.045330241322517395 0 0 0 0
1522332504 0.05644620209932327 0.0807475745677948 -0.011311751790344715 -0.042125046253204346 0 0 0 0
1526054588 0.09882503002882004 0.0810215175151825 -0.017883332446217537 -0.037996694445610046 0 0 0 0
1529776672 0.1421060413122177 0.07426515966653824 -0.023240607231855392 -0.032867077738046646 0 0 0 0
1533498756 0.1848268061876297 0.0590236634016037 -0.027594085782766342 -0.026438821107149124 0 0 0 0
1537220840 0.22588109970092773 0.036875732243061066 -0.029949095100164413 -0.019999127835035324 0 0 0 0
1540942924 0.2637268900871277 0.009765774011611938 -0.030374541878700256 -0.013785023242235184 0 0 0 0
1544665008 0.29784801602363586 -0.02820899710059166 -0.029919594526290894 -0.008773436769843102 0 0 0 0
1548387092 0.32523655891418457 -0.07125751674175262 -0.02927658148109913 -0.0043424032628536224 0 0 0 0
1552109176 0.3461035490036011 -0.11643104255199432 -0.02828529290854931 -0.0001330813392996788 0 0 0 0
1555831260 0.35867923498153687 -0.16833680868148804 -0.026597464457154274 0.003906632773578167 0 0 0 0
1559553344 0.36341848969459534 -0.22163978219032288 -0.024323884397745132 0.007366301491856575 0 0 0 0
1563275428 0.3627640902996063 -0.2742164134979248 -0.021713173016905785 0.010092275217175484 0 0 0 0
1566997512 0.350966215133667 -0.32819828391075134 -0.018951701000332832 0.012209787964820862 0 0 0 0
1570719596 0.3323650062084198 -0.3821420967578888 -0.016132179647684097 0.013650358654558659 0 0 0 0
1574441680 0.30015334486961365 -0.433575302362442 -0.013578439131379128 0.014517134055495262 0 0 0 0
1578163764 0.26327529549598694 -0.4773775041103363 -0.011064372956752777 0.015145812183618546 0 0 0 0
1581885848 0.221145898103714 -0.5156078934669495 -0.009347404353320599 0.015475467778742313 0 0 0 0
1585607932 0.1723109483718872 -0.5482407212257385 -0.00720513891428709 0.015794195234775543 0 0 0 0
1589330016 0.11810094118118286 -0.5749324560165405 -0.0054077086970210075 0.01590350642800331 0 0 0 0
1593052100 0.06025165319442749 -0.5927935838699341 -0.004031294956803322 0.01601729728281498 0 0 0 0
1596774184 -0.0041414108127355576 -0.6028684973716736 -0.0021464629098773003 0.016570918262004852 0 0 0 0
1600496268 -0.06406062841415405 -0.6010925769805908 9.396765381097794e-05 0.016890961676836014 0 0 0 0
1604218352 -0.12819747626781464 -0.5906328558921814 0.002407046966254711 0.016655344516038895 0 0 0 0
1607940436 -0.19161969423294067 -0.568822979927063 0.004678346216678619 0.016016796231269836 0 0 0 0
1611662520 -0.24695061147212982 -0.5424973964691162 0.006654612720012665 0.015112251043319702 0 0 0 0
1615384604 -0.3026270866394043 -0.5055330991744995 0.008518015965819359 0.014204690232872963 0 0 0 0
1619106688 -0.35406628251075745 -0.4583775997161865 0.010307298973202705 0.013247623108327389 0 0 0 0
1622828772 -0.3963049352169037 -0.40654581785202026 0.012507002800703049 0.012014975771307945 0 0 0 0
1626550856 -0.43246692419052124 -0.34541577100753784 0.014753039926290512 0.010150562040507793 0 0 0 0
1630272940 -0.4581414461135864 -0.2773686647415161 0.016565775498747826 0.007836776785552502 0 0 0 0
1633995024 -0.47608962655067444 -0.20666860044002533 0.018024267628788948 0.00470369029790163 0 0 0 0
1637717108 -0.48193085193634033 -0.13532261550426483 0.0187615267932415 0.0014365939423441887 0 0 0 0
1641439192 -0.4778912663459778 -0.05883067846298218 0.01865527406334877 -0.0020366190001368523 0 0 0 0
1645161276 -0.46184754371643066 0.01624024286866188 0.01823972351849079 -0.005318288691341877 0 0 0 0
1648883360 -0.4328996539115906 0.08714643120765686 0.017145860940217972 -0.008469270542263985 0 0 0 0
1652605444 -0.3935539722442627 0.15571390092372894 0.015460265800356865 -0.011778322979807854 0 0 0 0
1656327528 -0.34199535846710205 0.21845552325248718 0.012905310839414597 -0.014952982775866985 0 0 0 0
1660049612 -0.2812102437019348 0.2722565531730652 0.009336165152490139 -0.01736348867416382 0 0 0 0
1663771696 -0.21094666421413422 0.3168777823448181 0.005197607912123203 -0.018438737839460373 0 0 0 0
1667493780 -0.13776129484176636 0.34886667132377625 0.0015870360657572746 -0.0185997374355793 0 0 0 0
1671215864 -0.055068545043468475 0.37104588747024536 -0.00224896427243948 -0.018080340698361397 0 0 0 0
1674937948 0.028726235032081604 0.3793548345565796 -0.005950179882347584 -0.016670655459165573 0 0 0 0
1678660032 0.11189360171556473 0.3740033507347107 -0.008791139349341393 -0.01432156004011631 0 0 0 0
1682382116 0.19314217567443848 0.35515278577804565 -0.010831063613295555 -0.011646417900919914 0 0 0 0
1686104200 0.2731902003288269 0.3231666684150696 -0.012069965712726116 -0.008808093145489693 0 0 0 0
1689826284 0.3462250828742981 0.27765241265296936 -0.012746070511639118 -0.006083381362259388 0 0 0 0
1693548368 0.41122692823410034 0.22244074940681458 -0.012942205183207989 -0.0035329218953847885 0 0 0 0
1697270452 0.46316879987716675 0.16123446822166443 -0.012468680739402771 -0.000975949689745903 0 0 0 0
1700992536 0.5079256892204285 0.08753418922424316 -0.011802596040070057 0.000975308008491993 0 0 0 0
1704714620 0.5387188196182251 0.01193438470363617 -0.011076359078288078 0.002734673209488392 0 0 0 0
1708436704 0.5569211840629578 -0.066255584359169 -0.010114377364516258 0.004779915325343609 0 0 0 0
1712158788 0.5621021389961243 -0.1487535685300827 -0.008464308455586433 0.006545336917042732 0 0 0 0
1715880872 0.5569093227386475 -0.22887423634529114 -0.00622506532818079 0.007659019902348518 0 0 0 0
1719602956 0.5397639870643616 -0.3039184808731079 -0.003742855042219162 0.007914898917078972 0 0 0 0
1723325040 0.5082105398178101 -0.377969354391098 -0.0016957037150859833 0.007412304170429707 0 0 0 0
1727047124 0.4685521125793457 -0.44432416558265686 -0.0002890024334192276 0.0063562290742993355 0 0 0 0
1730769208 0.4172532260417938 -0.5036989450454712 0.0004375576972961426 0.005256647244095802 0 0 0 0
1734491292 0.3568762242794037 -0.5530885457992554 0.0007841689512133598 0.004452005960047245 0 0 0 0
1738213376 0.29418477416038513 -0.5940614938735962 0.0011608460918068886 0.0037299394607543945 0 0 0 0
1741935460 0.22613032162189484 -0.6213545799255371 0.0012456290423870087 0.0029274793341755867 0 0 0 0
1745657544 0.15921854972839355 -0.6370086669921875 0.000931205227971077 0.0023365793749690056 0 0 0 0
1749379628 0.08511555194854736 -0.6437084674835205 0.0005552312359213829 0.002105417661368847 0 0 0 0
1753101712 0.01513594388961792 -0.6383803486824036 0.00038528256118297577 0.0022401465103030205 0 0 0 0
1756823796 -0.05387201905250549 -0.6226941347122192 0.0004775281995534897 0.0023960918188095093 0 0 0 0
1760545880 -0.1150185838341713 -0.5983279347419739 0.0006562694907188416 0.002480374649167061 0 0 0 0
1764267964 -0.1707385927438736 -0.5654319524765015 0.0009693149477243423 0.0025641880929470062 0 0 0 0
1767990048 -0.22487038373947144 -0.5228414535522461 0.001458113081753254 0.002269717864692211 0 0 0 0
1771712132 -0.26773524284362793 -0.47644537687301636 0.0016281474381685257 0.0017446782439947128 0 0 0 0
1775434216 -0.30254223942756653 -0.4246222972869873 0.0014771325513720512 0.0012277457863092422 0 0 0 0
1779156300 -0.3276542127132416 -0.3692219853401184 0.0011094417423009872 0.001006833277642727 0 0 0 0
1782878384 -0.34681040048599243 -0.3113110661506653 0.0006957529112696648 0.0008991537615656853 0 0 0 0
1786600468 -0.35486146807670593 -0.2561621367931366 0.0002420945093035698 0.0010400880128145218 0 0 0 0
1790322552 -0.3592081069946289 -0.19458827376365662 -0.00017402973026037216 0.001409892924129963 0 0 0 0
1794044636 -0.3519899249076843 -0.13750186562538147 -0.0003873491659760475 0.0018748650327324867 0 0 0 0
1797766720 -0.3377634882926941 -0.08195585012435913 -0.0007555698975920677 0.0027751168236136436 0 0 0 0
1801488804 -0.3153913617134094 -0.02748510241508484 -0.0006341161206364632 0.0043094586580991745 0 0 0 0
1805210888 -0.2866250276565552 0.019627384841442108 0.0005305465310811996 0.005839954130351543 0 0 0 0
1808932972 -0.2504742741584778 0.06360222399234772 0.0024699168279767036 0.006697880104184151 0 0 0 0
1812655056 -0.20717138051986694 0.10214744508266449 0.004602381959557533 0.006759723648428917 0 0 0 0
1816377140 -0.15816813707351685 0.13325057923793793 0.006915686652064323 0.006654020398855209 0 0 0 0
1820099224 -0.10659079253673553 0.15318399667739868 0.00964136328548193 0.005482202395796776 0 0 0 0
1823821308 -0.052855879068374634 0.16555152833461761 0.012084410525858402 0.0027918266132473946 0 0 0 0
1827543392 0.0011950396001338959 0.16913481056690216 0.013033866882324219 -0.0007506413385272026 0 0 0 0
1831265476 0.054148562252521515 0.16373510658740997 0.012412477284669876 -0.00416079256683588 0 0 0 0
1834987560 0.10443209856748581 0.15004272758960724 0.010909656062722206 -0.006848313845694065 0 0 0 0
1838709644 0.15027843415737152 0.12896499037742615 0.00879569724202156 -0.008774159476161003 0 0 0 0
1842431728 0.19118627905845642 0.10307717323303223 0.006904263980686665 -0.009828906506299973 0 0 0 0
1846153812 0.22646813094615936 0.07247099280357361 0.005189977586269379 -0.010468622669577599 0 0 0 0
1849875896 0.25677722692489624 0.03558783233165741 0.003612891770899296 -0.010599898174405098 0 0 0 0
1853597980 0.2801837623119354 -0.005045443773269653 0.0025189537554979324 -0.01087887492030859 0 0 0 0
1857320064 0.2965795397758484 -0.046055085957050323 0.0018177386373281479 -0.011530978605151176 0 0 0 0
1861042148 0.3049406409263611 -0.09064451605081558 0.00030061230063438416 -0.012890852056443691 0 0 0 0
1864764232 0.3064325451850891 -0.1335599720478058 -0.001922430470585823 -0.01362323947250843 0 0 0 0
1868486316 0.3014076352119446 -0.1743525266647339 -0.004533914849162102 -0.013879453763365746 0 0 0 0
1872208400 0.28933244943618774 -0.21362130343914032 -0.0073800887912511826 -0.013433354906737804 0 0 0 0
1875930484 0.27243342995643616 -0.2484825849533081 -0.009252391755580902 -0.01248706504702568 0 0 0 0
1879652568 0.24935011565685272 -0.28139638900756836 -0.011393791995942593 -0.011286233551800251 0 0 0 0
1883374652 0.2217217981815338 -0.3087887763977051 -0.013814895413815975 -0.01036025770008564 0 0 0 0
1887096736 0.18719378113746643 -0.33148807287216187 -0.01706504262983799 -0.008667930029332638 0 0 0 0
1890818820 0.152394637465477 -0.34604978561401367 -0.020363306626677513 -0.005465703085064888 0 0 0 0
1894540904 0.11753202229738235 -0.3521287441253662 -0.02264086902141571 -0.0007067732512950897 0 0 0 0
1898262988 0.08192387223243713 -0.35335567593574524 -0.023240037262439728 0.005064560100436211 0 0 0 0
1901985072 0.04946295917034149 -0.34801632165908813 -0.021498903632164 0.010261005721986294 0 0 0 0
1905707156 0.021150290966033936 -0.3400876820087433 -0.019031265750527382 0.014094872400164604 0 0 0 0
1909429240 -0.010158896446228027 -0.3244916498661041 -0.016039308160543442 0.017582423985004425 0 0 0 0
1913151324 -0.036586515605449677 -0.305871844291687 -0.012519319541752338 0.020579349249601364 0 0 0 0
1916873408 -0.05607776343822479 -0.28422752022743225 -0.008095772005617619 0.02295188419520855 0 0 0 0
1920595492 -0.07251208275556564 -0.25758254528045654 -0.0033107977360486984 0.024216970428824425 0 0 0 0
1924317576 -0.0837092325091362 -0.22945207357406616 0.0018205605447292328 0.02455693855881691 0 0 0 0
1928039660 -0.09000881761312485 -0.20100969076156616 0.007442452944815159 0.0235462486743927 0 0 0 0
1931761744 -0.0896611213684082 -0.17127427458763123 0.012619450688362122 0.020551640540361404 0 0 0 0
1935483828 -0.08666162192821503 -0.14323286712169647 0.016338087618350983 0.01608203537762165 0 0 0 0
1939205912 -0.0773254856467247 -0.1173107698559761 0.017518293112516403 0.010945038869976997 0 0 0 0
1942927996 -0.0654236227273941 -0.09183141589164734 0.016902703791856766 0.007188296876847744 0 0 0 0
1946650080 -0.048700351268053055 -0.06979911029338837 0.01615639589726925 0.004931965842843056 0 0 0 0
1950372164 -0.02901313081383705 -0.05075538530945778 0.015875043347477913 0.0035652033984661102 0 0 0 0
1954094248 -0.006237482652068138 -0.035868898034095764 0.016334500163793564 0.0022008130326867104 0 0 0 0
1957816332 0.018195774406194687 -0.024869512766599655 0.01727922447025776 0.00031399354338645935 0 0 0 0
1961538416 0.04427603632211685 -0.017268594354391098 0.017780113965272903 -0.002337569370865822 0 0 0 0
1965260500 0.07253242284059525 -0.014380311593413353 0.017833983525633812 -0.0047353049740195274 0 0 0 0
1968982584 0.10194049775600433 -0.017419736832380295 0.018292171880602837 -0.007684038951992989 0 0 0 0
1972704668 0.1307019144296646 -0.02673179656267166 0.018425922840833664 -0.011657857336103916 0 0 0 0
1976426752 0.15537865459918976 -0.04323206841945648 0.016638875007629395 -0.016701068729162216 0 0 0 0
1980148836 0.1778077632188797 -0.06123041734099388 0.01342756487429142 -0.021502133458852768 0 0 0 0
1983870920 0.19491079449653625 -0.08560627698898315 0.007558254525065422 -0.024830352514982224 0 0 0 0
1987593004 0.20556624233722687 -0.11208674311637878 0.0011537857353687286 -0.02576582133769989 0 0 0 0
1991315088 0.2139611840248108 -0.13688665628433228 -0.004637733101844788 -0.02509491890668869 0 0 0 0
1995037172 0.2148897349834442 -0.16524946689605713 -0.010087472386658192 -0.02280605584383011 0 0 0 0
1998759256 0.21189343929290771 -0.19285711646080017 -0.01323563139885664 -0.019336171448230743 0 0 0 0
2002481340 0.2058868706226349 -0.218406543135643 -0.015350994653999805 -0.01679779775440693 0 0 0 0
2006203424 0.19608309864997864 -0.2415938824415207 -0.017715981230139732 -0.01454608142375946 0 0 0 0
2009925508 0.17718110978603363 -0.26514604687690735 -0.020167017355561256 -0.011726086027920246 0 0 0 0
2013647592 0.1594354808330536 -0.28351888060569763 -0.02255198173224926 -0.008979147300124168 0 0 0 0
2017369676 0.13464878499507904 -0.3000599443912506 -0.02523673139512539 -0.004934103228151798 0 0 0 0
2021091760 0.11007753014564514 -0.3109572231769562 -0.027202483266592026 -0.0003101713955402374 0 0 0 0
2024813844 0.08151119947433472 -0.3163437843322754 -0.027346011251211166 0.006223383359611034 0 0 0 0
2028535928 0.05274621397256851 -0.31597450375556946 -0.025434225797653198 0.011935288086533546 0 0 0 0
2032258012 0.028293102979660034 -0.3108128309249878 -0.022814273834228516 0.016550324857234955 0 0 0 0
2035980096 -0.0008391886949539185 -0.30162400007247925 -0.018822651356458664 0.020733924582600594 0 0 0 0
2039702180 -0.022072747349739075 -0.2895081639289856 -0.014480659738183022 0.024005576968193054 0 0 0 0
2043424264 -0.044768333435058594 -0.27323785424232483 -0.009373676031827927 0.02636195905506611 0 0 0 0
2047146348 -0.06188786029815674 -0.25556543469429016 -0.004384983330965042 0.027097612619400024 0 0 0 0
2050868432 -0.07965618371963501 -0.2350795716047287 0.0006245989352464676 0.027239101007580757 0 0 0 0
2054590516 -0.09374816715717316 -0.21100257337093353 0.005451531149446964 0.02625637874007225 0 0 0 0
2058312600 -0.10447286069393158 -0.18555232882499695 0.01019246969372034 0.024883978068828583 0 0 0 0
2062034684 -0.1128569096326828 -0.15651163458824158 0.014299668371677399 0.022736970335245132 0 0 0 0
2065756768 -0.11537165194749832 -0.12618130445480347 0.018221473321318626 0.019288333132863045 0 0 0 0
2069478852 -0.11530721187591553 -0.09366549551486969 0.02140967547893524 0.015379121527075768 0 0 0 0
2073200936 -0.10789176821708679 -0.059992991387844086 0.023286329582333565 0.010875874198973179 0 0 0 0
2076923020 -0.09352011978626251 -0.027302436530590057 0.024058697745203972 0.0060167377814650536 0 0 0 0
2080645104 -0.07374469935894012 0.0038956645876169205 0.02365308627486229 0.0018272195011377335 0 0 0 0
2084367188 -0.0487971305847168 0.030832579359412193 0.022722821682691574 -0.002130165696144104 0 0 0 0
2088089272 -0.017870837822556496 0.05367628484964371 0.021380992606282234 -0.004993919283151627 0 0 0 0
2091811356 0.016618136316537857 0.070535808801651 0.020642252638936043 -0.0077587394043803215 0 0 0 0
2095533440 0.054126039147377014 0.0805894136428833 0.019442519173026085 -0.0108004966750741 0 0 0 0
2099255524 0.09316312521696091 0.08424147963523865 0.017580099403858185 -0.014368531294167042 0 0 0 0
2102977608 0.13123749196529388 0.08091648668050766 0.01488498505204916 -0.017556753009557724 0 0 0 0
2106699692 0.16936753690242767 0.072510726749897 0.011274643242359161 -0.02011258713901043 0 0 0 0
2110421776 0.20497892796993256 0.05696921423077583 0.007401695474982262 -0.021737879142165184 0 0 0 0
2114143860 0.23914501070976257 0.03392225131392479 0.003010587766766548 -0.02243557572364807 0 0 0 0
2117865944 0.2665984332561493 0.004756130278110504 -0.00106076430529356 -0.022477511316537857 0 0 0 0
2121588028 0.28792327642440796 -0.027354970574378967 -0.00493302196264267 -0.022104278206825256 0 0 0 0
2125310112 0.3023848533630371 -0.06199739873409271 -0.009796228259801865 -0.020901435986161232 0 0 0 0
2129032196 0.31062594056129456 -0.09580495208501816 -0.014230187982320786 -0.018348082900047302 0 0 0 0
2132754280 0.3130151927471161 -0.13196367025375366 -0.017706062644720078 -0.013815965503454208 0 0 0 0
2136476364 0.31298354268074036 -0.16420623660087585 -0.019162993878126144 -0.00893334113061428 0 0 0 0
2140198448 0.3070569336414337 -0.1980164647102356 -0.018704185262322426 -0.004705049097537994 0 0 0 0
2143920532 0.2953663468360901 -0.23063915967941284 -0.017463400959968567 -0.0015709390863776207 0 0 0 0
2147642616 0.2785649597644806 -0.2610481381416321 -0.016571756452322006 0.0005602370947599411 0 0 0 0
2151364700 0.2575904130935669 -0.2861793339252472 -0.015684617683291435 0.0026274174451828003 0 0 0 0
2155086784 0.23024216294288635 -0.3111644685268402 -0.014982457272708416 0.004565835930407047 0 0 0 0
2158808868 0.2028888761997223 -0.32815343141555786 -0.014171264134347439 0.006547362543642521 0 0 0 0
2162530952 0.17271432280540466 -0.34097564220428467 -0.012853208929300308 0.00844904687255621 0 0 0 0
2166253036 0.14162348210811615 -0.34780487418174744 -0.011580624617636204 0.010003854520618916 0 0 0 0
2169975120 0.10585489869117737 -0.3501294255256653 -0.010120323859155178 0.011863108724355698 0 0 0 0
2173697204 0.077415332198143 -0.34768879413604736 -0.007820723578333855 0.01347329281270504 0 0 0 0
2177419288 0.048625484108924866 -0.33947762846946716 -0.005395742133259773 0.014355994760990143 0 0 0 0
2181141372 0.021154440939426422 -0.329780638217926 -0.0030001262202858925 0.01459300797432661 0 0 0 0
2184863456 -0.005731567740440369 -0.31409019231796265 -0.0010215165093541145 0.014561841264367104 0 0 0 0
2188585540 -0.033186882734298706 -0.29458755254745483 0.0009483089670538902 0.014777091331779957 0 0 0 0
2192307624 -0.05483835190534592 -0.27011314034461975 0.0032744649797677994 0.014850962907075882 0 0 0 0
2196029708 -0.07298149913549423 -0.2419106811285019 0.00597751047462225 0.014623390510678291 0 0 0 0
2199751792 -0.08421806991100311 -0.21186891198158264 0.00905666220933199 0.013271578587591648 0 0 0 0
2203473876 -0.09141378849744797 -0.17704695463180542 0.011255916208028793 0.010881715454161167 0 0 0 0
2207195960 -0.08700083196163177 -0.1486789733171463 0.012627042829990387 0.008636116981506348 0 0 0 0
2210918044 -0.08342868089675903 -0.11624452471733093 0.013722516596317291 0.006051201373338699 0 0 0 0
2214640128 -0.07321687042713165 -0.08765219151973724 0.014319400303065777 0.0034538600593805313 0 0 0 0
2218362212 -0.0589858703315258 -0.061169471591711044 0.014753594063222408 0.0009077088907361031 0 0 0 0
2222084296 -0.04229702055454254 -0.03543907031416893 0.01462649181485176 -0.0019093509763479233 0 0 0 0
2225806380 -0.02004748396575451 -0.01414973009377718 0.013905013911426067 -0.004740577191114426 0 0 0 0
2229528464 0.006399752572178841 0.004199748858809471 0.012758568860590458 -0.007986562326550484 0 0 0 0
2233250548 0.03594084084033966 0.01586179807782173 0.010163189843297005 -0.010751156136393547 0 0 0 0
2236972632 0.06667313724756241 0.022755518555641174 0.0071638645604252815 -0.012247152626514435 0 0 0 0
2240694716 0.0981273278594017 0.024135872721672058 0.004235132597386837 -0.012802714481949806 0 0 0 0
2244416800 0.12862253189086914 0.016659483313560486 0.0013246415182948112 -0.012814514338970184 0 0 0 0
2248138884 0.1558385193347931 0.006584972143173218 -0.0015703868120908737 -0.01240302063524723 0 0 0 0
2251860968 0.18030813336372375 -0.01455567218363285 -0.004445906728506088 -0.011268136091530323 0 0 0 0
2255583052 0.20094649493694305 -0.03114781528711319 -0.006185404025018215 -0.009430721402168274 0 0 0 0
2259305136 0.21687838435173035 -0.052006661891937256 -0.007397765293717384 -0.007416003383696079 0 0 0 0
2263027220 0.22960755228996277 -0.07394275069236755 -0.007927581667900085 -0.005582697689533234 0 0 0 0
2266749304 0.23335081338882446 -0.10260893404483795 -0.008212501183152199 -0.0035759489983320236 0 0 0 0
2270471388 0.23710519075393677 -0.12609583139419556 -0.007761390879750252 -0.0017496254295110703 0 0 0 0
2274193472 0.23918822407722473 -0.14622566103935242 -0.006820807233452797 -0.0006964551284909248 0 0 0 0
2277915556 0.22921238839626312 -0.17730745673179626 -0.0059327781200408936 -0.00014732591807842255 0 0 0 0
2281637640 0.22344055771827698 -0.19662046432495117 -0.005256437696516514 -0.00038844067603349686 0 0 0 0
2285359724 0.2106301635503769 -0.2148110568523407 -0.005298496223986149 -0.0006720088422298431 0 0 0 0
2289081808 0.18984133005142212 -0.2329203486442566 -0.005734710954129696 -0.0006172070279717445 0 0 0 0
2292803892 0.1698594093322754 -0.24778296053409576 -0.006230644881725311 0.00011323392391204834 0 0 0 0
2296525976 0.14718201756477356 -0.25511714816093445 -0.0066337576135993 0.0007015401497483253 0 0 0 0
2300248060 0.12770366668701172 -0.26005062460899353 -0.007129304111003876 0.001516890712082386 0 0 0 0
2303970144 0.10910173505544662 -0.26392704248428345 -0.007179390639066696 0.0028042374178767204 0 0 0 0
2307692228 0.08635639399290085 -0.2615848481655121 -0.006777489557862282 0.004614350385963917 0 0 0 0
2311414312 0.061348989605903625 -0.25865504145622253 -0.005285716615617275 0.005752382799983025 0 0 0 0
2315136396 0.045875996351242065 -0.24999621510505676 -0.003519481047987938 0.006059890612959862 0 0 0 0
2318858480 0.022361963987350464 -0.2392255812883377 -0.002122613601386547 0.005283787846565247 0 0 0 0
2322580564 0.00321371853351593 -0.22320950031280518 -0.0015384973958134651 0.004518936388194561 0 0 0 0
2326302648 -0.011022254824638367 -0.20350432395935059 -0.0011510131880640984 0.00384538434445858 0 0 0 0
2330024732 -0.022882608696818352 -0.1819341778755188 -0.0013424083590507507 0.003472493030130863 0 0 0 0
2333746816 -0.03136352077126503 -0.1589319109916687 -0.0015664584934711456 0.00327127892524004 0 0 0 0
2337468900 -0.033436790108680725 -0.13431473076343536 -0.0015066573396325111 0.0032834969460964203 0 0 0 0
2341190984 -0.03323483094573021 -0.10750138014554977 -0.0018933489918708801 0.00314241461455822 0 0 0 0
2344913068 -0.026257015764713287 -0.08176810294389725 -0.0023811999708414078 0.003470851108431816 0 0 0 0
2348635152 -0.016405683010816574 -0.05640294402837753 -0.0024180077016353607 0.004309610463678837 0 0 0 0
2352357236 -0.0016898605972528458 -0.034753598272800446 -0.002074270509183407 0.005032935179769993 0 0 0 0
2356079320 0.016914816573262215 -0.014861725270748138 -0.0014917561784386635 0.005796048790216446 0 0 0 0
2359801404 0.038220345973968506 0.0012016203254461288 -0.0004181377589702606 0.006070210598409176 0 0 0 0
2363523488 0.06251700222492218 0.014315742999315262 0.00026665162295103073 0.005889597348868847 0 0 0 0
2367245572 0.08900021016597748 0.023312272503972054 0.0007593194022774696 0.005988657474517822 0 0 0 0
2370967656 0.11752635985612869 0.02732943370938301 0.001445271074771881 0.005945469252765179 0 0 0 0
2374689740 0.14633385837078094 0.025380808860063553 0.0022570164874196053 0.0057855574414134026 0 0 0 0
2378411824 0.1734331250190735 0.016356535255908966 0.002858203835785389 0.005249537527561188 0 0 0 0
2382133908 0.19942741096019745 0.006790618412196636 0.003236928954720497 0.004773386754095554 0 0 0 0
2385855992 0.22271814942359924 -0.009073048830032349 0.0034804660826921463 0.0041133938357234 0 0 0 0
2389578076 0.24382701516151428 -0.027333542704582214 0.003301488235592842 0.0037838201969861984 0 0 0 0
2393300160 0.260354220867157 -0.051589466631412506 0.0030197687447071075 0.004057576879858971 0 0 0 0
2397022244 0.2731800377368927 -0.07533088326454163 0.0036583533510565758 0.0046432968229055405 0 0 0 0
2400744328 0.2815230190753937 -0.10410889238119125 0.005017760209739208 0.004799792543053627 0 0 0 0
2404466412 0.28452324867248535 -0.12949544191360474 0.006564514711499214 0.003965608775615692 0 0 0 0
2408188496 0.2852820158004761 -0.1543072611093521 0.007337212562561035 0.002853718586266041 0 0 0 0
2411910580 0.28227660059928894 -0.17858554422855377 0.007947064936161041 0.0016876468434929848 0 0 0 0
2415632664 0.2741897702217102 -0.2052772343158722 0.00845521129667759 0.00037427060306072235 0 0 0 0
2419354748 0.262479305267334 -0.23026752471923828 0.009052508510649204 -0.0009303204715251923 0 0 0 0
2423076832 0.2510436475276947 -0.25115421414375305 0.009396388195455074 -0.0029302723705768585 0 0 0 0
2426798916 0.23264768719673157 -0.27164146304130554 0.008871308527886868 -0.005262305028736591 0 0 0 0
2430521000 0.20999397337436676 -0.29013457894325256 0.007488529197871685 -0.007239076308906078 0 0 0 0
2434243084 0.18919387459754944 -0.30449962615966797 0.005688494071364403 -0.008555000647902489 0 0 0 0
2437965168 0.1640823632478714 -0.31575751304626465 0.0037880893796682358 -0.009172169491648674 0 0 0 0
2441687252 0.1398875117301941 -0.3226318955421448 0.0024021798744797707 -0.00947616994380951 0 0 0 0
2445409336 0.10948490351438522 -0.32766979932785034 0.001064804382622242 -0.009427852928638458 0 0 0 0
2449131420 0.07849230617284775 -0.32668745517730713 -0.00014330726116895676 -0.009546748362481594 0 0 0 0
2452853504 0.05389437824487686 -0.3208390474319458 -0.0011670468375086784 -0.009704013355076313 0 0 0 0
2456575588 0.02689160406589508 -0.3111784756183624 -0.0025480901822447777 -0.009746721014380455 0 0 0 0
2460297672 0.0008740276098251343 -0.2977220416069031 -0.004034960642457008 -0.009945759549736977 0 0 0 0
2464019756 -0.022050336003303528 -0.2796972393989563 -0.005559531040489674 -0.009773418307304382 0 0 0 0
2467741840 -0.04479728266596794 -0.25762951374053955 -0.007553913630545139 -0.009213145822286606 0 0 0 0
2471463924 -0.05995985120534897 -0.23281730711460114 -0.00916060246527195 -0.008365265093743801 0 0 0 0
2475186008 -0.07075098901987076 -0.20745927095413208 -0.010624492540955544 -0.007243088446557522 0 0 0 0
2478908092 -0.08034750819206238 -0.1781536489725113 -0.012132818810641766 -0.0054710861295461655 0 0 0 0
2482630176 -0.08259265869855881 -0.15025493502616882 -0.013312194496393204 -0.0037166476249694824 0 0 0 0
2486352260 -0.08104106783866882 -0.1224910095334053 -0.01428026333451271 -0.0016984594985842705 0 0 0 0
2490074344 -0.07749080657958984 -0.09380461275577545 -0.015065070241689682 0.0007556304335594177 0 0 0 0
2493796428 -0.06819134950637817 -0.06711937487125397 -0.015091737732291222 0.003634536638855934 0 0 0 0
2497518512 -0.05606679618358612 -0.04258669167757034 -0.014362487010657787 0.006493742577731609 0 0 0 0
2501240596 -0.03984691575169563 -0.02054133452475071 -0.013242818415164948 0.00880180299282074 0 0 0 0
2504962680 -0.020541999489068985 0.000338556244969368 -0.011556418612599373 0.010951409116387367 0 0 0 0
2508684764 0.0009008189663290977 0.01747358776628971 -0.010047873482108116 0.013047095388174057 0 0 0 0
2512406848 0.025275414809584618 0.031204931437969208 -0.007483672350645065 0.015208456665277481 0 0 0 0
2516128932 0.05084285885095596 0.040905699133872986 -0.004522273316979408 0.016739709302783012 0 0 0 0
2519851016 0.07857745885848999 0.04749603196978569 -0.0005291327834129333 0.01713205687701702 0 0 0 0
2523573100 0.10643167048692703 0.04791111871600151 0.0026189498603343964 0.016408072784543037 0 0 0 0
2527295184 0.13416169583797455 0.04551113769412041 0.005624939687550068 0.015228094533085823 0 0 0 0
2531017268 0.16095691919326782 0.03709025681018829 0.008008474484086037 0.01361955888569355 0 0 0 0
2534739352 0.18562018871307373 0.02593657374382019 0.010419582016766071 0.011567540466785431 0 0 0 0
2538461436 0.20814301073551178 0.008579447865486145 0.012284306809306145 0.008711693808436394 0 0 0 0
2542183520 0.22583526372909546 -0.008903689682483673 0.013120460323989391 0.006112857721745968 0 0 0 0
2545905604 0.24152648448944092 -0.02823098748922348 0.013626011088490486 0.0032762382179498672 0 0 0 0
2549627688 0.2527585029602051 -0.049729250371456146 0.013552618212997913 0.0005916459485888481 0 0 0 0
2553349772 0.26152220368385315 -0.07210233807563782 0.012760668061673641 -0.0020569339394569397 0 0 0 0
2557071856 0.2671983242034912 -0.09775067865848541 0.011434847488999367 -0.0044996123760938644 0 0 0 0
2560793940 0.26834195852279663 -0.1189030334353447 0.009681091643869877 -0.0059041352942585945 0 0 0 0
2564516024 0.26334652304649353 -0.1446690857410431 0.00787308532744646 -0.006959663704037666 0 0 0 0
2568238108 0.25824037194252014 -0.16498762369155884 0.0063808877021074295 -0.00762813538312912 0 0 0 0
2571960192 0.25051259994506836 -0.1835412085056305 0.004819011315703392 -0.008043235167860985 0 0 0 0
2575682276 0.237343892455101 -0.20182156562805176 0.003569565713405609 -0.008134694769978523 0 0 0 0
2579404360 0.22223612666130066 -0.21835921704769135 0.0024302778765559196 -0.008061209693551064 0 0 0 0
2583126444 0.21056294441223145 -0.23020057380199432 0.0014058798551559448 -0.008191317319869995 0 0 0 0
2586848528 0.19431552290916443 -0.24004872143268585 0.0002921959385275841 -0.008339579217135906 0 0 0 0
2590570612 0.1764586716890335 -0.2503831386566162 -0.0009096451103687286 -0.008312996476888657 0 0 0 0
2594292696 0.160684734582901 -0.25536930561065674 -0.0023119673132896423 -0.007949686609208584 0 0 0 0
2598014780 0.14262591302394867 -0.26060768961906433 -0.003397884778678417 -0.007447972893714905 0 0 0 0
2601736864 0.12581327557563782 -0.2614084780216217 -0.004578437656164169 -0.0065534645691514015 0 0 0 0
2605458948 0.10540325194597244 -0.2608107626438141 -0.005448497831821442 -0.005486149340867996 0 0 0 0
2609181032 0.08561466634273529 -0.25759971141815186 -0.0057807499542832375 -0.004297102801501751 0 0 0 0
2612903116 0.07110729813575745 -0.25047746300697327 -0.006069912575185299 -0.003284284844994545 0 0 0 0
2616625200 0.05571494996547699 -0.24093198776245117 -0.006132258102297783 -0.0023981239646673203 0 0 0 0
2620347284 0.041659582406282425 -0.229543998837471 -0.005837211385369301 -0.001460149884223938 0 0 0 0
2624069368 0.028704755008220673 -0.2155759036540985 -0.005328788422048092 -0.0009182067587971687 0 0 0 0
2627791452 0.019184276461601257 -0.19923625886440277 -0.005020082928240299 -0.0005432767793536186 0 0 0 0
2631513536 0.015376599505543709 -0.18280743062496185 -0.0051305945962667465 -0.0005158036947250366 0 0 0 0
2635235620 0.013386048376560211 -0.16582180559635162 -0.005468469113111496 -0.0001316918060183525 0 0 0 0
2638957704 0.013695169240236282 -0.147697314620018 -0.005670552141964436 0.0005287611857056618 0 0 0 0
2642679788 0.016725683584809303 -0.13272972404956818 -0.005493509583175182 0.0014357781037688255 0 0 0 0
2646401872 0.02351781353354454 -0.11856911331415176 -0.00530653353780508 0.0024706553667783737 0 0 0 0
2650123956 0.03318117931485176 -0.10528162866830826 -0.004863659851253033 0.0032892338931560516 0 0 0 0
2653846040 0.04366820305585861 -0.09572432935237885 -0.0038602901622653008 0.004160769283771515 0 0 0 0
2657568124 0.05555881932377815 -0.08864440023899078 -0.0026907045394182205 0.004433414898812771 0 0 0 0
2661290208 0.07001443207263947 -0.0839877799153328 -0.0020094914361834526 0.004328478127717972 0 0 0 0
2665012292 0.08411204814910889 -0.08175774663686752 -0.0011945851147174835 0.004372858442366123 0 0 0 0
2668734376 0.09658829122781754 -0.08425833284854889 -0.0005461052060127258 0.00425098929554224 0 0 0 0
2672456460 0.10981672257184982 -0.08818982541561127 0.0003040153533220291 0.003986813127994537 0 0 0 0
2676178544 0.120113804936409 -0.09601157903671265 0.0008652564138174057 0.0034360187128186226 0 0 0 0
2679900628 0.12973037362098694 -0.10466361045837402 0.0012211194261908531 0.002983285114169121 0 0 0 0
2683622712 0.1378881186246872 -0.11462230980396271 0.0016632471233606339 0.002668706700205803 0 0 0 0
2687344796 0.13977213203907013 -0.1278659552335739 0.002123294398188591 0.0020605595782399178 0 0 0 0
2691066880 0.14372631907463074 -0.13771481812000275 0.0019639702513813972 0.0013254908844828606 0 0 0 0
2694788964 0.14022181928157806 -0.1514948457479477 0.001815715804696083 0.0009227516129612923 0 0 0 0
2698511048 0.13544878363609314 -0.16480141878128052 0.0018801894038915634 0.0007908185943961143 0 0 0 0
2702233132 0.12990738451480865 -0.17460167407989502 0.0021240990608930588 0.0004870668053627014 0 0 0 0
2705955216 0.12233678996562958 -0.18378528952598572 0.0023439712822437286 4.720874130725861e-06 0 0 0 0
2709677300 0.10869160294532776 -0.19479653239250183 0.002173454500734806 -0.0007263869047164917 0 0 0 0
2713399384 0.09631939977407455 -0.20048034191131592 0.0018362980335950851 -0.0010675126686692238 0 0 0 0
2717121468 0.08233106136322021 -0.20465056598186493 0.0014941254630684853 -0.0013111485168337822 0 0 0 0
2720843552 0.06722442060709 -0.2043386697769165 0.001063772477209568 -0.001590704545378685 0 0 0 0
2724565636 0.051703087985515594 -0.2022615224123001 0.0009373873472213745 -0.0018992042168974876 0 0 0 0
2728287720 0.03739645704627037 -0.19632597267627716 0.00036121346056461334 -0.0022713663056492805 0 0 0 0
2732009804 0.023093530908226967 -0.1886817216873169 -0.00028549879789352417 -0.00216763187199831 0 0 0 0
2735731888 0.010032519698143005 -0.17664745450019836 -0.0008833492174744606 -0.0017286650836467743 0 0 0 0
2739453972 -0.0006440281867980957 -0.164255291223526 -0.0012389691546559334 -0.0012337863445281982 0 0 0 0
2743176056 -0.010795623064041138 -0.1472923904657364 -0.001340906135737896 -0.0005265921354293823 0 0 0 0
2746898140 -0.016864415258169174 -0.12887436151504517 -0.0008952068164944649 0.0002141706645488739 0 0 0 0
2750620224 -0.019142979755997658 -0.10887151956558228 -2.5727786123752594e-05 0.00034467875957489014 0 0 0 0
2754342308 -0.017330249771475792 -0.08809928596019745 0.0005029914900660515 -0.0001889783889055252 0 0 0 0
2758064392 -0.012179459445178509 -0.0692732036113739 0.000604541040956974 -0.0007641734555363655 0 0 0 0
2761786476 -0.003101630136370659 -0.0515487939119339 0.00032534636557102203 -0.0012310147285461426 0 0 0 0
2765508560 0.006927912123501301 -0.0349704809486866 3.751832991838455e-05 -0.0014077899977564812 0 0 0 0
2769230644 0.019524112343788147 -0.01941409520804882 -0.000380038283765316 -0.0015447968617081642 0 0 0 0
2772952728 0.03553750365972519 -0.004729649052023888 -0.0007895044982433319 -0.0011838506907224655 0 0 0 0
2776674812 0.05446363240480423 0.00748384278267622 -0.000817982479929924 -0.0008010640740394592 0 0 0 0
2780396896 0.07665324956178665 0.015483004972338676 -0.0007829489186406136 -0.0004301033914089203 0 0 0 0
2784118980 0.0999210774898529 0.01923486776649952 -0.00048756226897239685 -0.00017588771879673004 0 0 0 0
2787841064 0.12367130070924759 0.020402703434228897 -6.2551349401474e-05 -0.0002910466864705086 0 0 0 0
2791563148 0.14818665385246277 0.0172971673309803 0.00021034013479948044 -0.0005899490788578987 0 0 0 0
2795285232 0.1713743656873703 0.008396506309509277 0.00018662121146917343 -0.0008990392088890076 0 0 0 0
2799007316 0.19377225637435913 -0.00315731018781662 -7.940735667943954e-05 -0.0012689251452684402 0 0 0 0
2802729400 0.2131797969341278 -0.017954392358660698 -0.0003109220415353775 -0.0012915823608636856 0 0 0 0
2806451484 0.23164400458335876 -0.03609961271286011 -0.0006174156442284584 -0.0013909386470913887 0 0 0 0
2810173568 0.24644255638122559 -0.05799494683742523 -0.0010328656062483788 -0.0011963509023189545 0 0 0 0
2813895652 0.2590927183628082 -0.08012764155864716 -0.0011804187670350075 -0.0009163115173578262 0 0 0 0
2817617736 0.2661440372467041 -0.10566887259483337 -0.0013122223317623138 -0.0007196860387921333 0 0 0 0
2821339820 0.2696686089038849 -0.13173997402191162 -0.0014018360525369644 -0.00036948826164007187 0 0 0 0
2825061904 0.2678348124027252 -0.15949130058288574 -0.0013857735320925713 1.5066005289554596e-05 0 0 0 0
2828783988 0.26194098591804504 -0.18585731089115143 -0.0011529112234711647 0.0005432404577732086 0 0 0 0
2832506072 0.25371676683425903 -0.20879563689231873 -0.0006049126386642456 0.0007423209026455879 0 0 0 0
2836228156 0.24037092924118042 -0.23319204151630402 -0.000232708640396595 0.000841144472360611 0 0 0 0
2839950240 0.22358059883117676 -0.25336816906929016 0.0002557877451181412 0.0007953960448503494 0 0 0 0
2843672324 0.2088986039161682 -0.2690697908401489 0.0006624273955821991 0.0003877347335219383 0 0 0 0
2847394408 0.18731191754341125 -0.2865413427352905 0.0009445268660783768 8.790288120508194e-05 0 0 0 0
2851116492 0.16967931389808655 -0.29786843061447144 0.001003934070467949 -0.0003937920555472374 0 0 0 0
2854838576 0.14422300457954407 -0.30929651856422424 0.0009771119803190231 -0.0008227257058024406 0 0 0 0
2858560660 0.1244925856590271 -0.3163142800331116 0.0008544540032744408 -0.001583176665008068 0 0 0 0
2862282744 0.0991683378815651 -0.32076382637023926 0.0004314109683036804 -0.0018309475854039192 0 0 0 0
2866004828 0.071868896484375 -0.32301419973373413 2.7798116207122803e-05 -0.001804162748157978 0 0 0 0
2869726912 0.05066845566034317 -0.3203752636909485 -0.00032082293182611465 -0.0015990585088729858 0 0 0 0
2873448996 0.02544231340289116 -0.31475555896759033 -0.00046767760068178177 -0.0015045823529362679 0 0 0 0
2877171080 -0.00010986626148223877 -0.3071260154247284 -0.0006883032619953156 -0.0013162968680262566 0 0 0 0
2880893164 -0.02279091253876686 -0.2972404658794403 -0.0007577668875455856 -0.0012632962316274643 0 0 0 0
2884615248 -0.04078572243452072 -0.2826395630836487 -0.0009773485362529755 -0.0009768344461917877 0 0 0 0
2888337332 -0.05968256667256355 -0.266531378030777 -0.0010286839678883553 -0.0008539501577615738 0 0 0 0
2892059416 -0.07752809673547745 -0.24793364107608795 -0.0009175846353173256 -0.0006252434104681015 0 0 0 0
2895781500 -0.08973315358161926 -0.2286422997713089 -0.0008882014080882072 -0.0004952941089868546 0 0 0 0
2899503584 -0.10482104122638702 -0.20285040140151978 -0.000926661305129528 -0.00026193540543317795 0 0 0 0
2903225668 -0.1148124635219574 -0.1788874715566635 -0.0008746311068534851 -8.923467248678207e-05 0 0 0 0
2906947752 -0.11992452293634415 -0.15446004271507263 -0.0008433638140559196 3.966502845287323e-06 0 0 0 0
2910669836 -0.12254193425178528 -0.12803258001804352 -0.000706101767718792 0.0004215128719806671 0 0 0 0
2914391920 -0.12148915231227875 -0.10197342187166214 -0.0005788719281554222 0.0005094520747661591 0 0 0 0
2918114004 -0.11636301875114441 -0.07534980028867722 -0.000341564416885376 0.0007740035653114319 0 0 0 0
2921836088 -0.10687780380249023 -0.05157111957669258 -5.347840487957001e-05 0.0008570495992898941 0 0 0 0
2925558172 -0.09618965536355972 -0.028942884877324104 0.0003015128895640373 0.0007651997730135918 0 0 0 0
2929280256 -0.08317797631025314 -0.007776215672492981 0.00041783880442380905 0.0005731889978051186 0 0 0 0
2933002340 -0.06794948875904083 0.010897576808929443 0.00030748825520277023 0.0005088727921247482 0 0 0 0
2936724424 -0.049506720155477524 0.028403105214238167 0.00036399904638528824 0.0007939115166664124 0 0 0 0
2940446508 -0.029606422409415245 0.043582309037446976 0.0005168598145246506 0.0009753229096531868 0 0 0 0
2944168592 -0.00808817520737648 0.0564601868391037 0.0007343888282775879 0.0010256078094244003 0 0 0 0
2947890676 0.015267372131347656 0.06656436622142792 0.0007788045331835747 0.0012439321726560593 0 0 0 0
2951612760 0.03951562941074371 0.0739051103591919 0.0012402785941958427 0.0014544138684868813 0 0 0 0
2955334844 0.0639781653881073 0.07819592207670212 0.0019571268931031227 0.0015073586255311966 0 0 0 0
2959056928 0.0903308317065239 0.07945133745670319 0.002715449780225754 0.0013192305341362953 0 0 0 0
2962779012 0.1163356602191925 0.07637245208024979 0.003264758735895157 0.0006334083154797554 0 0 0 0
2966501096 0.142944797873497 0.06920525431632996 0.003716306760907173 5.870312452316284e-05 0 0 0 0
2970223180 0.1678464263677597 0.059399526566267014 0.003782767802476883 -0.0008998345583677292 0 0 0 0
2973945264 0.19018013775348663 0.045864038169384 0.0035839946940541267 -0.001629617065191269 0 0 0 0
2977667348 0.2114713340997696 0.031003929674625397 0.003257044591009617 -0.0022359099239110947 0 0 0 0
2981389432 0.22985604405403137 0.012573979794979095 0.003012264147400856 -0.0028055235743522644 0 0 0 0
2985111516 0.24533483386039734 -0.011560633778572083 0.0022656694054603577 -0.0031959330663084984 0 0 0 0
2988833600 0.25751248002052307 -0.03282316029071808 0.0015590814873576164 -0.0036127716302871704 0 0 0 0
2992555684 0.2666243016719818 -0.05949099361896515 0.0006892643868923187 -0.0038442742079496384 0 0 0 0
2996277768 0.26938068866729736 -0.08480533957481384 -0.00016351044178009033 -0.003702525980770588 0 0 0 0
2999999852 0.2740187644958496 -0.10625775158405304 -0.00047251489013433456 -0.003275170922279358 0 0 0 0
