# HZ S RI R 50
1500000000 -0.015567788854241371 -0.04219613969326019 0.031741756945848465 -0.023522306233644485 0 0 0 0
1503722084 -0.004629937931895256 -0.03403158113360405 0.027160532772541046 -0.02815953642129898 0 0 0 0
1507444168 0.009429780766367912 -0.027250871062278748 0.022411933168768883 -0.03131633996963501 0 0 0 0
1511166252 0.024537865072488785 -0.02129647508263588 0.01836148276925087 -0.03433338552713394 0 0 0 0
1514888336 0.04203515499830246 -0.016248337924480438 0.013346596620976925 -0.03801143169403076 0 0 0 0
1518610420 0.06114944815635681 -0.014411896467208862 0.006217787973582745 -0.04102412983775139 0 0 0 0
1522332504 0.08024996519088745 -0.013929463922977448 -0.0018624905496835709 -0.041426949203014374 0 0 0 0
1526054588 0.10099263489246368 -0.014607999473810196 -0.009918025694787502 -0.03923903778195381 0 0 0 0
1529776672 0.12443061918020248 -0.01650536246597767 -0.01613485813140869 -0.03554259240627289 0 0 0 0
1533498756 0.14905065298080444 -0.024882689118385315 -0.021321650594472885 -0.031169677153229713 0 0 0 0
1537220840 0.1753757745027542 -0.03491799533367157 -0.02510857954621315 -0.026734353974461555 0 0 0 0
1540942924 0.20206674933433533 -0.0514509379863739 -0.02849927544593811 -0.021361058577895164 0 0 0 0
1544665008 0.22659340500831604 -0.07344046980142593 -0.030605027452111244 -0.015940500423312187 0 0 0 0
1548387092 0.24841110408306122 -0.10042873024940491 -0.032000891864299774 -0.010194888338446617 0 0 0 0
1552109176 0.2662506699562073 -0.13173215091228485 -0.03185221552848816 -0.004288392141461372 0 0 0 0
1555831260 0.2787690758705139 -0.1682465672492981 -0.03046383149921894 0.0010181739926338196 0 0 0 0
1559553344 0.2885984480381012 -0.2049001306295395 -0.02834654599428177 0.005461566150188446 0 0 0 0
1563275428 0.2891184091567993 -0.2476195991039276 -0.026156237348914146 0.00932072103023529 0 0 0 0
1566997512 0.2847539186477661 -0.2873138189315796 -0.023368213325738907 0.012519318610429764 0 0 0 0
1570719596 0.2713841199874878 -0.3282914161682129 -0.020080721005797386 0.015547742135822773 0 0 0 0
1574441680 0.25814288854599 -0.3650074601173401 -0.016463540494441986 0.01717980019748211 0 0 0 0
1578163764 0.23715649545192719 -0.40293848514556885 -0.012776117771863937 0.018139127641916275 0 0 0 0
1581885848 0.21193668246269226 -0.4407650828361511 -0.009695446118712425 0.018514972180128098 0 0 0 0
1585607932 0.17332178354263306 -0.4769785702228546 -0.006858399137854576 0.018460366874933243 0 0 0 0
1589330016 0.13325177133083344 -0.5056662559509277 -0.00425383448600769 0.018081270158290863 0 0 0 0
1593052100 0.08302393555641174 -0.5291983485221863 -0.0021603628993034363 0.017376981675624847 0 0 0 0
1596774184 0.03666967153549194 -0.5437481999397278 -0.0007982254028320312 0.01706891506910324 0 0 0 0
1600496268 -0.01576852798461914 -0.5504313111305237 0.0008748834952712059 0.0168612003326416 0 0 0 0
1604218352 -0.07170560956001282 -0.5494639873504639 0.002886250615119934 0.016689807176589966 0 0 0 0
1607940436 -0.1278873085975647 -0.5413137674331665 0.005063239485025406 0.016301754862070084 0 0 0 0
1611662520 -0.1787506639957428 -0.5280709862709045 0.00717561598867178 0.015620394609868526 0 0 0 0
1615384604 -0.2339310646057129 -0.5045056343078613 0.009419487789273262 0.014563384465873241 0 0 0 0
1619106688 -0.28584057092666626 -0.4713606834411621 0.011656837537884712 0.013059115968644619 0 0 0 0
1622828772 -0.33467745780944824 -0.4302230775356293 0.013797030784189701 0.011039746925234795 0 0 0 0
1626550856 -0.377899169921875 -0.3816815912723541 0.015304578468203545 0.008579486049711704 0 0 0 0
1630272940 -0.41203969717025757 -0.3242494463920593 0.016526268795132637 0.0058705173432827 0 0 0 0
1633995024 -0.44048672914505005 -0.2605029046535492 0.017084341496229172 0.0028311023488640785 0 0 0 0
1637717108 -0.4571167826652527 -0.19320017099380493 0.017222287133336067 4.8900023102760315e-05 0 0 0 0
1641439192 -0.46456751227378845 -0.12338616698980331 0.016955669969320297 -0.002869187854230404 0 0 0 0
1645161276 -0.4600946307182312 -0.04619072377681732 0.015889182686805725 -0.006234109401702881 0 0 0 0
1648883360 -0.4446036219596863 0.027918070554733276 0.013902192004024982 -0.008762048557400703 0 0 0 0
1652605444 -0.4146481156349182 0.1017911434173584 0.011399338021874428 -0.010669886134564877 0 0 0 0
1656327528 -0.3720465302467346 0.17157360911369324 0.009176235646009445 -0.011790812015533447 0 0 0 0
1660049612 -0.31853270530700684 0.23170635104179382 0.007170019671320915 -0.012407345697283745 0 0 0 0
1663771696 -0.2548659145832062 0.283471018075943 0.005059931427240372 -0.013321289792656898 0 0 0 0
1667493780 -0.1823958456516266 0.32546618580818176 0.0026146136224269867 -0.013679071329534054 0 0 0 0
1671215864 -0.10744254291057587 0.35397595167160034 0.00019857659935951233 -0.013362164609134197 0 0 0 0
1674937948 -0.023436084389686584 0.3719329833984375 -0.0019150236621499062 -0.0130850151181221 0 0 0 0
1678660032 0.061548054218292236 0.37574833631515503 -0.004401533864438534 -0.012265527620911598 0 0 0 0
1682382116 0.14576822519302368 0.3657924234867096 -0.006736839190125465 -0.0103519381955266 0 0 0 0
1686104200 0.22813059389591217 0.339743971824646 -0.007902336306869984 -0.007902577519416809 0 0 0 0
1689826284 0.3045575022697449 0.3024117648601532 -0.008346359245479107 -0.00575137697160244 0 0 0 0
1693548368 0.373119056224823 0.2538681626319885 -0.00829264149069786 -0.0037484588101506233 0 0 0 0
1697270452 0.43328648805618286 0.19427065551280975 -0.007730724290013313 -0.0021204007789492607 0 0 0 0
1700992536 0.48217517137527466 0.12990930676460266 -0.0067520057782530785 -0.0008057123050093651 0 0 0 0
1704714620 0.5210230350494385 0.053410544991493225 -0.005617605522274971 -5.292240530252457e-05 0 0 0 0
1708436704 0.5473251938819885 -0.02077092044055462 -0.004518164321780205 3.0357390642166138e-05 0 0 0 0
1712158788 0.561102569103241 -0.10016032308340073 -0.003955051302909851 -0.0002504168078303337 0 0 0 0
1715880872 0.560957670211792 -0.18058302998542786 -0.003857971169054508 -0.0005647251382470131 0 0 0 0
1719602956 0.5486915111541748 -0.2608272433280945 -0.003704751841723919 -0.0005524726584553719 0 0 0 0
1723325040 0.5263750553131104 -0.337990403175354 -0.0037622731178998947 -0.0008080312982201576 0 0 0 0
1727047124 0.49649694561958313 -0.4030548632144928 -0.004115224815905094 -0.0010038204491138458 0 0 0 0
1730769208 0.4491145610809326 -0.4696650505065918 -0.004767065867781639 -0.0007965508848428726 0 0 0 0
1734491292 0.39751559495925903 -0.5260286331176758 -0.005172703415155411 -0.00032014213502407074 0 0 0 0
1738213376 0.33642756938934326 -0.5718235969543457 -0.005170506425201893 0.00023941230028867722 0 0 0 0
1741935460 0.27146604657173157 -0.6086158752441406 -0.005285885185003281 0.00048510264605283737 0 0 0 0
1745657544 0.20659533143043518 -0.633028507232666 -0.005848034285008907 0.0007874984294176102 0 0 0 0
1749379628 0.13087335228919983 -0.6491768956184387 -0.006293284706771374 0.0016152933239936829 0 0 0 0
1753101712 0.058657288551330566 -0.6522650718688965 -0.006430601701140404 0.0024581076577305794 0 0 0 0
1756823796 -0.015987463295459747 -0.6450424790382385 -0.0066536543890833855 0.0032402891665697098 0 0 0 0
1760545880 -0.0782926082611084 -0.6267508268356323 -0.0070038288831710815 0.004417085088789463 0 0 0 0
1764267964 -0.14331743121147156 -0.5982930660247803 -0.007195033133029938 0.006043500266969204 0 0 0 0
1767990048 -0.20480145514011383 -0.5603041052818298 -0.006440858356654644 0.008115987293422222 0 0 0 0
1771712132 -0.2499256283044815 -0.5178007483482361 -0.004935510456562042 0.009474366903305054 0 0 0 0
1775434216 -0.2946925759315491 -0.4658934473991394 -0.003568202257156372 0.010375802405178547 0 0 0 0
1779156300 -0.3256784975528717 -0.41132068634033203 -0.002211039885878563 0.01117222011089325 0 0 0 0
1782878384 -0.3529220223426819 -0.3521919250488281 -0.0007080752402544022 0.011867476627230644 0 0 0 0
1786600468 -0.36899900436401367 -0.2916843295097351 0.000822732225060463 0.01269481796771288 0 0 0 0
1790322552 -0.3768073618412018 -0.22853818535804749 0.00298988725990057 0.01350408885627985 0 0 0 0
1794044636 -0.3753766119480133 -0.16431407630443573 0.005716807208955288 0.013637982308864594 0 0 0 0
1797766720 -0.36355066299438477 -0.10206516087055206 0.008557448163628578 0.012988164089620113 0 0 0 0
1801488804 -0.34202858805656433 -0.04727140814065933 0.011122528463602066 0.01172089483588934 0 0 0 0
1805210888 -0.31473222374916077 0.0059688035398721695 0.01331166923046112 0.010111174546182156 0 0 0 0
1808932972 -0.2798263728618622 0.05432276427745819 0.01530605461448431 0.008544260635972023 0 0 0 0
1812655056 -0.2382310926914215 0.09533783048391342 0.017543943598866463 0.0065618846565485 0 0 0 0
1816377140 -0.19017399847507477 0.13198983669281006 0.019686076790094376 0.003745109774172306 0 0 0 0
1820099224 -0.13837672770023346 0.15834149718284607 0.021686047315597534 0.0004205554723739624 0 0 0 0
1823821308 -0.08267834037542343 0.17531730234622955 0.022987524047493935 -0.004424608312547207 0 0 0 0
1827543392 -0.027235038578510284 0.18399867415428162 0.022347500547766685 -0.009689517319202423 0 0 0 0
1831265476 0.03074568510055542 0.18384809792041779 0.02087913639843464 -0.014189280569553375 0 0 0 0
1834987560 0.08472549915313721 0.17321981489658356 0.01810590736567974 -0.019080422818660736 0 0 0 0
1838709644 0.13628752529621124 0.1549595445394516 0.013816183432936668 -0.023248400539159775 0 0 0 0
1842431728 0.18257257342338562 0.13007289171218872 0.008883215487003326 -0.025739997625350952 0 0 0 0
1846153812 0.22442170977592468 0.0968269556760788 0.003825888969004154 -0.02698996290564537 0 0 0 0
1849875896 0.25823941826820374 0.05851652845740318 -0.0013026576489210129 -0.027295999228954315 0 0 0 0
1853597980 0.2840026021003723 0.017189040780067444 -0.006584564223885536 -0.026622947305440903 0 0 0 0
1857320064 0.3021812438964844 -0.02995094284415245 -0.011500947177410126 -0.024732312187552452 0 0 0 0
1861042148 0.31278422474861145 -0.07344972342252731 -0.015423299744725227 -0.022231973707675934 0 0 0 0
1864764232 0.3154609799385071 -0.12148366868495941 -0.019133104011416435 -0.0194009467959404 0 0 0 0
1868486316 0.30934619903564453 -0.16462385654449463 -0.02207847870886326 -0.016600217670202255 0 0 0 0
1872208400 0.29693347215652466 -0.20536194741725922 -0.025261275470256805 -0.01274937018752098 0 0 0 0
1875930484 0.27725210785865784 -0.24236199259757996 -0.02780698984861374 -0.008120536804199219 0 0 0 0
1879652568 0.25406554341316223 -0.27399247884750366 -0.029393307864665985 -0.002786208875477314 0 0 0 0
1883374652 0.22623585164546967 -0.30060911178588867 -0.029936932027339935 0.0032040057703852654 0 0 0 0
1887096736 0.19398465752601624 -0.3212427496910095 -0.028972426429390907 0.009206757880747318 0 0 0 0
1890818820 0.16346855461597443 -0.33419615030288696 -0.026131607592105865 0.014567545615136623 0 0 0 0
1894540904 0.13095393776893616 -0.34244057536125183 -0.022869525477290154 0.01857055351138115 0 0 0 0
1898262988 0.09639328718185425 -0.3467371165752411 -0.0190824456512928 0.021952977403998375 0 0 0 0
1901985072 0.06718315929174423 -0.34507912397384644 -0.014996767044067383 0.024654073640704155 0 0 0 0
1905707156 0.03389483690261841 -0.33913010358810425 -0.010854393243789673 0.026737676933407784 0 0 0 0
1909429240 0.009005572646856308 -0.32622030377388 -0.006896680220961571 0.028609368950128555 0 0 0 0
1913151324 -0.01689128577709198 -0.31097978353500366 -0.0017366791144013405 0.030222583562135696 0 0 0 0
1916873408 -0.041166044771671295 -0.2906882166862488 0.0040206341072916985 0.030656347051262856 0 0 0 0
1920595492 -0.05937966704368591 -0.26729321479797363 0.009816567413508892 0.030029360204935074 0 0 0 0
1924317576 -0.07337785512208939 -0.2408600151538849 0.015659913420677185 0.028071481734514236 0 0 0 0
1928039660 -0.08317266404628754 -0.21319441497325897 0.021630316972732544 0.024830235168337822 0 0 0 0
1931761744 -0.08732952177524567 -0.18522481620311737 0.027103865519165993 0.01973765902221203 0 0 0 0
1935483828 -0.08604550361633301 -0.1555449217557907 0.030668430030345917 0.01277686282992363 0 0 0 0
1939205912 -0.07908989489078522 -0.12678632140159607 0.03175374120473862 0.004954930394887924 0 0 0 0
1942927996 -0.06736663728952408 -0.09901849180459976 0.030545920133590698 -0.0018694419413805008 0 0 0 0
1946650080 -0.05090788006782532 -0.07568944990634918 0.028194043785333633 -0.007407736964523792 0 0 0 0
1950372164 -0.030057979747653008 -0.05587258189916611 0.025429286062717438 -0.011385289020836353 0 0 0 0
1954094248 -0.005921144038438797 -0.039398662745952606 0.022765954956412315 -0.015284005552530289 0 0 0 0
1957816332 0.021717777475714684 -0.028324024751782417 0.019837550818920135 -0.018642490729689598 0 0 0 0
1961538416 0.05080427601933479 -0.023375272750854492 0.016162153333425522 -0.021856067702174187 0 0 0 0
1965260500 0.07974307239055634 -0.02550734207034111 0.011292137205600739 -0.02444624714553356 0 0 0 0
1968982584 0.10678138583898544 -0.03343399986624718 0.006246216595172882 -0.026056669652462006 0 0 0 0
1972704668 0.13004595041275024 -0.04586771875619888 0.0009424313902854919 -0.02623913437128067 0 0 0 0
1976426752 0.1508241891860962 -0.06033825874328613 -0.003657403402030468 -0.02529763989150524 0 0 0 0
1980148836 0.16856831312179565 -0.0788043886423111 -0.008157792501151562 -0.023583851754665375 0 0 0 0
1983870920 0.18231603503227234 -0.09936007857322693 -0.012470204383134842 -0.021361833438277245 0 0 0 0
1987593004 0.1933366358280182 -0.12336346507072449 -0.016133328899741173 -0.018114496022462845 0 0 0 0
1991315088 0.19813373684883118 -0.1496295928955078 -0.01891542784869671 -0.013890976086258888 0 0 0 0
1995037172 0.19803549349308014 -0.17473235726356506 -0.019811948761343956 -0.009709452278912067 0 0 0 0
1998759256 0.19204965233802795 -0.19915281236171722 -0.01971525140106678 -0.006124623119831085 0 0 0 0
2002481340 0.1829329878091812 -0.22195804119110107 -0.02008616365492344 -0.003373974934220314 0 0 0 0
2006203424 0.17316848039627075 -0.23965051770210266 -0.02004842460155487 -9.627826511859894e-05 0 0 0 0
2009925508 0.15576787292957306 -0.25915390253067017 -0.019368331879377365 0.0027779219672083855 0 0 0 0
2013647592 0.13684925436973572 -0.27334296703338623 -0.018111906945705414 0.005540488287806511 0 0 0 0
2017369676 0.11822167038917542 -0.28419432044029236 -0.017233800143003464 0.007420970126986504 0 0 0 0
2021091760 0.09299098700284958 -0.29316025972366333 -0.016149107366800308 0.009438521228730679 0 0 0 0
2024813844 0.07083870470523834 -0.29667362570762634 -0.015435011126101017 0.011603126302361488 0 0 0 0
2028535928 0.0458330437541008 -0.29678863286972046 -0.014265971258282661 0.014121754094958305 0 0 0 0
2032258012 0.023257754743099213 -0.2924072742462158 -0.012259569950401783 0.017035944387316704 0 0 0 0
2035980096 -0.0010228455066680908 -0.2837633192539215 -0.009217072278261185 0.019569432362914085 0 0 0 0
2039702180 -0.02229033038020134 -0.2723342776298523 -0.005977774038910866 0.020965706557035446 0 0 0 0
2043424264 -0.04396764934062958 -0.255756676197052 -0.002029646188020706 0.02213556505739689 0 0 0 0
2047146348 -0.0609903410077095 -0.23668096959590912 0.002130107954144478 0.022174589335918427 0 0 0 0
2050868432 -0.07393904030323029 -0.214254230260849 0.005883137695491314 0.021173033863306046 0 0 0 0
2054590516 -0.0841573029756546 -0.1898343563079834 0.008709890767931938 0.01976311020553112 0 0 0 0
2058312600 -0.0905623584985733 -0.16434872150421143 0.011714242398738861 0.018272005021572113 0 0 0 0
2062034684 -0.0945294201374054 -0.13809886574745178 0.014718282967805862 0.0166279599070549 0 0 0 0
2065756768 -0.09417641907930374 -0.11005257070064545 0.017852244898676872 0.013947397470474243 0 0 0 0
2069478852 -0.08815081417560577 -0.08156637847423553 0.020463384687900543 0.010708952322602272 0 0 0 0
2073200936 -0.07752306759357452 -0.05308510363101959 0.022403836250305176 0.0068566808477044106 0 0 0 0
2076923020 -0.06237425655126572 -0.027489816769957542 0.02358650416135788 0.002599741332232952 0 0 0 0
2080645104 -0.043404847383499146 -0.0042727235704660416 0.024021204560995102 -0.0024037575349211693 0 0 0 0
2084367188 -0.02041020803153515 0.01639316976070404 0.022577516734600067 -0.00754044484347105 0 0 0 0
2088089272 0.007067803293466568 0.03386373817920685 0.019619932398200035 -0.011593444272875786 0 0 0 0
2091811356 0.03730495646595955 0.045818671584129333 0.0163117665797472 -0.014221285469830036 0 0 0 0
2095533440 0.06874090433120728 0.05222902074456215 0.013396558351814747 -0.01586591824889183 0 0 0 0
2099255524 0.10123097896575928 0.05416566878557205 0.01003030501306057 -0.017177201807498932 0 0 0 0
2102977608 0.13380250334739685 0.0508384145796299 0.007159221917390823 -0.017880234867334366 0 0 0 0
2106699692 0.16590437293052673 0.04153672233223915 0.004970488138496876 -0.018218858167529106 0 0 0 0
2110421776 0.19526466727256775 0.026990879327058792 0.0027736062183976173 -0.019061848521232605 0 0 0 0
2114143860 0.22361095249652863 0.008429694920778275 -0.00022501125931739807 -0.02015867829322815 0 0 0 0
2117865944 0.24735760688781738 -0.01480836421251297 -0.004090550355613232 -0.020724007859826088 0 0 0 0
2121588028 0.2667882740497589 -0.042893774807453156 -0.008515803143382072 -0.02005172148346901 0 0 0 0
2125310112 0.2801387310028076 -0.07200657576322556 -0.012469805777072906 -0.018188904970884323 0 0 0 0
2129032196 0.2870601415634155 -0.10460774600505829 -0.016023263335227966 -0.015444873832166195 0 0 0 0
2132754280 0.2904132306575775 -0.13525427877902985 -0.019080236554145813 -0.011948160827159882 0 0 0 0
2136476364 0.28854885697364807 -0.1660292148590088 -0.021262409165501595 -0.007146966643631458 0 0 0 0
2140198448 0.28126317262649536 -0.1960224211215973 -0.021467175334692 -0.0023195547983050346 0 0 0 0
2143920532 0.27108141779899597 -0.22330701351165771 -0.020116431638598442 0.0018198546022176743 0 0 0 0
2147642616 0.25553518533706665 -0.25031715631484985 -0.018296215683221817 0.004811851307749748 0 0 0 0
2151364700 0.2343502640724182 -0.2748887836933136 -0.01705540157854557 0.007183504290878773 0 0 0 0
2155086784 0.21374517679214478 -0.2917664051055908 -0.015453453175723553 0.009566540829837322 0 0 0 0
2158808868 0.18885011970996857 -0.3048976957798004 -0.013624778017401695 0.011469179764389992 0 0 0 0
2162530952 0.16242550313472748 -0.31496167182922363 -0.011682874523103237 0.013283944688737392 0 0 0 0
2166253036 0.13858425617218018 -0.3198292553424835 -0.009374958463013172 0.014969315379858017 0 0 0 0
2169975120 0.11171029508113861 -0.3227459788322449 -0.006465137004852295 0.016476336866617203 0 0 0 0
2173697204 0.08576010167598724 -0.32270777225494385 -0.003171307034790516 0.01705258898437023 0 0 0 0
2177419288 0.05965466797351837 -0.3195533752441406 -0.00016422197222709656 0.016600772738456726 0 0 0 0
2181141372 0.03563236445188522 -0.3107477128505707 0.0021837903186678886 0.01579691655933857 0 0 0 0
2184863456 0.00846189260482788 -0.2983165383338928 0.0042654285207390785 0.014821663498878479 0 0 0 0
2188585540 -0.015016734600067139 -0.28080427646636963 0.006574898026883602 0.01388698723167181 0 0 0 0
2192307624 -0.034393757581710815 -0.2600976228713989 0.008662854321300983 0.012568672187626362 0 0 0 0
2196029708 -0.048979852348566055 -0.23568962514400482 0.010382067412137985 0.01080378983169794 0 0 0 0
2199751792 -0.05653471499681473 -0.2100117802619934 0.011771181598305702 0.009082652628421783 0 0 0 0
2203473876 -0.06342384219169617 -0.1824485957622528 0.013577943667769432 0.0066917696967720985 0 0 0 0
2207195960 -0.06425924599170685 -0.15584540367126465 0.014296443201601505 0.003948792815208435 0 0 0 0
2210918044 -0.061177924275398254 -0.12986433506011963 0.014339061453938484 0.00027364958077669144 0 0 0 0
2214640128 -0.05568765103816986 -0.10583822429180145 0.012717543169856071 -0.0026899632066488266 0 0 0 0
2218362212 -0.045222193002700806 -0.08489588648080826 0.010764304548501968 -0.004092116840183735 0 0 0 0
2222084296 -0.03397257626056671 -0.06283384561538696 0.009221328422427177 -0.004729995504021645 0 0 0 0
2225806380 -0.01869100332260132 -0.04161915183067322 0.00813904870301485 -0.005187631584703922 0 0 0 0
2229528464 0.0006052320823073387 -0.02245159074664116 0.0073811449110507965 -0.005636734887957573 0 0 0 0
2233250548 0.025447752326726913 -0.00745087955147028 0.006985923275351524 -0.006279663182795048 0 0 0 0
2236972632 0.051263704895973206 0.001451384276151657 0.0063706375658512115 -0.007233136333525181 0 0 0 0
2240694716 0.0784689411520958 0.006131498143076897 0.00542206596583128 -0.00855364091694355 0 0 0 0
2244416800 0.10522198677062988 0.007271554321050644 0.0036621270701289177 -0.009553316049277782 0 0 0 0
2248138884 0.13284243643283844 0.001415017992258072 0.001957615837454796 -0.009829825721681118 0 0 0 0
2251860968 0.1581965684890747 -0.010166682302951813 0.00026083458214998245 -0.009589961729943752 0 0 0 0
2255583052 0.1803808957338333 -0.02648969739675522 -0.0009241355583071709 -0.009411416947841644 0 0 0 0
2259305136 0.19993433356285095 -0.04132717102766037 -0.002181803807616234 -0.009326922707259655 0 0 0 0
2263027220 0.21499478816986084 -0.06504754722118378 -0.003400338813662529 -0.009096154943108559 0 0 0 0
2266749304 0.22297273576259613 -0.09007539600133896 -0.0048517705872654915 -0.008524587377905846 0 0 0 0
2270471388 0.22878167033195496 -0.11152177304029465 -0.006260431371629238 -0.007555825635790825 0 0 0 0
2274193472 0.22763574123382568 -0.1335432082414627 -0.006938798353075981 -0.006227011792361736 0 0 0 0
2277915556 0.2247638702392578 -0.15641002357006073 -0.007311880588531494 -0.0053686900064349174 0 0 0 0
2281637640 0.21669986844062805 -0.17767581343650818 -0.00751937460154295 -0.004646097309887409 0 0 0 0
2285359724 0.20983876287937164 -0.1955554336309433 -0.008301908150315285 -0.004073349758982658 0 0 0 0
2289081808 0.19492746889591217 -0.21450413763523102 -0.008755398914217949 -0.003431471064686775 0 0 0 0
2292803892 0.1839132159948349 -0.22817359864711761 -0.0094979302957654 -0.002430502325296402 0 0 0 0
2296525976 0.16595710813999176 -0.24029655754566193 -0.010172948241233826 -0.0012071216478943825 0 0 0 0
2300248060 0.1410023421049118 -0.25249460339546204 -0.0103239631280303 -5.2702613174915314e-05 0 0 0 0
2303970144 0.13052988052368164 -0.257185697555542 -0.010625835508108139 0.0011276649311184883 0 0 0 0
2307692228 0.1020214706659317 -0.25798094272613525 -0.01089369598776102 0.0024123210459947586 0 0 0 0
2311414312 0.07834998518228531 -0.25589418411254883 -0.01071335468441248 0.004327789880335331 0 0 0 0
2315136396 0.05929429084062576 -0.2499178647994995 -0.010208557359874249 0.006141801364719868 0 0 0 0
2318858480 0.0390942208468914 -0.2413572371006012 -0.009405176155269146 0.007650831714272499 0 0 0 0
2322580564 0.016602352261543274 -0.22780656814575195 -0.007906418293714523 0.009261024184525013 0 0 0 0
2326302648 0.005488216876983643 -0.21013286709785461 -0.006480998359620571 0.010113097727298737 0 0 0 0
2330024732 -0.008433941751718521 -0.19018152356147766 -0.004822121001780033 0.010534495115280151 0 0 0 0
2333746816 -0.018253326416015625 -0.16953766345977783 -0.0032301852479577065 0.01110844872891903 0 0 0 0
2337468900 -0.020799700170755386 -0.1473035365343094 -0.001981804147362709 0.011381265707314014 0 0 0 0
2341190984 -0.025517970323562622 -0.12167540192604065 -0.00021087005734443665 0.01140434481203556 0 0 0 0
2344913068 -0.019768375903367996 -0.09826347976922989 0.0016509434208273888 0.010930106975138187 0 0 0 0
2348635152 -0.013144169002771378 -0.07561931014060974 0.0032857153564691544 0.010010276921093464 0 0 0 0
2352357236 -0.0020597241818904877 -0.053959328681230545 0.004102079197764397 0.00866607017815113 0 0 0 0
2356079320 0.014797157607972622 -0.034080613404512405 0.0043524522334337234 0.007566120475530624 0 0 0 0
2359801404 0.03365441411733627 -0.018536265939474106 0.004789416678249836 0.006961585022509098 0 0 0 0
2363523488 0.05469401553273201 -0.006747466512024403 0.0054182009771466255 0.006746356375515461 0 0 0 0
2367245572 0.0772911012172699 0.0022044293582439423 0.006476740352809429 0.006353756412863731 0 0 0 0
2370967656 0.09982191026210785 0.0069233812391757965 0.0076937442645430565 0.004930142313241959 0 0 0 0
2374689740 0.12415997684001923 0.008014801889657974 0.00796509813517332 0.003205657936632633 0 0 0 0
2378411824 0.1478685438632965 0.005719766020774841 0.007823698222637177 0.0017014946788549423 0 0 0 0
2382133908 0.1711951494216919 -0.0005829483270645142 0.007203075103461742 0.0005957502871751785 0 0 0 0
2385855992 0.192748561501503 -0.01112392544746399 0.0068334247916936874 8.636713027954102e-05 0 0 0 0
2389578076 0.21189150214195251 -0.022924743592739105 0.006508316844701767 -0.0005454756319522858 0 0 0 0
2393300160 0.23080486059188843 -0.03757061809301376 0.00661066547036171 -0.0011731283739209175 0 0 0 0
2397022244 0.2472817301750183 -0.05620899051427841 0.006549281999468803 -0.0023406101390719414 0 0 0 0
2400744328 0.2594587504863739 -0.07858577370643616 0.00598917156457901 -0.0034878961741924286 0 0 0 0
2404466412 0.26955264806747437 -0.10198411345481873 0.005152110010385513 -0.004438462667167187 0 0 0 0
2408188496 0.2764226496219635 -0.12542396783828735 0.004140624776482582 -0.0050539132207632065 0 0 0 0
2411910580 0.27787527441978455 -0.15267176926136017 0.0032940199598670006 -0.005652000196278095 0 0 0 0
2415632664 0.27547556161880493 -0.1788860559463501 0.00217993650585413 -0.006039145402610302 0 0 0 0
2419354748 0.26903143525123596 -0.20311704277992249 0.0008425824344158173 -0.006433989852666855 0 0 0 0
2423076832 0.26245957612991333 -0.2265697568655014 -0.00031386129558086395 -0.006151084788143635 0 0 0 0
2426798916 0.24517452716827393 -0.2525641620159149 -0.0015856511890888214 -0.00695666391402483 0 0 0 0
2430521000 0.22549259662628174 -0.27034392952919006 -0.0021330611780285835 -0.005468534305691719 0 0 0 0
2434243084 0.21010704338550568 -0.2865767776966095 -0.003018253482878208 -0.004909525625407696 0 0 0 0
2437965168 0.1876920461654663 -0.29889142513275146 -0.00411650538444519 -0.004317312501370907 0 0 0 0
2441687252 0.1642344743013382 -0.31082913279533386 -0.0049551110714674 -0.0031370557844638824 0 0 0 0
2445409336 0.1377466320991516 -0.31882137060165405 -0.005346860736608505 -0.001504208892583847 0 0 0 0
2449131420 0.11033477634191513 -0.32186180353164673 -0.004872046411037445 0.00011741090565919876 0 0 0 0
2452853504 0.08500652760267258 -0.3220786452293396 -0.0038154330104589462 0.0010927701368927956 0 0 0 0
2456575588 0.060120999813079834 -0.31883224844932556 -0.002527941018342972 0.00142565555870533 0 0 0 0
2460297672 0.0328720360994339 -0.31139039993286133 -0.001703394576907158 0.0011211559176445007 0 0 0 0
2464019756 0.006703482940793037 -0.2996699810028076 -0.001353672705590725 0.000874093733727932 0 0 0 0
2467741840 -0.018570654094219208 -0.28491052985191345 -0.0011100135743618011 0.0008358312770724297 0 0 0 0
2471463924 -0.042166683822870255 -0.26696133613586426 -0.000826789066195488 0.0005021542310714722 0 0 0 0
2475186008 -0.061709389090538025 -0.24392187595367432 -0.0004976540803909302 0.00044672470539808273 0 0 0 0
2478908092 -0.07590963691473007 -0.21766041219234467 -3.898143768310547e-05 -0.00020920578390359879 0 0 0 0
2482630176 -0.09015387296676636 -0.18756772577762604 -4.643574357032776e-05 -0.0010056020691990852 0 0 0 0
2486352260 -0.09583764523267746 -0.15664070844650269 -0.0006472999230027199 -0.0015821689739823341 0 0 0 0
2490074344 -0.09795354306697845 -0.12430653721094131 -0.0010684886947274208 -0.0017182789742946625 0 0 0 0
2493796428 -0.09482525289058685 -0.09144584834575653 -0.0015297932550311089 -0.0017465678974986076 0 0 0 0
2497518512 -0.08674165606498718 -0.058625295758247375 -0.0016968520358204842 -0.001845044083893299 0 0 0 0
2501240596 -0.0717766210436821 -0.028663014993071556 -0.0020730458199977875 -0.0019942941144108772 0 0 0 0
2504962680 -0.052323296666145325 -0.0013623451814055443 -0.002605789341032505 -0.002379101701080799 0 0 0 0
2508684764 -0.028621168807148933 0.02250838652253151 -0.0035776644945144653 -0.002488919533789158 0 0 0 0
2512406848 -0.0017393296584486961 0.04177291691303253 -0.004673764109611511 -0.0019070710986852646 0 0 0 0
2516128932 0.027245601639151573 0.056367360055446625 -0.00527531374245882 -0.0009781382977962494 0 0 0 0
2519851016 0.057693228125572205 0.06761199235916138 -0.005726124159991741 1.5774741768836975e-05 0 0 0 0
2523573100 0.09184227883815765 0.0718187689781189 -0.005723859183490276 0.0013540107756853104 0 0 0 0
2527295184 0.1252429336309433 0.071955606341362 -0.005559931509196758 0.0022475533187389374 0 0 0 0
2531017268 0.15815366804599762 0.06462576240301132 -0.004984724335372448 0.0030417749658226967 0 0 0 0
2534739352 0.18928559124469757 0.051430195569992065 -0.004465208388864994 0.0036020390689373016 0 0 0 0
2538461436 0.21624183654785156 0.03309156000614166 -0.0036349426954984665 0.0040713464841246605 0 0 0 0
2542183520 0.2398979663848877 0.011606831103563309 -0.003168046474456787 0.004074242897331715 0 0 0 0
2545905604 0.2588176131248474 -0.012360695749521255 -0.0028522778302431107 0.004175957292318344 0 0 0 0
2549627688 0.27308762073516846 -0.03929503262042999 -0.0029311543330550194 0.004591742530465126 0 0 0 0
2553349772 0.28336969017982483 -0.06758289039134979 -0.0027082283049821854 0.005449184216558933 0 0 0 0
2557071856 0.2874962389469147 -0.09568430483341217 -0.001775922253727913 0.006198952905833721 0 0 0 0
2560793940 0.28920212388038635 -0.12136808037757874 -0.0008199634030461311 0.006769100204110146 0 0 0 0
2564516024 0.2833045721054077 -0.15247538685798645 0.0003910297527909279 0.0070085106417536736 0 0 0 0
2568238108 0.274865061044693 -0.1765618473291397 0.0016944091767072678 0.00702908169478178 0 0 0 0
2571960192 0.26552581787109375 -0.19683410227298737 0.0028403401374816895 0.006841088645160198 0 0 0 0
2575682276 0.24926523864269257 -0.21902288496494293 0.004043792374432087 0.006396036595106125 0 0 0 0
2579404360 0.23358048498630524 -0.23695997893810272 0.005493928678333759 0.005701250396668911 0 0 0 0
2583126444 0.2154119312763214 -0.2512778043746948 0.006631040014326572 0.004383311606943607 0 0 0 0
2586848528 0.19379739463329315 -0.2630385160446167 0.007436863146722317 0.003127317875623703 0 0 0 0
2590570612 0.17240194976329803 -0.2711227536201477 0.007599544711410999 0.0016942983493208885 0 0 0 0
2594292696 0.15158340334892273 -0.2760311961174011 0.007638229988515377 0.0006283903494477272 0 0 0 0
2598014780 0.12919169664382935 -0.2761613726615906 0.00793875940144062 -0.0004839496687054634 0 0 0 0
2601736864 0.1036333292722702 -0.27558836340904236 0.008162101730704308 -0.0019599879160523415 0 0 0 0
2605458948 0.0846695750951767 -0.2694244086742401 0.00821252353489399 -0.0035473210737109184 0 0 0 0
2609181032 0.06390999257564545 -0.260232150554657 0.007897918112576008 -0.005131850950419903 0 0 0 0
2612903116 0.04830409586429596 -0.2474859058856964 0.006784123368561268 -0.0068310340866446495 0 0 0 0
2616625200 0.0343918651342392 -0.23318929970264435 0.005487037822604179 -0.008025477640330791 0 0 0 0
2620347284 0.02126719430088997 -0.21803231537342072 0.004044937901198864 -0.008896677754819393 0 0 0 0
2624069368 0.012387372553348541 -0.2002202719449997 0.0024525411427021027 -0.009341176599264145 0 0 0 0
2627791452 0.007819414138793945 -0.18091116845607758 0.0012544579803943634 -0.009437823668122292 0 0 0 0
2631513536 0.007283463142812252 -0.1604900062084198 0.00017779599875211716 -0.00965847633779049 0 0 0 0
2635235620 0.007785342633724213 -0.14171017706394196 -0.0011601923033595085 -0.01008282508701086 0 0 0 0
2638957704 0.015724681317806244 -0.12560488283634186 -0.002288329415023327 -0.010768621228635311 0 0 0 0
2642679788 0.023027706891298294 -0.1098131313920021 -0.004313555546104908 -0.010929692536592484 0 0 0 0
2646401872 0.034842438995838165 -0.09802311658859253 -0.006659136153757572 -0.010797853581607342 0 0 0 0
2650123956 0.048054635524749756 -0.08845537900924683 -0.009026692248880863 -0.009927921928465366 0 0 0 0
2653846040 0.0605776309967041 -0.08144952356815338 -0.011222527362406254 -0.008146211504936218 0 0 0 0
2657568124 0.07558686286211014 -0.07716037333011627 -0.012811730615794659 -0.005708840675652027 0 0 0 0
2661290208 0.09167225658893585 -0.07624155282974243 -0.013728282414376736 -0.002883460372686386 0 0 0 0
2665012292 0.10872127115726471 -0.07858223468065262 -0.013644895516335964 -0.00029214005917310715 0 0 0 0
2668734376 0.12298769503831863 -0.08603201061487198 -0.013257751241326332 0.00167787354439497 0 0 0 0
2672456460 0.13552075624465942 -0.09500047564506531 -0.012887723743915558 0.003416871652007103 0 0 0 0
2676178544 0.14274094998836517 -0.10990185290575027 -0.012473540380597115 0.00564816128462553 0 0 0 0
2679900628 0.14829528331756592 -0.1227370947599411 -0.011464960873126984 0.00828862190246582 0 0 0 0
2683622712 0.15129736065864563 -0.13684342801570892 -0.00939253531396389 0.010570015758275986 0 0 0 0
2687344796 0.14999312162399292 -0.15191178023815155 -0.006584913469851017 0.011786114424467087 0 0 0 0
2691066880 0.14520730078220367 -0.16622516512870789 -0.003913255408406258 0.012385350652039051 0 0 0 0
2694788964 0.13764478266239166 -0.17808833718299866 -0.0017575444653630257 0.012244027107954025 0 0 0 0
2698511048 0.1283562183380127 -0.1890960931777954 0.00020816922187805176 0.011995619162917137 0 0 0 0
2702233132 0.11646421253681183 -0.19637078046798706 0.0020486554130911827 0.011598821729421616 0 0 0 0
2705955216 0.10398325324058533 -0.2022109031677246 0.003840954042971134 0.010966988280415535 0 0 0 0
2709677300 0.08872544765472412 -0.20676669478416443 0.005735729821026325 0.01024777814745903 0 0 0 0
2713399384 0.07483913749456406 -0.208154559135437 0.007876704446971416 0.009186966344714165 0 0 0 0
2717121468 0.05903233587741852 -0.20767387747764587 0.009745612740516663 0.007049241103231907 0 0 0 0
2720843552 0.04372792690992355 -0.20243366062641144 0.010534864850342274 0.004751130007207394 0 0 0 0
2724565636 0.029224425554275513 -0.19474349915981293 0.010826844722032547 0.002918408252298832 0 0 0 0
2728287720 0.016638774424791336 -0.18373097479343414 0.011179009452462196 0.0014702333137392998 0 0 0 0
2732009804 0.0020552650094032288 -0.16998893022537231 0.011601060628890991 -0.0007724789902567863 0 0 0 0
2735731888 -0.0034005269408226013 -0.15538057684898376 0.011869249865412712 -0.002994513139128685 0 0 0 0
2739453972 -0.009014882147312164 -0.14000992476940155 0.011323701590299606 -0.0056685954332351685 0 0 0 0
2743176056 -0.012193221598863602 -0.1235395073890686 0.009865489788353443 -0.008261384442448616 0 0 0 0
2746898140 -0.013994432985782623 -0.10663080960512161 0.007714932784438133 -0.010332911275327206 0 0 0 0
2750620224 -0.013163696974515915 -0.088401198387146 0.005439361557364464 -0.011524852365255356 0 0 0 0
2754342308 -0.008325787261128426 -0.06947053223848343 0.0031853150576353073 -0.012421433813869953 0 0 0 0
2758064392 7.026735693216324e-05 -0.05186008661985397 0.00040885433554649353 -0.012684778310358524 0 0 0 0
2761786476 0.01192050613462925 -0.03586491942405701 -0.0020641181617975235 -0.012390604242682457 0 0 0 0
2765508560 0.025667963549494743 -0.021725930273532867 -0.004529637284576893 -0.01145104318857193 0 0 0 0
2769230644 0.04175402969121933 -0.010786689817905426 -0.0064103612676262856 -0.010098818689584732 0 0 0 0
2772952728 0.05969051271677017 -0.002200821414589882 -0.00796459149569273 -0.008468633517622948 0 0 0 0
2776674812 0.07869996130466461 0.003685949370265007 -0.00910377036780119 -0.006778997369110584 0 0 0 0
2780396896 0.09737742692232132 0.007243925705552101 -0.010095682926476002 -0.00505759846419096 0 0 0 0
2784118980 0.11726053059101105 0.0070551978424191475 -0.010892054997384548 -0.0029822345823049545 0 0 0 0
2787841064 0.1371542364358902 0.006201520562171936 -0.011254382319748402 -0.0005462458357214928 0 0 0 0
2791563148 0.158119797706604 0.000662587583065033 -0.010836340487003326 0.0018709441646933556 0 0 0 0
2795285232 0.17799310386180878 -0.008698806166648865 -0.009532050229609013 0.004077606834471226 0 0 0 0
2799007316 0.19752272963523865 -0.01794537901878357 -0.008095107972621918 0.005472526885569096 0 0 0 0
2802729400 0.2132592350244522 -0.03686591237783432 -0.006466586142778397 0.006621162407100201 0 0 0 0
2806451484 0.22710761427879333 -0.05380723625421524 -0.004852571524679661 0.007383400574326515 0 0 0 0
2810173568 0.23925729095935822 -0.07117564976215363 -0.0031408732756972313 0.007961842231452465 0 0 0 0
2813895652 0.24744795262813568 -0.09522157162427902 -0.0012780670076608658 0.007969376631081104 0 0 0 0
2817617736 0.2528420686721802 -0.11653947085142136 0.00021620653569698334 0.007651980035007 0 0 0 0
2821339820 0.25359565019607544 -0.1397346556186676 0.0016994168981909752 0.007111947052180767 0 0 0 0
2825061904 0.2510392963886261 -0.1648448407649994 0.002781027927994728 0.006244310177862644 0 0 0 0
2828783988 0.24470864236354828 -0.18540579080581665 0.0036518285050988197 0.005429832264780998 0 0 0 0
2832506072 0.23755180835723877 -0.20612715184688568 0.004484787583351135 0.004438561387360096 0 0 0 0
2836228156 0.22493644058704376 -0.22611959278583527 0.004922562278807163 0.003542393445968628 0 0 0 0
2839950240 0.21195676922798157 -0.24377907812595367 0.005246796645224094 0.002570320852100849 0 0 0 0
2843672324 0.19813856482505798 -0.25831568241119385 0.005436387844383717 0.0017435140907764435 0 0 0 0
2847394408 0.182839035987854 -0.2725071907043457 0.005645068362355232 0.0009353887289762497 0 0 0 0
2851116492 0.16026663780212402 -0.2854180932044983 0.005833201110363007 4.298985004425049e-05 0 0 0 0
2854838576 0.1405036747455597 -0.29469576478004456 0.005878012627363205 -0.0008921744301915169 0 0 0 0
2858560660 0.12407464534044266 -0.301335871219635 0.006039253436028957 -0.002431829459965229 0 0 0 0
2862282744 0.09777730703353882 -0.30587565898895264 0.005349752493202686 -0.0036339126527309418 0 0 0 0
2866004828 0.08162512630224228 -0.3077008128166199 0.0047140708193182945 -0.004437954165041447 0 0 0 0
2869726912 0.05952542647719383 -0.3060404658317566 0.003853396512567997 -0.005141701549291611 0 0 0 0
2873448996 0.03844158351421356 -0.30345410108566284 0.002899724990129471 -0.005858797580003738 0 0 0 0
2877171080 0.01595475897192955 -0.29888081550598145 0.0016564195975661278 -0.006173592060804367 0 0 0 0
2880893164 -0.007394313812255859 -0.2919105887413025 0.00036881305277347565 -0.006218436174094677 0 0 0 0
2884615248 -0.027289949357509613 -0.2801244556903839 -0.0006752833724021912 -0.005738385953009129 0 0 0 0
2888337332 -0.047731272876262665 -0.26585304737091064 -0.001371178776025772 -0.005324723199009895 0 0 0 0
2892059416 -0.0673447772860527 -0.24841687083244324 -0.002124262973666191 -0.004854453727602959 0 0 0 0
2895781500 -0.07780200242996216 -0.2305435836315155 -0.002694755792617798 -0.004232894629240036 0 0 0 0
2899503584 -0.09137101471424103 -0.20910388231277466 -0.003242191858589649 -0.0035256734117865562 0 0 0 0
2903225668 -0.10183575749397278 -0.18677587807178497 -0.0034833569079637527 -0.002622092142701149 0 0 0 0
2906947752 -0.10975077748298645 -0.16212740540504456 -0.003600664436817169 -0.001695261336863041 0 0 0 0
2910669836 -0.1129026934504509 -0.1381039023399353 -0.003453318029642105 -0.000960739329457283 0 0 0 0
2914391920 -0.11345852166414261 -0.11328794062137604 -0.003160972148180008 -0.0003443686291575432 0 0 0 0
2918114004 -0.10973718762397766 -0.08889585733413696 -0.0026659276336431503 8.816923946142197e-05 0 0 0 0
2921836088 -0.10387888550758362 -0.06464508920907974 -0.0024745846167206764 0.0003100140020251274 0 0 0 0
2925558172 -0.09486638754606247 -0.04225306212902069 -0.0020860396325588226 0.0004978077486157417 0 0 0 0
2929280256 -0.08327935636043549 -0.02133028581738472 -0.0019571781158447266 0.0006528627127408981 0 0 0 0
2933002340 -0.06939604133367538 -0.0019848570227622986 -0.0019216006621718407 0.0007614493370056152 0 0 0 0
2936724424 -0.05297673121094704 0.016505995765328407 -0.0018839193508028984 0.0012379195541143417 0 0 0 0
2940446508 -0.03560340404510498 0.031757693737745285 -0.0019110972061753273 0.0017431927844882011 0 0 0 0
2944168592 -0.01496128086000681 0.04510185122489929 -0.0015216795727610588 0.00247016828507185 0 0 0 0
2947890676 0.006189384497702122 0.0559837780892849 -0.0005852654576301575 0.002963169477880001 0 0 0 0
2951612760 0.028064172714948654 0.06383708864450455 0.0004631737247109413 0.0031216610223054886 0 0 0 0
2955334844 0.05091047286987305 0.06951899081468582 0.0013779914006590843 0.002829885110259056 0 0 0 0
2959056928 0.07538609951734543 0.0726126953959465 0.0016897199675440788 0.0022018468007445335 0 0 0 0
2962779012 0.0998435989022255 0.07366304844617844 0.0020228251814842224 0.0018897810950875282 0 0 0 0
2966501096 0.12516072392463684 0.07064060866832733 0.0022924384102225304 0.0017009209841489792 0 0 0 0
2970223180 0.15024913847446442 0.06583097577095032 0.002832690253853798 0.001541459932923317 0 0 0 0
2973945264 0.17521056532859802 0.056171491742134094 0.0032123075798153877 0.0011538863182067871 0 0 0 0
2977667348 0.19929397106170654 0.039992764592170715 0.004021473228931427 0.0005733110010623932 0 0 0 0
2981389432 0.21956557035446167 0.023676566779613495 0.004470266401767731 -0.00022937171161174774 0 0 0 0
2985111516 0.23818902671337128 0.002539508044719696 0.004467158578336239 -0.001365000382065773 0 0 0 0
2988833600 0.25142836570739746 -0.022142749279737473 0.00393456406891346 -0.0025086048990488052 0 0 0 0
2992555684 0.262721449136734 -0.04393544793128967 0.0032589631155133247 -0.0033305231481790543 0 0 0 0
2996277768 0.26858407258987427 -0.06994479149580002 0.002355809323489666 -0.003890814259648323 0 0 0 0
2999999852 0.2734539210796356 -0.09371398389339447 0.0015587527304887772 -0.004022963345050812 0 0 0 0
