# HZ S RI R 50
1500000000 -0.019428418949246407 -0.04127424582839012 0.03774885833263397 -0.026266086846590042 0 0 0 0
1503722084 -0.008732283487915993 -0.03402616083621979 0.03213830292224884 -0.031797729432582855 0 0 0 0
1507444168 0.0037469910457730293 -0.026552539318799973 0.026040317490696907 -0.035192664712667465 0 0 0 0
1511166252 0.018416080623865128 -0.01908201538026333 0.020403431728482246 -0.03799799829721451 0 0 0 0
1514888336 0.035746026784181595 -0.012960448861122131 0.014720108360052109 -0.04091517999768257 0 0 0 0
1518610420 0.05559056997299194 -0.008765997365117073 0.0077945636585354805 -0.043520547449588776 0 0 0 0
1522332504 0.0760321319103241 -0.0073990002274513245 -0.0006483364850282669 -0.043824419379234314 0 0 0 0
1526054588 0.09856540709733963 -0.007367879152297974 -0.008618694730103016 -0.04167216271162033 0 0 0 0
1529776672 0.12267498672008514 -0.009725632146000862 -0.014947437681257725 -0.03821241855621338 0 0 0 0
1533498756 0.1490183025598526 -0.01707184500992298 -0.020438242703676224 -0.03396683186292648 0 0 0 0
1537220840 0.17685237526893616 -0.027649808675050735 -0.024427572265267372 -0.02928437665104866 0 0 0 0
1540942924 0.2054826319217682 -0.043324243277311325 -0.02737783081829548 -0.024396630004048347 0 0 0 0
1544665008 0.23209446668624878 -0.06748582422733307 -0.029906876385211945 -0.01939617097377777 0 0 0 0
1548387092 0.2533709704875946 -0.09645780920982361 -0.031826771795749664 -0.014010815881192684 0 0 0 0
1552109176 0.2710646390914917 -0.12825524806976318 -0.03241671249270439 -0.008193564601242542 0 0 0 0
1555831260 0.2845226526260376 -0.16448090970516205 -0.03186681494116783 -0.0030240649357438087 0 0 0 0
1559553344 0.29697591066360474 -0.20224037766456604 -0.03074703924357891 0.0014749979600310326 0 0 0 0
1563275428 0.29922738671302795 -0.24491816759109497 -0.02930302545428276 0.005918519571423531 0 0 0 0
1566997512 0.2918669283390045 -0.2891920208930969 -0.02698410302400589 0.010440429672598839 0 0 0 0
1570719596 0.28232312202453613 -0.3298274278640747 -0.02360648661851883 0.01380150392651558 0 0 0 0
1574441680 0.26524028182029724 -0.3716139793395996 -0.01980767957866192 0.016440140083432198 0 0 0 0
1578163764 0.2425832897424698 -0.41153663396835327 -0.015925545245409012 0.017687231302261353 0 0 0 0
1581885848 0.21321789920330048 -0.4500057101249695 -0.012586954049766064 0.018284011632204056 0 0 0 0
1585607932 0.17578963935375214 -0.48294001817703247 -0.00977890845388174 0.018295802175998688 0 0 0 0
1589330016 0.13069307804107666 -0.5117190480232239 -0.007320095784962177 0.018166759982705116 0 0 0 0
1593052100 0.081475168466568 -0.5335486531257629 -0.005137864500284195 0.017805607989430428 0 0 0 0
1596774184 0.03353212773799896 -0.5466777682304382 -0.0033928239718079567 0.017530817538499832 0 0 0 0
1600496268 -0.01808016747236252 -0.5529602766036987 -0.0018727872520685196 0.017343107610940933 0 0 0 0
1604218352 -0.07222127914428711 -0.5545865893363953 -0.00015948433429002762 0.017211614176630974 0 0 0 0
1607940436 -0.12886597216129303 -0.5468251705169678 0.0012607770040631294 0.017137471586465836 0 0 0 0
1611662520 -0.18495383858680725 -0.5318697094917297 0.0031350236386060715 0.017350278794765472 0 0 0 0
1615384604 -0.24276936054229736 -0.5051575303077698 0.005561346188187599 0.017405841499567032 0 0 0 0
1619106688 -0.29393985867500305 -0.47071540355682373 0.008268274366855621 0.01679743453860283 0 0 0 0
1622828772 -0.34065091609954834 -0.4296853840351105 0.010850153863430023 0.015773069113492966 0 0 0 0
1626550856 -0.38111576437950134 -0.38211795687675476 0.013391278684139252 0.014270982705056667 0 0 0 0
1630272940 -0.41526976227760315 -0.3245786428451538 0.015695862472057343 0.011900782585144043 0 0 0 0
1633995024 -0.4434325098991394 -0.26034998893737793 0.017586292698979378 0.009131403639912605 0 0 0 0
1637717108 -0.4614664912223816 -0.18957890570163727 0.018883131444454193 0.00600380077958107 0 0 0 0
1641439192 -0.46776244044303894 -0.11909006536006927 0.019855987280607224 0.0027989568188786507 0 0 0 0
1645161276 -0.46212852001190186 -0.04422822594642639 0.0198504738509655 -0.001151852309703827 0 0 0 0
1648883360 -0.44566214084625244 0.0306779146194458 0.01879774034023285 -0.004790660925209522 0 0 0 0
1652605444 -0.4157281816005707 0.10584728419780731 0.017080873250961304 -0.0075340261682868 0 0 0 0
1656327528 -0.37374210357666016 0.17383615672588348 0.015062056481838226 -0.009662755765020847 0 0 0 0
1660049612 -0.3196798264980316 0.2343827188014984 0.013340662233531475 -0.011315412819385529 0 0 0 0
1663771696 -0.2541112005710602 0.28698331117630005 0.01155340950936079 -0.013120409101247787 0 0 0 0
1667493780 -0.1837289035320282 0.32747113704681396 0.009428064338862896 -0.015072643756866455 0 0 0 0
1671215864 -0.10293954610824585 0.3580823242664337 0.006427576765418053 -0.01640745997428894 0 0 0 0
1674937948 -0.022354774177074432 0.37328872084617615 0.003174087032675743 -0.0170865710824728 0 0 0 0
1678660032 0.06501883268356323 0.37631475925445557 -0.00024040136486291885 -0.01672036573290825 0 0 0 0
1682382116 0.14875178039073944 0.36427709460258484 -0.003087306395173073 -0.01535777747631073 0 0 0 0
1686104200 0.23060980439186096 0.3400042653083801 -0.005114124156534672 -0.013976676389575005 0 0 0 0
1689826284 0.30597150325775146 0.30185893177986145 -0.006920585408806801 -0.012436971068382263 0 0 0 0
1693548368 0.37464940547943115 0.25241565704345703 -0.008501149713993073 -0.01061664242297411 0 0 0 0
1697270452 0.433697909116745 0.19387465715408325 -0.009540887549519539 -0.008327106013894081 0 0 0 0
1700992536 0.4829121232032776 0.13020603358745575 -0.009718691930174828 -0.006243242882192135 0 0 0 0
1704714620 0.5213996767997742 0.05429701507091522 -0.009448925033211708 -0.004554003477096558 0 0 0 0
1708436704 0.5475752949714661 -0.023807428777217865 -0.00897204875946045 -0.003391292877495289 0 0 0 0
1712158788 0.5613054037094116 -0.10099193453788757 -0.008674344047904015 -0.002588113769888878 0 0 0 0
1715880872 0.5618537068367004 -0.1793370395898819 -0.00868571363389492 -0.0020104777067899704 0 0 0 0
1719602956 0.5505356788635254 -0.26114940643310547 -0.008767439052462578 -0.0010451087728142738 0 0 0 0
1723325040 0.5266655683517456 -0.33479851484298706 -0.008517418056726456 -3.4411437809467316e-05 0 0 0 0
1727047124 0.4945657253265381 -0.4034642279148102 -0.008120473474264145 0.0007007783278822899 0 0 0 0
1730769208 0.45101791620254517 -0.4672197699546814 -0.007836887612938881 0.0011828066781163216 0 0 0 0
1734491292 0.40019965171813965 -0.5247279405593872 -0.007661530748009682 0.0019529853016138077 0 0 0 0
1738213376 0.34033945202827454 -0.5713081955909729 -0.007231490686535835 0.00255428534001112 0 0 0 0
1741935460 0.2754851281642914 -0.6084644198417664 -0.0068015726283192635 0.003009212203323841 0 0 0 0
1745657544 0.20597846806049347 -0.6357457637786865 -0.00648791529238224 0.003499826416373253 0 0 0 0
1749379628 0.1332058310508728 -0.6501306891441345 -0.006178990937769413 0.003933536820113659 0 0 0 0
1753101712 0.06314615905284882 -0.6544162631034851 -0.005861377343535423 0.004060939885675907 0 0 0 0
1756823796 -0.008028417825698853 -0.6474432945251465 -0.005767244845628738 0.004137872718274593 0 0 0 0
1760545880 -0.07906892895698547 -0.6293236017227173 -0.0061283959075808525 0.004436975345015526 0 0 0 0
1764267964 -0.141354501247406 -0.6007601022720337 -0.0067825112491846085 0.005021099001169205 0 0 0 0
1767990048 -0.1987316906452179 -0.5669640302658081 -0.007411576807498932 0.006477233022451401 0 0 0 0
1771712132 -0.25327038764953613 -0.5194848775863647 -0.007341506890952587 0.008382358588278294 0 0 0 0
1775434216 -0.2941529154777527 -0.47020846605300903 -0.006872870028018951 0.010421831160783768 0 0 0 0
1779156300 -0.32764071226119995 -0.4135341942310333 -0.005577576346695423 0.01265554130077362 0 0 0 0
1782878384 -0.35253021121025085 -0.3572075068950653 -0.003580772317945957 0.014659455977380276 0 0 0 0
1786600468 -0.36994409561157227 -0.2963253855705261 -0.0009525725618004799 0.01584777608513832 0 0 0 0
1790322552 -0.38048774003982544 -0.23075604438781738 0.0018718913197517395 0.01654399000108242 0 0 0 0
1794044636 -0.37856805324554443 -0.16967949271202087 0.004536591470241547 0.016651911661028862 0 0 0 0
1797766720 -0.3680151700973511 -0.10761541873216629 0.007323316298425198 0.01669968105852604 0 0 0 0
1801488804 -0.3479071259498596 -0.04974997788667679 0.01027884241193533 0.016621239483356476 0 0 0 0
1805210888 -0.3209666907787323 0.004053592681884766 0.013728042133152485 0.01578606851398945 0 0 0 0
1808932972 -0.28732168674468994 0.051773153245449066 0.01734272390604019 0.01441379263997078 0 0 0 0
1812655056 -0.24631692469120026 0.09709884971380234 0.020879380404949188 0.011461088433861732 0 0 0 0
1816377140 -0.1986549198627472 0.13505955040454865 0.024010278284549713 0.008062964305281639 0 0 0 0
1820099224 -0.1456073373556137 0.16455553472042084 0.0265284962952137 0.0036732275038957596 0 0 0 0
1823821308 -0.08646105229854584 0.18484190106391907 0.027879687026143074 -0.0015700217336416245 0 0 0 0
1827543392 -0.027104364708065987 0.193471297621727 0.028111930936574936 -0.006934688426554203 0 0 0 0
1831265476 0.03230912983417511 0.1915532946586609 0.02753894403576851 -0.012607375159859657 0 0 0 0
1834987560 0.08839781582355499 0.18032978475093842 0.026150617748498917 -0.01883067563176155 0 0 0 0
1838709644 0.13979817926883698 0.16069281101226807 0.02225342206656933 -0.0253521166741848 0 0 0 0
1842431728 0.1873214989900589 0.13466306030750275 0.016321128234267235 -0.030262410640716553 0 0 0 0
1846153812 0.22949545085430145 0.10169747471809387 0.009148303419351578 -0.03269559144973755 0 0 0 0
1849875896 0.26511600613594055 0.062113597989082336 0.0026080263778567314 -0.033424749970436096 0 0 0 0
1853597980 0.29206398129463196 0.017583012580871582 -0.0034896712750196457 -0.03289921209216118 0 0 0 0
1857320064 0.30985918641090393 -0.029664620757102966 -0.009199639782309532 -0.03170837461948395 0 0 0 0
1861042148 0.3195861577987671 -0.07551699876785278 -0.014725413173437119 -0.029614396393299103 0 0 0 0
1864764232 0.32177338004112244 -0.12239006161689758 -0.019929157570004463 -0.026439838111400604 0 0 0 0
1868486316 0.3154398798942566 -0.16719704866409302 -0.023962020874023438 -0.022865064442157745 0 0 0 0
1872208400 0.3027540445327759 -0.20898914337158203 -0.027903452515602112 -0.018953291699290276 0 0 0 0
1875930484 0.28393760323524475 -0.24753206968307495 -0.031345024704933167 -0.015871809795498848 0 0 0 0
1879652568 0.2586674094200134 -0.28239092230796814 -0.03462233766913414 -0.009434419684112072 0 0 0 0
1883374652 0.22856257855892181 -0.3097645044326782 -0.0359925739467144 -0.002493920736014843 0 0 0 0
1887096736 0.19574232399463654 -0.3300897479057312 -0.0355168953537941 0.004786340519785881 0 0 0 0
1890818820 0.16314992308616638 -0.34410542249679565 -0.033195674419403076 0.010723209008574486 0 0 0 0
1894540904 0.12535248696804047 -0.3531602621078491 -0.0303440410643816 0.01584405079483986 0 0 0 0
1898262988 0.09349721670150757 -0.3542303442955017 -0.027302095666527748 0.019876345992088318 0 0 0 0
1901985072 0.05825065076351166 -0.3507005572319031 -0.024022528901696205 0.023829590529203415 0 0 0 0
1905707156 0.027586691081523895 -0.34195101261138916 -0.02038639783859253 0.027411097660660744 0 0 0 0
1909429240 -0.0007468536496162415 -0.3278668224811554 -0.015878120437264442 0.031158041208982468 0 0 0 0
1913151324 -0.028062254190444946 -0.3095574975013733 -0.010365745984017849 0.03413348272442818 0 0 0 0
1916873408 -0.051141731441020966 -0.2876359224319458 -0.0039464328438043594 0.035966116935014725 0 0 0 0
1920595492 -0.06778185814619064 -0.26295948028564453 0.0020558973774313927 0.0367463156580925 0 0 0 0
1924317576 -0.08024561405181885 -0.23530326783657074 0.00864447932690382 0.036596544086933136 0 0 0 0
1928039660 -0.08834467828273773 -0.20773279666900635 0.016342634335160255 0.035119086503982544 0 0 0 0
1931761744 -0.09160986542701721 -0.1780128926038742 0.023753754794597626 0.03165018931031227 0 0 0 0
1935483828 -0.08894951641559601 -0.1473488211631775 0.029793454334139824 0.025599360466003418 0 0 0 0
1939205912 -0.08152569085359573 -0.11768804490566254 0.03391830995678902 0.017899319529533386 0 0 0 0
1942927996 -0.06743276119232178 -0.09048168361186981 0.03532769903540611 0.010807938873767853 0 0 0 0
1946650080 -0.048095159232616425 -0.06673102080821991 0.03548247367143631 0.004193637520074844 0 0 0 0
1950372164 -0.025821369141340256 -0.047483623027801514 0.035168834030628204 -0.0016913292929530144 0 0 0 0
1954094248 0.00013159122318029404 -0.0325528159737587 0.03400929644703865 -0.007926913909614086 0 0 0 0
1957816332 0.02853972092270851 -0.023310042917728424 0.031453102827072144 -0.013736267574131489 0 0 0 0
1961538416 0.05832045525312424 -0.020235542207956314 0.02812022902071476 -0.018873099237680435 0 0 0 0
1965260500 0.08701706677675247 -0.02342120371758938 0.02393331751227379 -0.023200049996376038 0 0 0 0
1968982584 0.114126056432724 -0.03306654095649719 0.01940612494945526 -0.026575664058327675 0 0 0 0
1972704668 0.13778455555438995 -0.04639855772256851 0.014706110581755638 -0.02952081710100174 0 0 0 0
1976426752 0.15761969983577728 -0.06284880638122559 0.00933947041630745 -0.031493887305259705 0 0 0 0
1980148836 0.1745229810476303 -0.08295709639787674 0.0036968225613236427 -0.03277509659528732 0 0 0 0
1983870920 0.18793421983718872 -0.10437680035829544 -0.0030897827818989754 -0.03305257484316826 0 0 0 0
1987593004 0.19684650003910065 -0.1282004863023758 -0.009252919815480709 -0.031383216381073 0 0 0 0
1991315088 0.20169922709465027 -0.15421995520591736 -0.014578325673937798 -0.0284142903983593 0 0 0 0
1995037172 0.20133407413959503 -0.18045452237129211 -0.01897745579481125 -0.024977562949061394 0 0 0 0
1998759256 0.19390591979026794 -0.20505762100219727 -0.022516751661896706 -0.021146388724446297 0 0 0 0
2002481340 0.18366217613220215 -0.2280730903148651 -0.025659143924713135 -0.016610831022262573 0 0 0 0
2006203424 0.1712014079093933 -0.24750977754592896 -0.027440223842859268 -0.012276878580451012 0 0 0 0
2009925508 0.152238130569458 -0.26550835371017456 -0.028482791036367416 -0.007753308862447739 0 0 0 0
2013647592 0.13370323181152344 -0.27858975529670715 -0.029526732861995697 -0.0034794118255376816 0 0 0 0
2017369676 0.1110040694475174 -0.28902122378349304 -0.030207207426428795 0.0011369874700903893 0 0 0 0
2021091760 0.08889289200305939 -0.2957281172275543 -0.03003762848675251 0.006184316240251064 0 0 0 0
2024813844 0.06423672288656235 -0.297946035861969 -0.028938276693224907 0.011484411545097828 0 0 0 0
2028535928 0.03980521112680435 -0.2975844144821167 -0.02694072388112545 0.016472041606903076 0 0 0 0
2032258012 0.015031978487968445 -0.2919897735118866 -0.023529306054115295 0.021701330319046974 0 0 0 0
2035980096 -0.009104043245315552 -0.28256240487098694 -0.01897636242210865 0.025838753208518028 0 0 0 0
2039702180 -0.02988349087536335 -0.26793569326400757 -0.013636313378810883 0.028937628492712975 0 0 0 0
2043424264 -0.049339018762111664 -0.2505851984024048 -0.008074503391981125 0.030265793204307556 0 0 0 0
2047146348 -0.06633459031581879 -0.22898657619953156 -0.0027457252144813538 0.030402468517422676 0 0 0 0
2050868432 -0.07734052836894989 -0.2062944769859314 0.002313101664185524 0.0301740113645792 0 0 0 0
2054590516 -0.08626551181077957 -0.18108324706554413 0.007134132087230682 0.028861965984106064 0 0 0 0
2058312600 -0.08992499113082886 -0.1557815968990326 0.01209644041955471 0.02751297317445278 0 0 0 0
2062034684 -0.09178966283798218 -0.12945938110351562 0.0166894793510437 0.025177937000989914 0 0 0 0
2065756768 -0.0899534523487091 -0.10154566168785095 0.02115868590772152 0.02173015847802162 0 0 0 0
2069478852 -0.08287619054317474 -0.07353494316339493 0.025022534653544426 0.017192527651786804 0 0 0 0
2073200936 -0.06982416659593582 -0.04652378335595131 0.02741868980228901 0.012264303863048553 0 0 0 0
2076923020 -0.05387255921959877 -0.022699283435940742 0.02919170632958412 0.006555277854204178 0 0 0 0
2080645104 -0.03323087841272354 -0.0008756108582019806 0.029250141233205795 0.0007036319002509117 0 0 0 0
2084367188 -0.008731400594115257 0.017891785129904747 0.028008345514535904 -0.004996590316295624 0 0 0 0
2088089272 0.01864994503557682 0.03241670876741409 0.025330234318971634 -0.00987748708575964 0 0 0 0
2091811356 0.04849492385983467 0.04113045707345009 0.021892786026000977 -0.01362629421055317 0 0 0 0
2095533440 0.07940319180488586 0.04498613253235817 0.01830703392624855 -0.015663037076592445 0 0 0 0
2099255524 0.1091809868812561 0.04286721721291542 0.015105030499398708 -0.01680799573659897 0 0 0 0
2102977608 0.1380041241645813 0.03748404234647751 0.012987028807401657 -0.017506614327430725 0 0 0 0
2106699692 0.16515366733074188 0.0282977856695652 0.011740429326891899 -0.01917806640267372 0 0 0 0
2110421776 0.19218268990516663 0.016627304255962372 0.009874183684587479 -0.021635426208376884 0 0 0 0
2114143860 0.21673086285591125 -0.0034051015973091125 0.0057954732328653336 -0.024609539657831192 0 0 0 0
2117865944 0.23878929018974304 -0.024946246296167374 0.0012200577184557915 -0.026058204472064972 0 0 0 0
2121588028 0.25544819235801697 -0.0482700914144516 -0.004202096723020077 -0.026023391634225845 0 0 0 0
2125310112 0.2683211863040924 -0.07431276887655258 -0.009090233594179153 -0.024946941062808037 0 0 0 0
2129032196 0.27606919407844543 -0.1035889983177185 -0.013742388226091862 -0.02288045547902584 0 0 0 0
2132754280 0.2803267240524292 -0.13176681101322174 -0.018411044031381607 -0.019914472475647926 0 0 0 0
2136476364 0.27930474281311035 -0.161868155002594 -0.022144805639982224 -0.015746451914310455 0 0 0 0
2140198448 0.2766299545764923 -0.18878419697284698 -0.02438274957239628 -0.010519766248762608 0 0 0 0
2143920532 0.2683597207069397 -0.21545061469078064 -0.02501537650823593 -0.005341134034097195 0 0 0 0
2147642616 0.2551804184913635 -0.24231472611427307 -0.024676240980625153 -0.0011079628020524979 0 0 0 0
2151364700 0.23766109347343445 -0.2650774121284485 -0.023958399891853333 0.002752813510596752 0 0 0 0
2155086784 0.21640457212924957 -0.284030944108963 -0.023062344640493393 0.006619633175432682 0 0 0 0
2158808868 0.19019567966461182 -0.2996870279312134 -0.02129894495010376 0.01028793677687645 0 0 0 0
2162530952 0.16850847005844116 -0.30969658493995667 -0.019178062677383423 0.013526856899261475 0 0 0 0
2166253036 0.1453171968460083 -0.3156634271144867 -0.01687697507441044 0.016371076926589012 0 0 0 0
2169975120 0.11648479849100113 -0.3211476802825928 -0.013442259281873703 0.019114309921860695 0 0 0 0
2173697204 0.09169720113277435 -0.3204272985458374 -0.009698682464659214 0.020789168775081635 0 0 0 0
2177419288 0.06402763724327087 -0.318318247795105 -0.005872848443686962 0.021510470658540726 0 0 0 0
2181141372 0.03746218979358673 -0.3106902241706848 -0.0022564539685845375 0.021712705492973328 0 0 0 0
2184863456 0.013431396335363388 -0.2988884449005127 0.0009257122874259949 0.021389994770288467 0 0 0 0
2188585540 -0.008736297488212585 -0.28275924921035767 0.004416782408952713 0.020754622295498848 0 0 0 0
2192307624 -0.029253505170345306 -0.26224789023399353 0.007754807360470295 0.019418105483055115 0 0 0 0
2196029708 -0.044522449374198914 -0.2385481745004654 0.01066491287201643 0.017385166138410568 0 0 0 0
2199751792 -0.055580124258995056 -0.2134029120206833 0.012706616893410683 0.015238999389111996 0 0 0 0
2203473876 -0.06276063621044159 -0.1853451281785965 0.014862210489809513 0.01276542991399765 0 0 0 0
2207195960 -0.06321880221366882 -0.15998241305351257 0.016453465446829796 0.010148224420845509 0 0 0 0
2210918044 -0.05777972936630249 -0.1365181803703308 0.017402470111846924 0.007402305491268635 0 0 0 0
2214640128 -0.05597547069191933 -0.11052099615335464 0.017870401963591576 0.003851979970932007 0 0 0 0
2218362212 -0.04642753303050995 -0.08835634589195251 0.01769431307911873 0.0009965160861611366 0 0 0 0
2222084296 -0.035065874457359314 -0.06632465124130249 0.01721084490418434 -0.0018589748069643974 0 0 0 0
2225806380 -0.02199128270149231 -0.044029779732227325 0.016522375866770744 -0.004004453308880329 0 0 0 0
2229528464 -0.0019713472574949265 -0.024506961926817894 0.015428513288497925 -0.006619195453822613 0 0 0 0
2233250548 0.021778322756290436 -0.008350098505616188 0.014317689463496208 -0.008695903234183788 0 0 0 0
2236972632 0.047886136919260025 0.0017416086047887802 0.012598492205142975 -0.011034863069653511 0 0 0 0
2240694716 0.07539083808660507 0.008108595386147499 0.010777725838124752 -0.012877621687948704 0 0 0 0
2244416800 0.10315372794866562 0.007659683935344219 0.008359715342521667 -0.014297809451818466 0 0 0 0
2248138884 0.1313636600971222 0.0028569847345352173 0.006076199933886528 -0.015645707026124 0 0 0 0
2251860968 0.1584705412387848 -0.010413065552711487 0.0017189551144838333 -0.016487538814544678 0 0 0 0
2255583052 0.1809859424829483 -0.02480863220989704 -0.001486917957663536 -0.016369419172406197 0 0 0 0
2259305136 0.20015163719654083 -0.04681045562028885 -0.004345964640378952 -0.015133390203118324 0 0 0 0
2263027220 0.21360421180725098 -0.06911620497703552 -0.006255768239498138 -0.01337738148868084 0 0 0 0
2266749304 0.22235606610774994 -0.09044566005468369 -0.0076310113072395325 -0.011731939390301704 0 0 0 0
2270471388 0.22490784525871277 -0.11679798364639282 -0.00878153182566166 -0.010147742927074432 0 0 0 0
2274193472 0.22940926253795624 -0.13154266774654388 -0.00949955079704523 -0.008900875225663185 0 0 0 0
2277915556 0.2233102023601532 -0.15590687096118927 -0.010049199685454369 -0.007465477101504803 0 0 0 0
2281637640 0.21327157318592072 -0.17982813715934753 -0.010538614355027676 -0.0065977368503808975 0 0 0 0
2285359724 0.21143190562725067 -0.18971149623394012 -0.011324947699904442 -0.005646527744829655 0 0 0 0
2289081808 0.19205915927886963 -0.21408888697624207 -0.01226022094488144 -0.004449738189578056 0 0 0 0
2292803892 0.17727026343345642 -0.22935856878757477 -0.013005784712731838 -0.003016349859535694 0 0 0 0
2296525976 0.16583801805973053 -0.23721733689308167 -0.013593745417892933 -0.0016271481290459633 0 0 0 0
2300248060 0.14409267902374268 -0.24827302992343903 -0.0142408087849617 3.957655280828476e-05 0 0 0 0
2303970144 0.12385477125644684 -0.2571137845516205 -0.014563722535967827 0.002139267511665821 0 0 0 0
2307692228 0.10578138381242752 -0.2550505995750427 -0.014726711437106133 0.004196925088763237 0 0 0 0
2311414312 0.08008023351430893 -0.2538739740848541 -0.014163285493850708 0.006735518574714661 0 0 0 0
2315136396 0.06055441126227379 -0.24855057895183563 -0.013033533468842506 0.009174920618534088 0 0 0 0
2318858480 0.04592044651508331 -0.24014577269554138 -0.01164975855499506 0.011004147119820118 0 0 0 0
2322580564 0.02389410510659218 -0.2265975922346115 -0.009638813324272633 0.01270319428294897 0 0 0 0
2326302648 0.008049346506595612 -0.2108476758003235 -0.007302654907107353 0.014040125533938408 0 0 0 0
2330024732 -0.003246620297431946 -0.1923869103193283 -0.005003961734473705 0.014644457027316093 0 0 0 0
2333746816 -0.01515989750623703 -0.17185790836811066 -0.0028443634510040283 0.014698582701385021 0 0 0 0
2337468900 -0.019196461886167526 -0.14952321350574493 -0.00048096850514411926 0.014474889263510704 0 0 0 0
2341190984 -0.0211835615336895 -0.1262475997209549 0.001268310472369194 0.013918265700340271 0 0 0 0
2344913068 -0.01917145773768425 -0.10311730206012726 0.0028997715562582016 0.013219335116446018 0 0 0 0
2348635152 -0.01393965631723404 -0.08019399642944336 0.004556042142212391 0.012341929599642754 0 0 0 0
2352357236 -0.003564329817891121 -0.05847620964050293 0.006027465686202049 0.011563284322619438 0 0 0 0
2356079320 0.010923939757049084 -0.03792734071612358 0.007365630939602852 0.010207480750977993 0 0 0 0
2359801404 0.029171999543905258 -0.02089880220592022 0.008643731474876404 0.008696858771145344 0 0 0 0
2363523488 0.049940116703510284 -0.007086862809956074 0.009565209969878197 0.007403658702969551 0 0 0 0
2367245572 0.0728960707783699 0.003051362931728363 0.010366959497332573 0.005992351099848747 0 0 0 0
2370967656 0.09666012972593307 0.009093327447772026 0.011144943535327911 0.003981764428317547 0 0 0 0
2374689740 0.1214706152677536 0.009980034083127975 0.011326899752020836 0.001612999476492405 0 0 0 0
2378411824 0.1460755467414856 0.00790158286690712 0.01080269180238247 -0.0004011504352092743 0 0 0 0
2382133908 0.17015860974788666 0.0014084503054618835 0.009860413148999214 -0.0021846219897270203 0 0 0 0
2385855992 0.19208072125911713 -0.00805935263633728 0.00875063519924879 -0.0035629598423838615 0 0 0 0
2389578076 0.2129477858543396 -0.020083453506231308 0.007533947937190533 -0.004309110343456268 0 0 0 0
2393300160 0.23175735771656036 -0.03595156595110893 0.0064392173662781715 -0.004946548491716385 0 0 0 0
2397022244 0.24884921312332153 -0.053868502378463745 0.005491882562637329 -0.005468741059303284 0 0 0 0
2400744328 0.2621082365512848 -0.078679159283638 0.004574582912027836 -0.006081979721784592 0 0 0 0
2404466412 0.2725200951099396 -0.09925010800361633 0.0035366201773285866 -0.006355139426887035 0 0 0 0
2408188496 0.277744323015213 -0.1271284520626068 0.0026015015318989754 -0.0066814906895160675 0 0 0 0
2411910580 0.28086838126182556 -0.15173447132110596 0.0015371441841125488 -0.00699800718575716 0 0 0 0
2415632664 0.2797423303127289 -0.17732727527618408 0.00043355394154787064 -0.0071686189621686935 0 0 0 0
2419354748 0.2734065055847168 -0.20360688865184784 -0.0007256418466567993 -0.007040387950837612 0 0 0 0
2423076832 0.2603713870048523 -0.23108860850334167 -0.001980150118470192 -0.006699291057884693 0 0 0 0
2426798916 0.24659337103366852 -0.2535138726234436 -0.003049197606742382 -0.006150808185338974 0 0 0 0
2430521000 0.22732247412204742 -0.27367058396339417 -0.003978371620178223 -0.005504353903234005 0 0 0 0
2434243084 0.20624253153800964 -0.2915756404399872 -0.004816664382815361 -0.0046785688027739525 0 0 0 0
2437965168 0.18504305183887482 -0.3026825189590454 -0.005556168034672737 -0.0035406751558184624 0 0 0 0
2441687252 0.1612963080406189 -0.31286025047302246 -0.005883838981389999 -0.0025300616398453712 0 0 0 0
2445409336 0.1344987004995346 -0.3201857805252075 -0.006309938617050648 -0.0011337539181113243 0 0 0 0
2449131420 0.11082473397254944 -0.3218965232372284 -0.005953333340585232 0.00010359659790992737 0 0 0 0
2452853504 0.08097423613071442 -0.32349464297294617 -0.005449284799396992 0.00144136231392622 0 0 0 0
2456575588 0.057416029274463654 -0.31815120577812195 -0.004381246864795685 0.0019105495885014534 0 0 0 0
2460297672 0.03151184320449829 -0.30945512652397156 -0.003653879277408123 0.00224167387932539 0 0 0 0
2464019756 0.0059118568897247314 -0.29957354068756104 -0.0031804461032152176 0.002328229136765003 0 0 0 0
2467741840 -0.020898379385471344 -0.28439438343048096 -0.0026894286274909973 0.002834126353263855 0 0 0 0
2471463924 -0.042569465935230255 -0.26602476835250854 -0.00205084215849638 0.003039914183318615 0 0 0 0
2475186008 -0.06428054720163345 -0.24245376884937286 -0.0010583838447928429 0.003002588637173176 0 0 0 0
2478908092 -0.07923635840415955 -0.21505379676818848 -0.00017220620065927505 0.0026322798803448677 0 0 0 0
2482630176 -0.09200390428304672 -0.18396301567554474 0.00030491407960653305 0.002111920155584812 0 0 0 0
2486352260 -0.09834703803062439 -0.152338907122612 0.0005471538752317429 0.0016395775601267815 0 0 0 0
2490074344 -0.09912554174661636 -0.1200350672006607 0.0008066846057772636 0.0011394619941711426 0 0 0 0
2493796428 -0.0940018966794014 -0.08816501498222351 0.0011883974075317383 0.0003193998709321022 0 0 0 0
2497518512 -0.08552852272987366 -0.0554090291261673 0.0010840296745300293 -0.000466727651655674 0 0 0 0
2501240596 -0.06961224228143692 -0.026949964463710785 0.0007014870643615723 -0.0010880660265684128 0 0 0 0
2504962680 -0.05045989900827408 0.000106077641248703 0.00046720076352357864 -0.0016711615025997162 0 0 0 0
2508684764 -0.026835734024643898 0.023308569565415382 -0.00010974612087011337 -0.002546803094446659 0 0 0 0
2512406848 -0.00015597883611917496 0.042449019849300385 -0.0011504106223583221 -0.0029452983289957047 0 0 0 0
2516128932 0.029039954766631126 0.056782130151987076 -0.0024235397577285767 -0.0029510250315070152 0 0 0 0
2519851016 0.06010675057768822 0.06756201386451721 -0.00377066433429718 -0.0025445809587836266 0 0 0 0
2523573100 0.09291491657495499 0.07238483428955078 -0.004386733286082745 -0.0012544430792331696 0 0 0 0
2527295184 0.12738129496574402 0.0705396831035614 -0.004690671339631081 -0.000242527574300766 0 0 0 0
2531017268 0.1602173149585724 0.0642111599445343 -0.00439604464918375 0.00043915584683418274 0 0 0 0
2534739352 0.1905888319015503 0.05157633125782013 -0.004303286783397198 0.0009590443223714828 0 0 0 0
2538461436 0.21898981928825378 0.032793525606393814 -0.004255174659192562 0.0013231560587882996 0 0 0 0
2542183520 0.24137911200523376 0.010366186499595642 -0.004457107745110989 0.001997360959649086 0 0 0 0
2545905604 0.2607537806034088 -0.015167802572250366 -0.004502392373979092 0.002866338938474655 0 0 0 0
2549627688 0.27288031578063965 -0.04189528524875641 -0.0043724896386265755 0.0038347728550434113 0 0 0 0
2553349772 0.2833861708641052 -0.06868964433670044 -0.0037730662152171135 0.005018333904445171 0 0 0 0
2557071856 0.28734850883483887 -0.09593126177787781 -0.0028086062520742416 0.005849091336131096 0 0 0 0
2560793940 0.28863945603370667 -0.12334596365690231 -0.0016834810376167297 0.006051127798855305 0 0 0 0
2564516024 0.28468215465545654 -0.15067075192928314 -0.0009212708100676537 0.006403861567378044 0 0 0 0
2568238108 0.27608054876327515 -0.17589786648750305 -1.658499240875244e-05 0.006678548641502857 0 0 0 0
2571960192 0.26252835988998413 -0.20025530457496643 0.001270129345357418 0.0068384213373064995 0 0 0 0
2575682276 0.24955812096595764 -0.22235816717147827 0.0025851139798760414 0.006670702248811722 0 0 0 0
2579404360 0.2350778579711914 -0.23786422610282898 0.003786057233810425 0.006183740682899952 0 0 0 0
2583126444 0.2159515619277954 -0.2524944543838501 0.005100426264107227 0.005385023541748524 0 0 0 0
2586848528 0.1938813328742981 -0.26531046628952026 0.006253916770219803 0.004181722179055214 0 0 0 0
2590570612 0.17072223126888275 -0.27436286211013794 0.007091611623764038 0.0028941649943590164 0 0 0 0
2594292696 0.14697128534317017 -0.2792668044567108 0.007519083097577095 0.001407163217663765 0 0 0 0
2598014780 0.1248159110546112 -0.2789478898048401 0.008054450154304504 1.134723424911499e-05 0 0 0 0
2601736864 0.10183089226484299 -0.2757750451564789 0.008235414512455463 -0.0017321575433015823 0 0 0 0
2605458948 0.08291123807430267 -0.268653005361557 0.0077713169157505035 -0.0035625947639346123 0 0 0 0
2609181032 0.06120045483112335 -0.25922805070877075 0.00706644169986248 -0.005142958834767342 0 0 0 0
2612903116 0.04434596747159958 -0.24677006900310516 0.006031777709722519 -0.006473839282989502 0 0 0 0
2616625200 0.029109172523021698 -0.2313542664051056 0.00484843272715807 -0.007372464053332806 0 0 0 0
2620347284 0.018529154360294342 -0.21447016298770905 0.0035327496007084846 -0.007945557124912739 0 0 0 0
2624069368 0.008564755320549011 -0.19621272385120392 0.0022136718034744263 -0.008533602580428123 0 0 0 0
2627791452 0.003595307469367981 -0.17794157564640045 0.0007820120081305504 -0.008876058273017406 0 0 0 0
2631513536 0.004555098712444305 -0.1574130654335022 -0.00027791503816843033 -0.008824501186609268 0 0 0 0
2635235620 0.0077080875635147095 -0.1386101096868515 -0.0013181241229176521 -0.008977394551038742 0 0 0 0
2638957704 0.015376138500869274 -0.12083498388528824 -0.0023741209879517555 -0.009143725037574768 0 0 0 0
2642679788 0.02543576806783676 -0.10552757978439331 -0.0038844989612698555 -0.009288151748478413 0 0 0 0
2646401872 0.038201410323381424 -0.09455583989620209 -0.005363724194467068 -0.00926374364644289 0 0 0 0
2650123956 0.05119673162698746 -0.08549826592206955 -0.007336445152759552 -0.00888802483677864 0 0 0 0
2653846040 0.06484134495258331 -0.07961807399988174 -0.009406907483935356 -0.007782565429806709 0 0 0 0
2657568124 0.08159954100847244 -0.07503292709589005 -0.011183654889464378 -0.005849242210388184 0 0 0 0
2661290208 0.09668219834566116 -0.07726941257715225 -0.012452555820345879 -0.0036786189302802086 0 0 0 0
2665012292 0.11279699206352234 -0.08126500248908997 -0.012883265502750874 -0.0009995121508836746 0 0 0 0
2668734376 0.12594445049762726 -0.08967101573944092 -0.012954428791999817 0.001257035881280899 0 0 0 0
2672456460 0.13765069842338562 -0.09887096285820007 -0.01229211874306202 0.0034735044464468956 0 0 0 0
2676178544 0.14428368210792542 -0.1131492406129837 -0.011363297700881958 0.005528261885046959 0 0 0 0
2679900628 0.14783287048339844 -0.12683172523975372 -0.010283129289746284 0.00739941094070673 0 0 0 0
2683622712 0.14989446103572845 -0.13908207416534424 -0.008712828159332275 0.0091325081884861 0 0 0 0
2687344796 0.1454860419034958 -0.155634343624115 -0.0065896278247237206 0.010469429194927216 0 0 0 0
2691066880 0.14230218529701233 -0.16747219860553741 -0.004444309510290623 0.0112129095941782 0 0 0 0
2694788964 0.13537833094596863 -0.17799291014671326 -0.002482806332409382 0.011523946188390255 0 0 0 0
2698511048 0.12462091445922852 -0.18921774625778198 -0.0005745748057961464 0.011660413816571236 0 0 0 0
2702233132 0.11520523577928543 -0.19519859552383423 0.001518060453236103 0.011605482548475266 0 0 0 0
2705955216 0.10336508601903915 -0.2012174129486084 0.003521641716361046 0.011048809625208378 0 0 0 0
2709677300 0.08918590843677521 -0.20613637566566467 0.005686942487955093 0.010665493085980415 0 0 0 0
2713399384 0.07460092008113861 -0.2078055441379547 0.008161243982613087 0.009272852912545204 0 0 0 0
2717121468 0.06056101992726326 -0.2070411741733551 0.009914775379002094 0.00727930199354887 0 0 0 0
2720843552 0.045420028269290924 -0.20258861780166626 0.011125922203063965 0.004850925877690315 0 0 0 0
2724565636 0.02877204120159149 -0.1954931765794754 0.011565528810024261 0.0024270322173833847 0 0 0 0
2728287720 0.016346484422683716 -0.18447543680667877 0.011811308562755585 0.00031927134841680527 0 0 0 0
2732009804 0.0048172324895858765 -0.17155300080776215 0.011999834328889847 -0.0018573589622974396 0 0 0 0
2735731888 -0.002931855618953705 -0.15686294436454773 0.0119091821834445 -0.004319937899708748 0 0 0 0
2739453972 -0.00874844565987587 -0.14129240810871124 0.010891691781580448 -0.00721899326890707 0 0 0 0
2743176056 -0.01205306127667427 -0.12445814162492752 0.008996512740850449 -0.009711837396025658 0 0 0 0
2746898140 -0.015689536929130554 -0.10777802765369415 0.006279105320572853 -0.011292590759694576 0 0 0 0
2750620224 -0.0136125348508358 -0.08973069489002228 0.00383822713047266 -0.012318011373281479 0 0 0 0
2754342308 -0.009218188002705574 -0.07177194207906723 0.0011130571365356445 -0.012774699367582798 0 0 0 0
2758064392 -0.001680278219282627 -0.05323813855648041 -0.0016197003424167633 -0.012316147796809673 0 0 0 0
2761786476 0.010550225153565407 -0.03682207688689232 -0.0037514008581638336 -0.011498725973069668 0 0 0 0
2765508560 0.02392539009451866 -0.02327411249279976 -0.005902368575334549 -0.010112165473401546 0 0 0 0
2769230644 0.03904341161251068 -0.012167033739387989 -0.0073157865554094315 -0.008624591864645481 0 0 0 0
2772952728 0.05574938282370567 -0.002005593851208687 -0.008618781343102455 -0.007058240473270416 0 0 0 0
2776674812 0.07455664128065109 0.005308549851179123 -0.009480880573391914 -0.005233800038695335 0 0 0 0
2780396896 0.09449959546327591 0.009879285469651222 -0.010083768516778946 -0.003388914279639721 0 0 0 0
2784118980 0.11512868106365204 0.011392872780561447 -0.010427989065647125 -0.0014196252450346947 0 0 0 0
2787841064 0.13667911291122437 0.008966991677880287 -0.010395526885986328 0.0006755879148840904 0 0 0 0
2791563148 0.15830031037330627 0.004085037857294083 -0.009795163758099079 0.0027336087077856064 0 0 0 0
2795285232 0.17904844880104065 -0.005488529801368713 -0.008823235519230366 0.004602562636137009 0 0 0 0
2799007316 0.19809643924236298 -0.01729581505060196 -0.007375250570476055 0.006192795000970364 0 0 0 0
2802729400 0.21592608094215393 -0.03354516625404358 -0.00565434992313385 0.00744251161813736 0 0 0 0
2806451484 0.23007215559482574 -0.050380341708660126 -0.0037908507511019707 0.007948140613734722 0 0 0 0
2810173568 0.2412954717874527 -0.07275883853435516 -0.0016922187060117722 0.008029663003981113 0 0 0 0
2813895652 0.25214529037475586 -0.09270498156547546 -0.0001083696261048317 0.007586970925331116 0 0 0 0
2817617736 0.2567983865737915 -0.11568480730056763 0.0011850660666823387 0.007099280133843422 0 0 0 0
2821339820 0.25521233677864075 -0.1434841752052307 0.002210453152656555 0.006475832313299179 0 0 0 0
2825061904 0.2510373294353485 -0.16658267378807068 0.0032269954681396484 0.005697374232113361 0 0 0 0
2828783988 0.24526862800121307 -0.18782909214496613 0.004092508926987648 0.005237787961959839 0 0 0 0
2832506072 0.23618070781230927 -0.20825769007205963 0.0049690986052155495 0.00431741401553154 0 0 0 0
2836228156 0.22613286972045898 -0.2270919531583786 0.005818025209009647 0.0030655739828944206 0 0 0 0
2839950240 0.21228376030921936 -0.24521222710609436 0.006021448411047459 0.0017093401402235031 0 0 0 0
2843672324 0.19729961454868317 -0.2588489055633545 0.005948270671069622 0.0007052384316921234 0 0 0 0
2847394408 0.18245169520378113 -0.27232006192207336 0.005743672139942646 -0.00019370578229427338 0 0 0 0
2851116492 0.1629054695367813 -0.2843470871448517 0.0056491876021027565 -0.0009749634191393852 0 0 0 0
2854838576 0.14182260632514954 -0.2938169538974762 0.0056001534685492516 -0.0017645442858338356 0 0 0 0
2858560660 0.12588806450366974 -0.300685316324234 0.005677270703017712 -0.0031446190550923347 0 0 0 0
2862282744 0.09970490634441376 -0.30726367235183716 0.005149875767529011 -0.004288432188332081 0 0 0 0
2866004828 0.08246584236621857 -0.308204710483551 0.0042966203764081 -0.005127855576574802 0 0 0 0
2869726912 0.06089373677968979 -0.30896615982055664 0.003331582061946392 -0.005930814892053604 0 0 0 0
2873448996 0.038009434938430786 -0.3063122034072876 0.0021773194894194603 -0.006369740702211857 0 0 0 0
2877171080 0.011414185166358948 -0.30100592970848083 0.0009398460388183594 -0.006697145290672779 0 0 0 0
2880893164 -0.005875736474990845 -0.29421982169151306 -0.00038631726056337357 -0.006787176243960857 0 0 0 0
2884615248 -0.02836817502975464 -0.282179594039917 -0.0017222436144948006 -0.006351601332426071 0 0 0 0
2888337332 -0.05100880563259125 -0.2668699622154236 -0.0026873648166656494 -0.00556669756770134 0 0 0 0
2892059416 -0.06547202169895172 -0.25069332122802734 -0.003460531122982502 -0.00465807318687439 0 0 0 0
2895781500 -0.08221498876810074 -0.23154132068157196 -0.004054384306073189 -0.003653373569250107 0 0 0 0
2899503584 -0.09640789031982422 -0.20916152000427246 -0.004257245920598507 -0.002544841729104519 0 0 0 0
2903225668 -0.10504623502492905 -0.18722233176231384 -0.004274565726518631 -0.0015771649777889252 0 0 0 0
2906947752 -0.11279494315385818 -0.16212762892246246 -0.004051891155540943 -0.0007841028273105621 0 0 0 0
2910669836 -0.11708995699882507 -0.13720464706420898 -0.003599069081246853 0.00014447234570980072 0 0 0 0
2914391920 -0.11680737137794495 -0.11119263619184494 -0.0031701987609267235 0.0006411168724298477 0 0 0 0
2918114004 -0.11356309056282043 -0.08423295617103577 -0.0027132034301757812 0.0010769646614789963 0 0 0 0
2921836088 -0.10568936169147491 -0.06033562123775482 -0.002222328446805477 0.001274608075618744 0 0 0 0
2925558172 -0.09598248451948166 -0.03744549676775932 -0.0018700696527957916 0.001456158235669136 0 0 0 0
2929280256 -0.08308941125869751 -0.016788285225629807 -0.0016461275517940521 0.0016966592520475388 0 0 0 0
2933002340 -0.06883030384778976 0.00265637319535017 -0.0013143280521035194 0.0019313795492053032 0 0 0 0
2936724424 -0.05091677978634834 0.020300857722759247 -0.0009690271690487862 0.0021799299865961075 0 0 0 0
2940446508 -0.03245086967945099 0.03515547886490822 -0.0005385661497712135 0.0024292003363370895 0 0 0 0
2944168592 -0.011625276878476143 0.04792186617851257 6.253831088542938e-06 0.0026621734723448753 0 0 0 0
2947890676 0.009849844500422478 0.05749626085162163 0.0007882816717028618 0.002801084890961647 0 0 0 0
2951612760 0.031140051782131195 0.0662885457277298 0.0014990204945206642 0.0026613743975758553 0 0 0 0
2955334844 0.05555223673582077 0.07148434221744537 0.0022623855620622635 0.0020241504535079002 0 0 0 0
2959056928 0.08035143464803696 0.07337438315153122 0.0026456043124198914 0.0015019699931144714 0 0 0 0
2962779012 0.10576092451810837 0.07322047650814056 0.002890593372285366 0.001219482161104679 0 0 0 0
2966501096 0.13020573556423187 0.06973432749509811 0.003250538371503353 0.0006849654018878937 0 0 0 0
2970223180 0.15592318773269653 0.0612914003431797 0.0035335496068000793 9.39592719078064e-05 0 0 0 0
2973945264 0.17979277670383453 0.04895152896642685 0.003438577987253666 -0.0006526438519358635 0 0 0 0
2977667348 0.2017456591129303 0.03484543412923813 0.0034607350826263428 -0.0012396294623613358 0 0 0 0
2981389432 0.2221728265285492 0.01516476646065712 0.0032464852556586266 -0.001756487414240837 0 0 0 0
2985111516 0.238255575299263 -0.0034156665205955505 0.0030057914555072784 -0.0023735901340842247 0 0 0 0
2988833600 0.2508476972579956 -0.028625167906284332 0.0023487312719225883 -0.00285433791577816 0 0 0 0
2992555684 0.25900518894195557 -0.05162389948964119 0.0019853785634040833 -0.0033849449828267097 0 0 0 0
2996277768 0.26343703269958496 -0.0752556174993515 0.0011478383094072342 -0.003642273135483265 0 0 0 0
2999999852 0.26575133204460144 -0.1007988303899765 0.00032742787152528763 -0.0037835165858268738 0 0 0 0
