# HZ S RI R 50
1500000000 -0.009374943561851978 -0.03734585642814636 0.027162015438079834 -0.028579123318195343 0 0 0 0
1503722084 0.001820211298763752 -0.030104584991931915 0.021319765597581863 -0.031135600060224533 0 0 0 0
1507444168 0.01542731374502182 -0.023143477737903595 0.01628204621374607 -0.0326654426753521 0 0 0 0
1511166252 0.03169117867946625 -0.017872363328933716 0.011929113417863846 -0.034281592816114426 0 0 0 0
1514888336 0.05009089410305023 -0.01371932402253151 0.007094983011484146 -0.036541327834129333 0 0 0 0
1518610420 0.06993915885686874 -0.013058461248874664 0.00019179098308086395 -0.038068827241659164 0 0 0 0
1522332504 0.09023259580135345 -0.013878483325242996 -0.007345445454120636 -0.03707022964954376 0 0 0 0
1526054588 0.11097289621829987 -0.016335854306817055 -0.014055113308131695 -0.03315606340765953 0 0 0 0
1529776672 0.13436368107795715 -0.020744971930980682 -0.018268153071403503 -0.028480298817157745 0 0 0 0
1533498756 0.1591910421848297 -0.031029917299747467 -0.02139320969581604 -0.024250969290733337 0 0 0 0
1537220840 0.1844521462917328 -0.043157003819942474 -0.02350100688636303 -0.020334972068667412 0 0 0 0
1540942924 0.2095077484846115 -0.06302142888307571 -0.02538754791021347 -0.01603051647543907 0 0 0 0
1544665008 0.23298604786396027 -0.08584699034690857 -0.0267495084553957 -0.011760028079152107 0 0 0 0
1548387092 0.25129324197769165 -0.11550690233707428 -0.027734095230698586 -0.007021641358733177 0 0 0 0
1552109176 0.2647377848625183 -0.14800110459327698 -0.027430202811956406 -0.002369178459048271 0 0 0 0
1555831260 0.2749726176261902 -0.18074873089790344 -0.026257414370775223 0.0022156573832035065 0 0 0 0
1559553344 0.2797395884990692 -0.21785356104373932 -0.02415989711880684 0.005906344391405582 0 0 0 0
1563275428 0.2786533236503601 -0.2561866044998169 -0.021876206621527672 0.008906375616788864 0 0 0 0
1566997512 0.2730233073234558 -0.2954941689968109 -0.019259504973888397 0.011593423783779144 0 0 0 0
1570719596 0.26190444827079773 -0.3326131999492645 -0.016223588958382607 0.013396067544817924 0 0 0 0
1574441680 0.24476689100265503 -0.37010878324508667 -0.013201596215367317 0.014494141563773155 0 0 0 0
1578163764 0.22411419451236725 -0.405173659324646 -0.010679276660084724 0.014926973730325699 0 0 0 0
1581885848 0.1958875209093094 -0.43958544731140137 -0.008430171757936478 0.01530470885336399 0 0 0 0
1585607932 0.16181842982769012 -0.470315545797348 -0.006162744946777821 0.015483804047107697 0 0 0 0
1589330016 0.12536588311195374 -0.495974600315094 -0.004206739366054535 0.015298054553568363 0 0 0 0
1593052100 0.07801797986030579 -0.5179115533828735 -0.0024525150656700134 0.014987310394644737 0 0 0 0
1596774184 0.031866610050201416 -0.5330021381378174 -0.0008322689682245255 0.014681201428174973 0 0 0 0
1600496268 -0.017246022820472717 -0.5404289364814758 0.0008070329204201698 0.014562787488102913 0 0 0 0
1604218352 -0.06953173875808716 -0.5430073738098145 0.002493489533662796 0.014123187400400639 0 0 0 0
1607940436 -0.12392836064100266 -0.5352882742881775 0.004275253042578697 0.013335855677723885 0 0 0 0
1611662520 -0.1780889928340912 -0.5207825899124146 0.005791929550468922 0.012673058547079563 0 0 0 0
1615384604 -0.2326882928609848 -0.4978787302970886 0.00744003988802433 0.011654207482933998 0 0 0 0
1619106688 -0.2830210030078888 -0.46625685691833496 0.008868025615811348 0.010301887057721615 0 0 0 0
1622828772 -0.3309364318847656 -0.4263039827346802 0.01023899670690298 0.008747016079723835 0 0 0 0
1626550856 -0.3726902902126312 -0.3780973255634308 0.010945826768875122 0.00711408257484436 0 0 0 0
1630272940 -0.4071083962917328 -0.32115331292152405 0.011412443593144417 0.005490320734679699 0 0 0 0
1633995024 -0.4353598952293396 -0.2564494013786316 0.01206377986818552 0.0041350070387125015 0 0 0 0
1637717108 -0.45219239592552185 -0.1889135241508484 0.012500714510679245 0.00243397057056427 0 0 0 0
1641439192 -0.4576108753681183 -0.12015492469072342 0.012775507755577564 0.0005016159266233444 0 0 0 0
1645161276 -0.45272165536880493 -0.04630124568939209 0.012749021872878075 -0.001607990823686123 0 0 0 0
1648883360 -0.43796223402023315 0.02531258761882782 0.012084017507731915 -0.003552705980837345 0 0 0 0
1652605444 -0.409408837556839 0.09873879700899124 0.011049110442399979 -0.005251077003777027 0 0 0 0
1656327528 -0.3691750168800354 0.16662131249904633 0.009826697409152985 -0.006573241204023361 0 0 0 0
1660049612 -0.3173503279685974 0.22695857286453247 0.008748585358262062 -0.007697436027228832 0 0 0 0
1663771696 -0.2536686360836029 0.28071001172065735 0.007595507428050041 -0.008964680135250092 0 0 0 0
1667493780 -0.18217438459396362 0.32299086451530457 0.00581858865916729 -0.010050425305962563 0 0 0 0
1671215864 -0.10440382361412048 0.352859765291214 0.004205452278256416 -0.010458510369062424 0 0 0 0
1674937948 -0.02087731659412384 0.36960268020629883 0.00295331422239542 -0.011023925617337227 0 0 0 0
1678660032 0.0637848973274231 0.3712754249572754 0.0010545691475272179 -0.011723630130290985 0 0 0 0
1682382116 0.14600017666816711 0.35961854457855225 -0.0012088688090443611 -0.011938638985157013 0 0 0 0
1686104200 0.22732552886009216 0.33537203073501587 -0.003613770008087158 -0.011298952624201775 0 0 0 0
1689826284 0.30148112773895264 0.29913806915283203 -0.005717485211789608 -0.010172499343752861 0 0 0 0
1693548368 0.3711867332458496 0.2508733570575714 -0.007629689760506153 -0.008383824490010738 0 0 0 0
1697270452 0.43107128143310547 0.1926817148923874 -0.008605076931416988 -0.005886213853955269 0 0 0 0
1700992536 0.48013198375701904 0.12749028205871582 -0.00843499880284071 -0.003629191778600216 0 0 0 0
1704714620 0.5188146233558655 0.05291208624839783 -0.007690933533012867 -0.0019078981131315231 0 0 0 0
1708436704 0.5448035001754761 -0.026141755282878876 -0.006899083033204079 -0.0007390053942799568 0 0 0 0
1712158788 0.5579019784927368 -0.10158781707286835 -0.005963248200714588 -0.00022029224783182144 0 0 0 0
1715880872 0.5587228536605835 -0.18062475323677063 -0.005354707129299641 -5.773361772298813e-05 0 0 0 0
1719602956 0.5465920567512512 -0.26243856549263 -0.00506292749196291 6.578490138053894e-05 0 0 0 0
1723325040 0.522067666053772 -0.33750051259994507 -0.005013018846511841 0.0002031540498137474 0 0 0 0
1727047124 0.4895598292350769 -0.4073076546192169 -0.0048343725502491 0.0005254559218883514 0 0 0 0
1730769208 0.44779908657073975 -0.46673497557640076 -0.004849418066442013 0.0007693516090512276 0 0 0 0
1734491292 0.3930336534976959 -0.523524820804596 -0.004657234996557236 0.0011023608967661858 0 0 0 0
1738213376 0.3359491527080536 -0.5693879723548889 -0.004410313442349434 0.0012252889573574066 0 0 0 0
1741935460 0.2663065195083618 -0.607658326625824 -0.0044739581644535065 0.0011544134467840195 0 0 0 0
1745657544 0.2005799114704132 -0.6320975422859192 -0.005063631571829319 0.001241873949766159 0 0 0 0
1749379628 0.12969999015331268 -0.6471710205078125 -0.0054221805185079575 0.0018443921580910683 0 0 0 0
1753101712 0.056411974132061005 -0.6501388549804688 -0.005569404922425747 0.002532321959733963 0 0 0 0
1756823796 -0.01377357542514801 -0.642271101474762 -0.0059149423614144325 0.0031231893226504326 0 0 0 0
1760545880 -0.07967260479927063 -0.6238824129104614 -0.006311653181910515 0.004086649045348167 0 0 0 0
1764267964 -0.14386297762393951 -0.5939033031463623 -0.006455261260271072 0.005475027486681938 0 0 0 0
1767990048 -0.2038031965494156 -0.5566841959953308 -0.005989991128444672 0.00714239664375782 0 0 0 0
1771712132 -0.2511194944381714 -0.5125152468681335 -0.005188600160181522 0.008494609035551548 0 0 0 0
1775434216 -0.29352861642837524 -0.46097296476364136 -0.004430137574672699 0.00986658874899149 0 0 0 0
1779156300 -0.324442982673645 -0.4058099389076233 -0.0031147943809628487 0.011366745457053185 0 0 0 0
1782878384 -0.34943121671676636 -0.3472720682621002 -0.0011105909943580627 0.012615015730261803 0 0 0 0
1786600468 -0.36503535509109497 -0.2856197953224182 0.0009076371788978577 0.013399283401668072 0 0 0 0
1790322552 -0.3724915087223053 -0.22271493077278137 0.0033066626638174057 0.014128639362752438 0 0 0 0
1794044636 -0.3696712255477905 -0.16108132898807526 0.006130860187113285 0.014218396507203579 0 0 0 0
1797766720 -0.35692501068115234 -0.10155389457941055 0.008736666291952133 0.013814921490848064 0 0 0 0
1801488804 -0.33534929156303406 -0.04523174464702606 0.011922658421099186 0.013178209774196148 0 0 0 0
1805210888 -0.3066564202308655 0.00426127016544342 0.015154796652495861 0.011596349067986012 0 0 0 0
1808932972 -0.271272212266922 0.05152374505996704 0.01826367899775505 0.009159973822534084 0 0 0 0
1812655056 -0.2309434860944748 0.08841736614704132 0.020946279168128967 0.005843844264745712 0 0 0 0
1816377140 -0.18559995293617249 0.12273803353309631 0.0229156743735075 0.0014673862606287003 0 0 0 0
1820099224 -0.1355333775281906 0.14925549924373627 0.023848867043852806 -0.003428889438509941 0 0 0 0
1823821308 -0.08141256868839264 0.16835659742355347 0.023345954716205597 -0.008851917460560799 0 0 0 0
1827543392 -0.02473560720682144 0.1775091290473938 0.021603262051939964 -0.013557836413383484 0 0 0 0
1831265476 0.029722630977630615 0.17629414796829224 0.019566426053643227 -0.01794952154159546 0 0 0 0
1834987560 0.0833243578672409 0.16505900025367737 0.01618853397667408 -0.022507240995764732 0 0 0 0
1838709644 0.13222460448741913 0.14746727049350739 0.011157373897731304 -0.026560112833976746 0 0 0 0
1842431728 0.1762397736310959 0.1250668168067932 0.0051633985713124275 -0.02895420975983143 0 0 0 0
1846153812 0.21736815571784973 0.09408107399940491 -0.0012608123943209648 -0.029236391186714172 0 0 0 0
1849875896 0.2512340247631073 0.05776509642601013 -0.007248217239975929 -0.028048023581504822 0 0 0 0
1853597980 0.2791227400302887 0.017087940126657486 -0.012615857645869255 -0.025731950998306274 0 0 0 0
1857320064 0.2979986071586609 -0.02469547837972641 -0.016814270988106728 -0.02253888174891472 0 0 0 0
1861042148 0.30859631299972534 -0.06960071623325348 -0.02026011236011982 -0.018491588532924652 0 0 0 0
1864764232 0.31098413467407227 -0.11533335596323013 -0.022748133167624474 -0.014617237262427807 0 0 0 0
1868486316 0.30726158618927 -0.15747319161891937 -0.02445359341800213 -0.010729199275374413 0 0 0 0
1872208400 0.2975706160068512 -0.19827145338058472 -0.025947928428649902 -0.006793978624045849 0 0 0 0
1875930484 0.2837870419025421 -0.23707365989685059 -0.028306230902671814 -0.003004235215485096 0 0 0 0
1879652568 0.26386749744415283 -0.2702469527721405 -0.028779074549674988 0.0020414721220731735 0 0 0 0
1883374652 0.23604843020439148 -0.30077576637268066 -0.02846265211701393 0.007226897403597832 0 0 0 0
1887096736 0.20524995028972626 -0.3233601450920105 -0.026881195604801178 0.012501166202127934 0 0 0 0
1890818820 0.17009180784225464 -0.3408833146095276 -0.02414747141301632 0.017296202480793 0 0 0 0
1894540904 0.13246244192123413 -0.3517560362815857 -0.02069873921573162 0.021293820813298225 0 0 0 0
1898262988 0.09724131226539612 -0.3543865978717804 -0.016349606215953827 0.02446426823735237 0 0 0 0
1901985072 0.061054863035678864 -0.35227054357528687 -0.01174502819776535 0.027071207761764526 0 0 0 0
1905707156 0.028140202164649963 -0.3413623869419098 -0.006968646310269833 0.028320899233222008 0 0 0 0
1909429240 -0.0008670687675476074 -0.32804763317108154 -0.002595752477645874 0.029379865154623985 0 0 0 0
1913151324 -0.025516055524349213 -0.3077737092971802 0.0023894663900136948 0.02983757294714451 0 0 0 0
1916873408 -0.048346877098083496 -0.2849949896335602 0.007920391857624054 0.02983075939118862 0 0 0 0
1920595492 -0.06252077966928482 -0.2591603100299835 0.013677922077476978 0.028365427628159523 0 0 0 0
1924317576 -0.07239855080842972 -0.23306825757026672 0.019303951412439346 0.025604594498872757 0 0 0 0
1928039660 -0.08094673603773117 -0.2046782225370407 0.024505680426955223 0.021372275426983833 0 0 0 0
1931761744 -0.08032736927270889 -0.17969098687171936 0.028459416702389717 0.016161495819687843 0 0 0 0
1935483828 -0.07732278108596802 -0.1532953381538391 0.031041931360960007 0.009262421168386936 0 0 0 0
1939205912 -0.07165199518203735 -0.1286388635635376 0.03171205148100853 0.0027689728885889053 0 0 0 0
1942927996 -0.06061512231826782 -0.10468830913305283 0.030527547001838684 -0.0033422885462641716 0 0 0 0
1946650080 -0.04747689515352249 -0.08304109424352646 0.028698518872261047 -0.008523487485945225 0 0 0 0
1950372164 -0.02896590158343315 -0.06422840803861618 0.02651207335293293 -0.013194565661251545 0 0 0 0
1954094248 -0.007758688181638718 -0.0479377917945385 0.023601727560162544 -0.01789884641766548 0 0 0 0
1957816332 0.016561273485422134 -0.03619704395532608 0.020118113607168198 -0.02153884246945381 0 0 0 0
1961538416 0.04207659140229225 -0.02956758253276348 0.015989087522029877 -0.02501843124628067 0 0 0 0
1965260500 0.06910891830921173 -0.026600278913974762 0.01099361851811409 -0.027941394597291946 0 0 0 0
1968982584 0.09635370224714279 -0.030173247680068016 0.005162208341062069 -0.02972804754972458 0 0 0 0
1972704668 0.12395034730434418 -0.03898238390684128 -0.0009201141074299812 -0.029998604208230972 0 0 0 0
1976426752 0.14727696776390076 -0.05290902405977249 -0.006745672784745693 -0.028907956555485725 0 0 0 0
1980148836 0.16765236854553223 -0.07186122238636017 -0.012174336239695549 -0.02704291231930256 0 0 0 0
1983870920 0.18366065621376038 -0.09414466470479965 -0.017486851662397385 -0.02405630424618721 0 0 0 0
1987593004 0.19381962716579437 -0.11835555732250214 -0.021853098645806313 -0.019956795498728752 0 0 0 0
1991315088 0.1989355832338333 -0.1447848379611969 -0.025316588580608368 -0.014815529808402061 0 0 0 0
1995037172 0.1985063999891281 -0.17083682119846344 -0.02694368176162243 -0.008860358968377113 0 0 0 0
1998759256 0.1958874613046646 -0.19381320476531982 -0.02693217247724533 -0.003596341237425804 0 0 0 0
2002481340 0.18717187643051147 -0.21701115369796753 -0.02627592161297798 0.001073700375854969 0 0 0 0
2006203424 0.17595423758029938 -0.23757588863372803 -0.025353964418172836 0.005673227831721306 0 0 0 0
2009925508 0.16184253990650177 -0.25581902265548706 -0.02311241813004017 0.009903652593493462 0 0 0 0
2013647592 0.14515389502048492 -0.27216464281082153 -0.02080487459897995 0.013393711298704147 0 0 0 0
2017369676 0.12246651947498322 -0.28669217228889465 -0.017821401357650757 0.016055019572377205 0 0 0 0
2021091760 0.09929589927196503 -0.2962472438812256 -0.0149370227009058 0.017910383641719818 0 0 0 0
2024813844 0.07477360218763351 -0.3007308840751648 -0.01217503473162651 0.019591454416513443 0 0 0 0
2028535928 0.05072741582989693 -0.301632821559906 -0.009588444605469704 0.02109462395310402 0 0 0 0
2032258012 0.02423374354839325 -0.29760321974754333 -0.0062606679275631905 0.022330978885293007 0 0 0 0
2035980096 -0.00276733934879303 -0.28896838426589966 -0.0027634846046566963 0.024052828550338745 0 0 0 0
2039702180 -0.023303315043449402 -0.2759425640106201 0.0015984280034899712 0.024891812354326248 0 0 0 0
2043424264 -0.04399968683719635 -0.2594063878059387 0.006625044159591198 0.024665065109729767 0 0 0 0
2047146348 -0.062057070434093475 -0.23966044187545776 0.011765183880925179 0.022702699527144432 0 0 0 0
2050868432 -0.07715971022844315 -0.21822954714298248 0.015671061351895332 0.01922113634645939 0 0 0 0
2054590516 -0.08887685835361481 -0.19331583380699158 0.017825327813625336 0.015428884886205196 0 0 0 0
2058312600 -0.09594731032848358 -0.16708685457706451 0.019245387986302376 0.01231434941291809 0 0 0 0
2062034684 -0.09973017871379852 -0.13874106109142303 0.020921971648931503 0.009684087708592415 0 0 0 0
2065756768 -0.09831411391496658 -0.10906045138835907 0.022635003551840782 0.00641450472176075 0 0 0 0
2069478852 -0.0928037092089653 -0.07912687957286835 0.024302465841174126 0.0021430961787700653 0 0 0 0
2073200936 -0.08131548017263412 -0.050237804651260376 0.024579517543315887 -0.002950049936771393 0 0 0 0
2076923020 -0.06530620902776718 -0.023575201630592346 0.023346194997429848 -0.008402016945183277 0 0 0 0
2080645104 -0.04570172354578972 0.0008959975093603134 0.02066105604171753 -0.012942742556333542 0 0 0 0
2084367188 -0.021267952397465706 0.022057920694351196 0.01704929769039154 -0.01665963977575302 0 0 0 0
2088089272 0.00843785610049963 0.039660099893808365 0.012377938255667686 -0.019206784665584564 0 0 0 0
2091811356 0.040374238044023514 0.05072852224111557 0.008027542382478714 -0.020287703722715378 0 0 0 0
2095533440 0.07316163927316666 0.05568322539329529 0.003595670685172081 -0.02037070505321026 0 0 0 0
2099255524 0.10589466243982315 0.055441513657569885 -0.0006297482177615166 -0.019302137196063995 0 0 0 0
2102977608 0.13768842816352844 0.05142290145158768 -0.003657843917608261 -0.017044905573129654 0 0 0 0
2106699692 0.16914501786231995 0.04151810705661774 -0.005570530891418457 -0.014861036092042923 0 0 0 0
2110421776 0.19873565435409546 0.026965640485286713 -0.006550628691911697 -0.013524919748306274 0 0 0 0
2114143860 0.2258680760860443 0.007561888545751572 -0.00775639433413744 -0.012759597972035408 0 0 0 0
2117865944 0.2489337921142578 -0.017003141343593597 -0.009607712738215923 -0.011727621778845787 0 0 0 0
2121588028 0.26748767495155334 -0.04475443810224533 -0.011301971040666103 -0.010042551904916763 0 0 0 0
2125310112 0.28031715750694275 -0.07424826920032501 -0.012761975638568401 -0.008308978751301765 0 0 0 0
2129032196 0.2883323132991791 -0.10626880079507828 -0.014161599799990654 -0.006439629010856152 0 0 0 0
2132754280 0.2904919385910034 -0.1357746422290802 -0.01522634644061327 -0.003928342834115028 0 0 0 0
2136476364 0.2881770431995392 -0.1661771535873413 -0.016002990305423737 -0.0013707512989640236 0 0 0 0
2140198448 0.281617671251297 -0.19639895856380463 -0.015967145562171936 0.0014146296307444572 0 0 0 0
2143920532 0.27010682225227356 -0.2245357483625412 -0.015170739963650703 0.004545450210571289 0 0 0 0
2147642616 0.25691238045692444 -0.24935150146484375 -0.013650165870785713 0.0069674598053097725 0 0 0 0
2151364700 0.24046403169631958 -0.2728118598461151 -0.011731886304914951 0.008656790480017662 0 0 0 0
2155086784 0.21667684614658356 -0.2918742895126343 -0.009928823448717594 0.009838929399847984 0 0 0 0
2158808868 0.1916397511959076 -0.308617502450943 -0.00828397274017334 0.010680108331143856 0 0 0 0
2162530952 0.16917093098163605 -0.3173080384731293 -0.007287774235010147 0.011490708217024803 0 0 0 0
2166253036 0.13978317379951477 -0.3266194462776184 -0.005301632918417454 0.01269308291375637 0 0 0 0
2169975120 0.10897190123796463 -0.33060893416404724 -0.002987625077366829 0.013452020473778248 0 0 0 0
2173697204 0.08356796950101852 -0.32879263162612915 -0.0005979910492897034 0.013369039632380009 0 0 0 0
2177419288 0.0544266402721405 -0.3235614001750946 0.0015704678371548653 0.012579206377267838 0 0 0 0
2181141372 0.02728426456451416 -0.3144837021827698 0.0029123080894351006 0.011812249198555946 0 0 0 0
2184863456 0.0023223161697387695 -0.29927384853363037 0.004295610822737217 0.01137697882950306 0 0 0 0
2188585540 -0.020396284759044647 -0.2805015742778778 0.005875729024410248 0.010970650240778923 0 0 0 0
2192307624 -0.037341922521591187 -0.2576673626899719 0.007834851741790771 0.010031584650278091 0 0 0 0
2196029708 -0.05199476331472397 -0.23285901546478271 0.009426656179130077 0.00843751709908247 0 0 0 0
2199751792 -0.059789858758449554 -0.20514720678329468 0.010393555276095867 0.006883356720209122 0 0 0 0
2203473876 -0.06774568557739258 -0.17690221965312958 0.011402620933949947 0.004847608506679535 0 0 0 0
2207195960 -0.06432471424341202 -0.15161551535129547 0.011955366469919682 0.002978028729557991 0 0 0 0
2210918044 -0.05977054685354233 -0.12664660811424255 0.012074864469468594 0.0003961855545639992 0 0 0 0
2214640128 -0.054141897708177567 -0.10280085355043411 0.011420981958508492 -0.0019455170258879662 0 0 0 0
2218362212 -0.04451485350728035 -0.07985863089561462 0.01040051132440567 -0.0038280002772808075 0 0 0 0
2222084296 -0.032225340604782104 -0.05741250514984131 0.009407514706254005 -0.005091298371553421 0 0 0 0
2225806380 -0.014972754754126072 -0.03565007075667381 0.008102171123027802 -0.006157027557492256 0 0 0 0
2229528464 0.006551920436322689 -0.017641933634877205 0.007271856069564819 -0.006735820323228836 0 0 0 0
2233250548 0.031911175698041916 -0.004406837746500969 0.006407798267900944 -0.007592983543872833 0 0 0 0
2236972632 0.0594462975859642 0.0021961629390716553 0.0052333734929561615 -0.009001838974654675 0 0 0 0
2240694716 0.08613992482423782 0.003521021455526352 0.003316521644592285 -0.010049158707261086 0 0 0 0
2244416800 0.11277780681848526 0.0032679960131645203 0.0012871688231825829 -0.010323517955839634 0 0 0 0
2248138884 0.1385601907968521 -0.004664674401283264 -0.0006890036165714264 -0.010045168921351433 0 0 0 0
2251860968 0.16016186773777008 -0.019176296889781952 -0.001662885770201683 -0.0087665980681777 0 0 0 0
2255583052 0.1802910566329956 -0.0343753956258297 -0.0030727693811059 -0.007962720468640327 0 0 0 0
2259305136 0.19655129313468933 -0.05385338515043259 -0.003757716156542301 -0.007124330848455429 0 0 0 0
2263027220 0.20977085828781128 -0.0711946189403534 -0.004257443360984325 -0.006620194762945175 0 0 0 0
2266749304 0.21851056814193726 -0.09356175363063812 -0.005324321798980236 -0.006319853477180004 0 0 0 0
2270471388 0.22289903461933136 -0.11656670272350311 -0.006516827270388603 -0.005360952578485012 0 0 0 0
2274193472 0.22366097569465637 -0.13713978230953217 -0.007102855481207371 -0.004168320447206497 0 0 0 0
2277915556 0.21999065577983856 -0.1561289131641388 -0.007334289140999317 -0.0030906209722161293 0 0 0 0
2281637640 0.2144579440355301 -0.17522455751895905 -0.007259747013449669 -0.00195284653455019 0 0 0 0
2285359724 0.205010324716568 -0.19317659735679626 -0.007074527442455292 -0.0012908140197396278 0 0 0 0
2289081808 0.19149711728096008 -0.2121899425983429 -0.007086784578859806 -0.0008307825773954391 0 0 0 0
2292803892 0.1801495999097824 -0.2258753627538681 -0.007132920436561108 -0.0005904436111450195 0 0 0 0
2296525976 0.15853901207447052 -0.23859557509422302 -0.007453311234712601 0.00017418060451745987 0 0 0 0
2300248060 0.14041751623153687 -0.2480495572090149 -0.00738398265093565 0.0008261660113930702 0 0 0 0
2303970144 0.12804150581359863 -0.25270524621009827 -0.007628807798027992 0.0013345787301659584 0 0 0 0
2307692228 0.10016080737113953 -0.25282377004623413 -0.00786482635885477 0.0019199708476662636 0 0 0 0
2311414312 0.07813160121440887 -0.2514047920703888 -0.008258558809757233 0.0031838426366448402 0 0 0 0
2315136396 0.06125252693891525 -0.2456173300743103 -0.008049309253692627 0.004666965454816818 0 0 0 0
2318858480 0.039380356669425964 -0.2364920973777771 -0.0073722125962376595 0.006073376163840294 0 0 0 0
2322580564 0.020964451134204865 -0.2241295427083969 -0.006253561936318874 0.007394725456833839 0 0 0 0
2326302648 0.0040393248200416565 -0.20794488489627838 -0.004763583652675152 0.008157063275575638 0 0 0 0
2330024732 -0.005711644887924194 -0.18896164000034332 -0.003360043279826641 0.008534533903002739 0 0 0 0
2333746816 -0.012389078736305237 -0.16881106793880463 -0.002122405916452408 0.008486827835440636 0 0 0 0
2337468900 -0.01712659001350403 -0.14817623794078827 -0.0010649468749761581 0.008426588959991932 0 0 0 0
2341190984 -0.02222096174955368 -0.1240948960185051 0.00021723750978708267 0.008234117180109024 0 0 0 0
2344913068 -0.01745561510324478 -0.10072633624076843 0.0013133855536580086 0.007680904120206833 0 0 0 0
2348635152 -0.011445045471191406 -0.07813195884227753 0.0020384686067700386 0.006666149012744427 0 0 0 0
2352357236 -0.0010601989924907684 -0.0571613647043705 0.0021440787240862846 0.005514742806553841 0 0 0 0
2356079320 0.015173468738794327 -0.03738874942064285 0.0019341781735420227 0.005021532066166401 0 0 0 0
2359801404 0.03295006603002548 -0.021435337141156197 0.0017329752445220947 0.005139960907399654 0 0 0 0
2363523488 0.05303184688091278 -0.009014395996928215 0.0020118867978453636 0.005656572990119457 0 0 0 0
2367245572 0.07465843856334686 0.0008923625573515892 0.0031191976740956306 0.005934772081673145 0 0 0 0
2370967656 0.09813752770423889 0.0070235952734947205 0.004617032594978809 0.005151796154677868 0 0 0 0
2374689740 0.12153096497058868 0.008171003311872482 0.005151578225195408 0.003872208297252655 0 0 0 0
2378411824 0.14586293697357178 0.005727887153625488 0.004979051649570465 0.00277124997228384 0 0 0 0
2382133908 0.16935612261295319 0.002318941056728363 0.004873096942901611 0.0024015866219997406 0 0 0 0
2385855992 0.1923086941242218 -0.007670044898986816 0.004795225337147713 0.0018863826990127563 0 0 0 0
2389578076 0.21301552653312683 -0.021161042153835297 0.0049970997497439384 0.0016565332189202309 0 0 0 0
2393300160 0.2323673516511917 -0.035994961857795715 0.005326403304934502 0.0010754130780696869 0 0 0 0
2397022244 0.24906300008296967 -0.05368085950613022 0.005675511434674263 0.00014160014688968658 0 0 0 0
2400744328 0.261379599571228 -0.07822810858488083 0.005454552359879017 -0.0008453400805592537 0 0 0 0
2404466412 0.27218151092529297 -0.09855268895626068 0.005042494274675846 -0.0015224609524011612 0 0 0 0
2408188496 0.2782427966594696 -0.12695422768592834 0.004826171323657036 -0.0019910335540771484 0 0 0 0
2411910580 0.28112733364105225 -0.15218794345855713 0.00470145046710968 -0.0025759125128388405 0 0 0 0
2415632664 0.27847203612327576 -0.18117094039916992 0.004263575188815594 -0.0035739922896027565 0 0 0 0
2419354748 0.270134836435318 -0.20660492777824402 0.00350995734333992 -0.0044684214517474174 0 0 0 0
2423076832 0.2626607120037079 -0.22907745838165283 0.002846027724444866 -0.005038176663219929 0 0 0 0
2426798916 0.2459392249584198 -0.25374868512153625 0.001878492534160614 -0.005505730397999287 0 0 0 0
2430521000 0.22895866632461548 -0.2721961438655853 0.0009407065808773041 -0.0057528018951416016 0 0 0 0
2434243084 0.207925945520401 -0.2904536724090576 -0.0004562884569168091 -0.005878755822777748 0 0 0 0
2437965168 0.1871025264263153 -0.3031603991985321 -0.0018015671521425247 -0.005826432257890701 0 0 0 0
2441687252 0.16287684440612793 -0.313353031873703 -0.0029923049733042717 -0.004926510155200958 0 0 0 0
2445409336 0.13571132719516754 -0.32199254631996155 -0.00380609929561615 -0.0036142682656645775 0 0 0 0
2449131420 0.10617263615131378 -0.32396990060806274 -0.0037426892668008804 -0.002335738390684128 0 0 0 0
2452853504 0.08314558118581772 -0.32327091693878174 -0.003250786103308201 -0.001387045718729496 0 0 0 0
2456575588 0.05566149950027466 -0.3190058171749115 -0.002519110217690468 -0.0011848555877804756 0 0 0 0
2460297672 0.024816766381263733 -0.31114518642425537 -0.002326054498553276 -0.001367432065308094 0 0 0 0
2464019756 0.0023796865716576576 -0.29765045642852783 -0.00267134141176939 -0.0013897009193897247 0 0 0 0
2467741840 -0.02251323312520981 -0.28070932626724243 -0.0029250923544168472 -0.001197568140923977 0 0 0 0
2471463924 -0.04670466482639313 -0.2614367604255676 -0.0027316054329276085 -0.0008994787931442261 0 0 0 0
2475186008 -0.0623808428645134 -0.23865461349487305 -0.0025765812024474144 -0.0005448143929243088 0 0 0 0
2478908092 -0.07744847238063812 -0.2111309915781021 -0.002187492325901985 -0.0006948113441467285 0 0 0 0
2482630176 -0.08843609690666199 -0.18069449067115784 -0.002349567599594593 -0.0010212678462266922 0 0 0 0
2486352260 -0.09319992363452911 -0.15046386420726776 -0.0028738882392644882 -0.0012573497369885445 0 0 0 0
2490074344 -0.09429468214511871 -0.11846969276666641 -0.0033060507848858833 -0.0007209125906229019 0 0 0 0
2493796428 -0.08977200835943222 -0.08665996789932251 -0.0030600493773818016 -4.339870065450668e-05 0 0 0 0
2497518512 -0.08059532940387726 -0.05579206347465515 -0.0027561448514461517 9.938981384038925e-05 0 0 0 0
2501240596 -0.06523706763982773 -0.02666577324271202 -0.0023430949077010155 1.611188054084778e-05 0 0 0 0
2504962680 -0.045965734869241714 -0.0011661117896437645 -0.002307359129190445 -0.0006236862391233444 0 0 0 0
2508684764 -0.022519933059811592 0.021643392741680145 -0.0028012236580252647 -0.0009582312777638435 0 0 0 0
2512406848 0.003881337121129036 0.03983067348599434 -0.0035786544904112816 -0.0011135106906294823 0 0 0 0
2516128932 0.032612431794404984 0.05328763276338577 -0.004339591600000858 -0.0007199440151453018 0 0 0 0
2519851016 0.06300640851259232 0.06383653730154037 -0.0050352271646261215 5.223788321018219e-05 0 0 0 0
2523573100 0.09623968601226807 0.0674770176410675 -0.005512485280632973 0.0010624052956700325 0 0 0 0
2527295184 0.12865179777145386 0.06595607101917267 -0.005338400602340698 0.002135038375854492 0 0 0 0
2531017268 0.1598616987466812 0.05967877432703972 -0.004995743744075298 0.002918076701462269 0 0 0 0
2534739352 0.19022929668426514 0.043466754257678986 -0.004322168417274952 0.003505755215883255 0 0 0 0
2538461436 0.21621620655059814 0.026055023074150085 -0.003887672908604145 0.003910829313099384 0 0 0 0
2542183520 0.23726581037044525 0.005631003528833389 -0.0035239430144429207 0.004202690906822681 0 0 0 0
2545905604 0.25410887598991394 -0.020074760541319847 -0.003413058817386627 0.004729685373604298 0 0 0 0
2549627688 0.2675858438014984 -0.0447046123445034 -0.0029546329751610756 0.005468044430017471 0 0 0 0
2553349772 0.277155339717865 -0.07005015760660172 -0.0021713627502322197 0.006082633510231972 0 0 0 0
2557071856 0.28115957975387573 -0.09688577055931091 -0.001012551598250866 0.006624630652368069 0 0 0 0
2560793940 0.2823549807071686 -0.12147098034620285 0.0001247534528374672 0.006768560037016869 0 0 0 0
2564516024 0.27794408798217773 -0.15021632611751556 0.0010060593485832214 0.006727136671543121 0 0 0 0
2568238108 0.27086538076400757 -0.17270605266094208 0.001953529193997383 0.006693627685308456 0 0 0 0
2571960192 0.2594451606273651 -0.19532674551010132 0.003216983750462532 0.0064641982316970825 0 0 0 0
2575682276 0.24375593662261963 -0.21820366382598877 0.0044772205874323845 0.005904904566705227 0 0 0 0
2579404360 0.22872012853622437 -0.23306238651275635 0.005629550665616989 0.005160916596651077 0 0 0 0
2583126444 0.20990385115146637 -0.24830713868141174 0.006674404256045818 0.004001151770353317 0 0 0 0
2586848528 0.1887449473142624 -0.2593374252319336 0.007344803772866726 0.0026939790695905685 0 0 0 0
2590570612 0.16917888820171356 -0.26450008153915405 0.00754085648804903 0.0012453123927116394 0 0 0 0
2594292696 0.14672495424747467 -0.26910528540611267 0.00761460792273283 -0.0001498619094491005 0 0 0 0
2598014780 0.12458082288503647 -0.27033135294914246 0.007679269649088383 -0.001086539588868618 0 0 0 0
2601736864 0.10817664861679077 -0.2667476534843445 0.007688106968998909 -0.0024486007168889046 0 0 0 0
2605458948 0.08656218647956848 -0.2598665952682495 0.0072455815970897675 -0.003877464681863785 0 0 0 0
2609181032 0.06866901367902756 -0.2516118586063385 0.006628013215959072 -0.0052632903680205345 0 0 0 0
2612903116 0.05431988090276718 -0.2404341995716095 0.005425981245934963 -0.006406803615391254 0 0 0 0
2616625200 0.042368486523628235 -0.227677583694458 0.004317766055464745 -0.0070432256907224655 0 0 0 0
2620347284 0.030870400369167328 -0.21440497040748596 0.0032538296654820442 -0.007369985803961754 0 0 0 0
2624069368 0.023055702447891235 -0.19945518672466278 0.002379525452852249 -0.007878437638282776 0 0 0 0
2627791452 0.019223742187023163 -0.18087135255336761 0.0016375957056879997 -0.008212200365960598 0 0 0 0
2631513536 0.017482774332165718 -0.16384257376194 0.0006146952509880066 -0.00876689050346613 0 0 0 0
2635235620 0.01900462806224823 -0.14738936722278595 -0.00016482174396514893 -0.009347743354737759 0 0 0 0
2638957704 0.023044191300868988 -0.13386976718902588 -0.0015161819756031036 -0.01016024686396122 0 0 0 0
2642679788 0.029880696907639503 -0.11990823596715927 -0.003541938029229641 -0.010890592820942402 0 0 0 0
2646401872 0.03868595138192177 -0.10928256809711456 -0.006145386956632137 -0.010834547691047192 0 0 0 0
2650123956 0.04887520521879196 -0.09988129138946533 -0.00872918963432312 -0.009765484370291233 0 0 0 0
2653846040 0.05885545164346695 -0.09332527965307236 -0.01091708056628704 -0.007843021303415298 0 0 0 0
2657568124 0.07345016300678253 -0.0880027785897255 -0.0124006737023592 -0.005248739384114742 0 0 0 0
2661290208 0.08782953023910522 -0.08635435998439789 -0.012962376698851585 -0.0025395890697836876 0 0 0 0
2665012292 0.1010461300611496 -0.08912336826324463 -0.01250117365270853 0.0001346701756119728 0 0 0 0
2668734376 0.11265996098518372 -0.09524233639240265 -0.011678468436002731 0.0018003955483436584 0 0 0 0
2672456460 0.12226516008377075 -0.1028977483510971 -0.011187601834535599 0.0030251890420913696 0 0 0 0
2676178544 0.12992024421691895 -0.11286935955286026 -0.010999009944498539 0.004608127288520336 0 0 0 0
2679900628 0.13534194231033325 -0.12244804948568344 -0.010426499880850315 0.006774782203137875 0 0 0 0
2683622712 0.13760553300380707 -0.1335321068763733 -0.008789102546870708 0.008995749056339264 0 0 0 0
2687344796 0.13777770102024078 -0.14509737491607666 -0.006479186937212944 0.01032884418964386 0 0 0 0
2691066880 0.1347653716802597 -0.15592095255851746 -0.003979324363172054 0.01080381777137518 0 0 0 0
2694788964 0.13010604679584503 -0.16575390100479126 -0.002368411049246788 0.010534349828958511 0 0 0 0
2698511048 0.12161638587713242 -0.17497001588344574 -0.0007103104144334793 0.01040690578520298 0 0 0 0
2702233132 0.11635343730449677 -0.18155178427696228 0.0006553772836923599 0.010433177463710308 0 0 0 0
2705955216 0.10700550675392151 -0.18922361731529236 0.0023169368505477905 0.010485045611858368 0 0 0 0
2709677300 0.09263065457344055 -0.1955379992723465 0.004428035579621792 0.010195695795118809 0 0 0 0
2713399384 0.08281383663415909 -0.1972440630197525 0.00696235615760088 0.009224184788763523 0 0 0 0
2717121468 0.07054167240858078 -0.19736862182617188 0.008758286014199257 0.007454786449670792 0 0 0 0
2720843552 0.0574515163898468 -0.196664497256279 0.009736142121255398 0.0050407592207193375 0 0 0 0
2724565636 0.042305849492549896 -0.19386841356754303 0.010234965942800045 0.0029609454795718193 0 0 0 0
2728287720 0.029069431126117706 -0.1853918731212616 0.010406333953142166 0.0010301554575562477 0 0 0 0
2732009804 0.01591494306921959 -0.1757088005542755 0.010509748011827469 -0.0007096976041793823 0 0 0 0
2735731888 0.007410891354084015 -0.1632975935935974 0.010497283190488815 -0.00282858032733202 0 0 0 0
2739453972 -0.0010414496064186096 -0.14923949539661407 0.00987989455461502 -0.005067035555839539 0 0 0 0
2743176056 -0.007089084945619106 -0.133931964635849 0.008666017092764378 -0.007253994233906269 0 0 0 0
2746898140 -0.011795464903116226 -0.11691528558731079 0.006809425540268421 -0.008844412863254547 0 0 0 0
2750620224 -0.011650378815829754 -0.09894099086523056 0.00483312364667654 -0.010017615742981434 0 0 0 0
2754342308 -0.008977001532912254 -0.080037422478199 0.002696715295314789 -0.01065819337964058 0 0 0 0
2758064392 -0.0024074986577033997 -0.062337324023246765 0.0003788471221923828 -0.010762812569737434 0 0 0 0
2761786476 0.0066916607320308685 -0.0459921732544899 -0.0018721790984272957 -0.01055130735039711 0 0 0 0
2765508560 0.019129861146211624 -0.031162578612565994 -0.003903278149664402 -0.009662162512540817 0 0 0 0
2769230644 0.03256615996360779 -0.018907975405454636 -0.005507775582373142 -0.008397660218179226 0 0 0 0
2772952728 0.04822852090001106 -0.007532665506005287 -0.006632231175899506 -0.00677733588963747 0 0 0 0
2776674812 0.06556530296802521 0.0017635058611631393 -0.007310863584280014 -0.00534456130117178 0 0 0 0
2780396896 0.08406815677881241 0.008282143622636795 -0.007914885878562927 -0.004044987261295319 0 0 0 0
2784118980 0.10486418753862381 0.012244302779436111 -0.008556722663342953 -0.0026857173070311546 0 0 0 0
2787841064 0.12636713683605194 0.01401854120194912 -0.00889734085649252 -0.0008844546973705292 0 0 0 0
2791563148 0.14932146668434143 0.010220631957054138 -0.008534219115972519 0.0013352222740650177 0 0 0 0
2795285232 0.17146779596805573 0.0017255209386348724 -0.007346963509917259 0.0028483327478170395 0 0 0 0
2799007316 0.1926080882549286 -0.008189886808395386 -0.006164281629025936 0.003781077452003956 0 0 0 0
2802729400 0.21298466622829437 -0.025504685938358307 -0.00526005681604147 0.0043522659689188 0 0 0 0
2806451484 0.22827282547950745 -0.04242130368947983 -0.004229576326906681 0.0051488615572452545 0 0 0 0
2810173568 0.24196666479110718 -0.06083231046795845 -0.0031782910227775574 0.005710426717996597 0 0 0 0
2813895652 0.25243932008743286 -0.08613826334476471 -0.0016967691481113434 0.00585565809160471 0 0 0 0
2817617736 0.25927841663360596 -0.10734504461288452 -0.00043468549847602844 0.005899840034544468 0 0 0 0
2821339820 0.262290894985199 -0.13608922064304352 0.0007225694134831429 0.005437521263957024 0 0 0 0
2825061904 0.26214468479156494 -0.1556292325258255 0.001640397123992443 0.004880836233496666 0 0 0 0
2828783988 0.2568354606628418 -0.1823543906211853 0.0023350659757852554 0.004208249039947987 0 0 0 0
2832506072 0.2479088306427002 -0.20559389889240265 0.0028119580820202827 0.00347836222499609 0 0 0 0
2836228156 0.23540273308753967 -0.22824031114578247 0.003131563775241375 0.0028131911531090736 0 0 0 0
2839950240 0.22328001260757446 -0.2478037029504776 0.0033876197412610054 0.0024454565718770027 0 0 0 0
2843672324 0.20553679764270782 -0.26648345589637756 0.0036433348432183266 0.0018785921856760979 0 0 0 0
2847394408 0.18611107766628265 -0.2810918688774109 0.003994070924818516 0.0014158841222524643 0 0 0 0
2851116492 0.16646364331245422 -0.29481664299964905 0.004342171363532543 0.00096147321164608 0 0 0 0
2854838576 0.14091047644615173 -0.3055254817008972 0.0046944888308644295 0.00025332439690828323 0 0 0 0
2858560660 0.1274026334285736 -0.31164175271987915 0.005160059779882431 -0.0009557083249092102 0 0 0 0
2862282744 0.09580118209123611 -0.31657281517982483 0.004970879293978214 -0.0022448254749178886 0 0 0 0
2866004828 0.07249674201011658 -0.318093866109848 0.00455218181014061 -0.0030732350423932076 0 0 0 0
2869726912 0.05306752771139145 -0.3153824508190155 0.003929297439754009 -0.0039421571418643 0 0 0 0
2873448996 0.031721681356430054 -0.31102681159973145 0.003107605502009392 -0.004676023498177528 0 0 0 0
2877171080 0.009322494268417358 -0.3033079206943512 0.002068251371383667 -0.005149743519723415 0 0 0 0
2880893164 -0.017313456162810326 -0.29340416193008423 0.000899425707757473 -0.005219593644142151 0 0 0 0
2884615248 -0.039756663143634796 -0.2798401415348053 3.206264227628708e-05 -0.0049611711874604225 0 0 0 0
2888337332 -0.054581835865974426 -0.26451388001441956 -0.0006600525230169296 -0.004686737433075905 0 0 0 0
2892059416 -0.07089026272296906 -0.24548302590847015 -0.0013519935309886932 -0.004416845738887787 0 0 0 0
2895781500 -0.08458521962165833 -0.22620795667171478 -0.0022287461906671524 -0.003848693333566189 0 0 0 0
2899503584 -0.09863143414258957 -0.20304115116596222 -0.0027498193085193634 -0.0030286628752946854 0 0 0 0
2903225668 -0.10730999708175659 -0.17965786159038544 -0.002962576225399971 -0.0019197091460227966 0 0 0 0
2906947752 -0.112775057554245 -0.15483802556991577 -0.0027765678241848946 -0.0011976342648267746 0 0 0 0
2910669836 -0.11572761088609695 -0.12852615118026733 -0.00242416188120842 -0.00040494464337825775 0 0 0 0
2914391920 -0.1132902279496193 -0.10417058318853378 -0.0020434288308024406 -6.960704922676086e-05 0 0 0 0
2918114004 -0.10856153070926666 -0.07920505106449127 -0.001477397046983242 0.00023313239216804504 0 0 0 0
2921836088 -0.10049619525671005 -0.05570313706994057 -0.0012322887778282166 0.0003421315923333168 0 0 0 0
2925558172 -0.08933340758085251 -0.033668771386146545 -0.0008379686623811722 0.00025968533009290695 0 0 0 0
2929280256 -0.07555598020553589 -0.014740845188498497 -0.0008210055530071259 0.0002742055803537369 0 0 0 0
2933002340 -0.060793034732341766 0.0030837282538414 -0.0007424503564834595 0.0003389734774827957 0 0 0 0
2936724424 -0.04395122081041336 0.018672702834010124 -0.000754878856241703 0.0005980441346764565 0 0 0 0
2940446508 -0.024974899366497993 0.03265819698572159 -0.000599980354309082 0.0007893480360507965 0 0 0 0
2944168592 -0.004464173689484596 0.04319533705711365 -9.406637400388718e-05 0.001211516559123993 0 0 0 0
2947890676 0.015634872019290924 0.05198094621300697 0.0005320077762007713 0.0014122109860181808 0 0 0 0
2951612760 0.03675629198551178 0.05799993872642517 0.0012702131643891335 0.0010459348559379578 0 0 0 0
2955334844 0.05791260674595833 0.061358749866485596 0.0016783000901341438 0.0003141183406114578 0 0 0 0
2959056928 0.07915451377630234 0.06407855451107025 0.001473679207265377 -0.00024430546909570694 0 0 0 0
2962779012 0.10189399123191833 0.06294267624616623 0.0011288346722722054 -0.0004896204918622971 0 0 0 0
2966501096 0.12412870675325394 0.06034090369939804 0.0009881211444735527 -0.0005014752969145775 0 0 0 0
2970223180 0.147477924823761 0.05488567426800728 0.0009126272052526474 -0.0002992795780301094 0 0 0 0
2973945264 0.16991116106510162 0.046131543815135956 0.0009905388578772545 -0.0001242244616150856 0 0 0 0
2977667348 0.19244104623794556 0.03216870129108429 0.001462387852370739 -0.00012094900012016296 0 0 0 0
2981389432 0.21213728189468384 0.016487054526805878 0.0017068861052393913 -0.000474514439702034 0 0 0 0
2985111516 0.2285277098417282 -0.0016842633485794067 0.0017103701829910278 -0.0008525438606739044 0 0 0 0
2988833600 0.2428094893693924 -0.02300754189491272 0.0013534510508179665 -0.0014319568872451782 0 0 0 0
2992555684 0.25385239720344543 -0.04233407974243164 0.0011078743264079094 -0.0017081750556826591 0 0 0 0
2996277768 0.2617539167404175 -0.06473425775766373 0.0007613273337483406 -0.001820707693696022 0 0 0 0
2999999852 0.26530373096466064 -0.09088530391454697 0.00013454630970954895 -0.00186214130371809 0 0 0 0
