# HZ S RI R 50
1500000000 -0.00532176997512579 -0.03862064704298973 0.026722513139247894 -0.026828903704881668 0 0 0 0
1503722084 0.00551972258836031 -0.03261186555027962 0.021727200597524643 -0.02994520030915737 0 0 0 0
1507444168 0.018192864954471588 -0.027095813304185867 0.01688896119594574 -0.031865768134593964 0 0 0 0
1511166252 0.03281332179903984 -0.022487448528409004 0.012547568418085575 -0.033730145543813705 0 0 0 0
1514888336 0.04978996142745018 -0.018669946119189262 0.007717653177678585 -0.03605117276310921 0 0 0 0
1518610420 0.06765623390674591 -0.01824389584362507 0.000941193662583828 -0.03755392134189606 0 0 0 0
1522332504 0.0855422392487526 -0.018217477947473526 -0.00635418388992548 -0.036731742322444916 0 0 0 0
1526054588 0.1050863265991211 -0.018879428505897522 -0.012993103824555874 -0.03380092233419418 0 0 0 0
1529776672 0.1274152249097824 -0.02152746170759201 -0.017968803644180298 -0.02925531193614006 0 0 0 0
1533498756 0.15221534669399261 -0.02939143404364586 -0.02155259996652603 -0.02479168213903904 0 0 0 0
1537220840 0.1770986020565033 -0.040133215487003326 -0.024273093789815903 -0.02016896940767765 0 0 0 0
1540942924 0.2028253972530365 -0.057418569922447205 -0.02611222118139267 -0.015418581664562225 0 0 0 0
1544665008 0.22816942632198334 -0.07676780968904495 -0.02704778127372265 -0.01075977273285389 0 0 0 0
1548387092 0.24898310005664825 -0.10658583045005798 -0.027190055698156357 -0.005874522961676121 0 0 0 0
1552109176 0.2670164108276367 -0.13793422281742096 -0.026262780651450157 -0.0014975536614656448 0 0 0 0
1555831260 0.2780414819717407 -0.1738869845867157 -0.024740194901823997 0.002202305942773819 0 0 0 0
1559553344 0.28421837091445923 -0.21156318485736847 -0.02286125347018242 0.005242899060249329 0 0 0 0
1563275428 0.28659477829933167 -0.2499408721923828 -0.02110949531197548 0.007923798635601997 0 0 0 0
1566997512 0.281130850315094 -0.2905128300189972 -0.0191749706864357 0.010211631655693054 0 0 0 0
1570719596 0.27142998576164246 -0.32932740449905396 -0.016674835234880447 0.012548316270112991 0 0 0 0
1574441680 0.2550891041755676 -0.36972323060035706 -0.013922246173024178 0.0141017846763134 0 0 0 0
1578163764 0.23129326105117798 -0.40902969241142273 -0.010914644226431847 0.014949409291148186 0 0 0 0
1581885848 0.20298674702644348 -0.44503089785575867 -0.008552104234695435 0.015095144510269165 0 0 0 0
1585607932 0.16937685012817383 -0.47741833329200745 -0.006412884220480919 0.015184181742370129 0 0 0 0
1589330016 0.1277148574590683 -0.5055708289146423 -0.004387653432786465 0.015155680477619171 0 0 0 0
1593052100 0.07823294401168823 -0.5270848870277405 -0.002778231166303158 0.014938934706151485 0 0 0 0
1596774184 0.030323997139930725 -0.5408710837364197 -0.0011753123253583908 0.01477277372032404 0 0 0 0
1600496268 -0.02259693294763565 -0.5466997027397156 0.00045983772724866867 0.014725951477885246 0 0 0 0
1604218352 -0.07537519931793213 -0.5460888743400574 0.0023508304730057716 0.01439571101218462 0 0 0 0
1607940436 -0.1251383274793625 -0.5387676954269409 0.00391767080873251 0.013825522735714912 0 0 0 0
1611662520 -0.18316489458084106 -0.5236698389053345 0.005590979941189289 0.01326097920536995 0 0 0 0
1615384604 -0.23547090590000153 -0.5012198686599731 0.007500316947698593 0.012474783696234226 0 0 0 0
1619106688 -0.28713417053222656 -0.47012338042259216 0.009431769140064716 0.011247893795371056 0 0 0 0
1622828772 -0.336032509803772 -0.42676490545272827 0.010919207707047462 0.009553973563015461 0 0 0 0
1626550856 -0.3788483738899231 -0.37689346075057983 0.012123029679059982 0.007767610251903534 0 0 0 0
1630272940 -0.4136570692062378 -0.31720995903015137 0.012979405000805855 0.005900655873119831 0 0 0 0
1633995024 -0.4382210969924927 -0.2561868131160736 0.013668251223862171 0.003929273225367069 0 0 0 0
1637717108 -0.4548056125640869 -0.18832702934741974 0.01426514983177185 0.0017289388924837112 0 0 0 0
1641439192 -0.46095892786979675 -0.11681406199932098 0.014523199759423733 -0.000665946863591671 0 0 0 0
1645161276 -0.45581984519958496 -0.04373127222061157 0.014070767909288406 -0.0033951541408896446 0 0 0 0
1648883360 -0.44004344940185547 0.030252650380134583 0.012696835212409496 -0.005736260674893856 0 0 0 0
1652605444 -0.41005972027778625 0.10278648138046265 0.011295336298644543 -0.007426675409078598 0 0 0 0
1656327528 -0.3695414662361145 0.1695227324962616 0.009845206514000893 -0.008533705957233906 0 0 0 0
1660049612 -0.3154739737510681 0.2307610958814621 0.008571687154471874 -0.009629246778786182 0 0 0 0
1663771696 -0.25206702947616577 0.28213566541671753 0.0072272829711437225 -0.011011945083737373 0 0 0 0
1667493780 -0.1828244924545288 0.32353606820106506 0.005235517397522926 -0.012430716305971146 0 0 0 0
1671215864 -0.102180615067482 0.35545647144317627 0.0027982499450445175 -0.013125324621796608 0 0 0 0
1674937948 -0.019310005009174347 0.37148091197013855 0.00022212788462638855 -0.013396911323070526 0 0 0 0
1678660032 0.06536445021629333 0.373760461807251 -0.002699469216167927 -0.012799475342035294 0 0 0 0
1682382116 0.150139719247818 0.36146080493927 -0.005049611441791058 -0.011238696053624153 0 0 0 0
1686104200 0.23089271783828735 0.3368409276008606 -0.0065649934113025665 -0.009373409673571587 0 0 0 0
1689826284 0.3085516095161438 0.2960766553878784 -0.007545309141278267 -0.007485269568860531 0 0 0 0
1693548368 0.3754975497722626 0.24757489562034607 -0.008055325597524643 -0.0054437099024653435 0 0 0 0
1697270452 0.43305593729019165 0.18943138420581818 -0.008104721084237099 -0.003751371055841446 0 0 0 0
1700992536 0.4816235899925232 0.12463012337684631 -0.00771965179592371 -0.0022304262965917587 0 0 0 0
1704714620 0.518779456615448 0.049162983894348145 -0.00705112237483263 -0.0010000113397836685 0 0 0 0
1708436704 0.544382631778717 -0.027028888463974 -0.006253411993384361 -0.0003298614174127579 0 0 0 0
1712158788 0.5576961040496826 -0.1064673587679863 -0.005758095532655716 0.00018444471061229706 0 0 0 0
1715880872 0.5563341379165649 -0.18503645062446594 -0.00524548627436161 0.0006544189527630806 0 0 0 0
1719602956 0.545233428478241 -0.2630835771560669 -0.004618325270712376 0.0009052306413650513 0 0 0 0
1723325040 0.521407961845398 -0.33769842982292175 -0.0040573012083768845 0.0008745556697249413 0 0 0 0
1727047124 0.4910142123699188 -0.4054521322250366 -0.0038366205990314484 0.0005057435482740402 0 0 0 0
1730769208 0.4440508782863617 -0.46945440769195557 -0.004057109355926514 0.00046895816922187805 0 0 0 0
1734491292 0.3922368884086609 -0.5240330696105957 -0.004278490319848061 0.0007132478058338165 0 0 0 0
1738213376 0.33383283019065857 -0.5699764490127563 -0.004321795888245106 0.0009833723306655884 0 0 0 0
1741935460 0.2687913775444031 -0.6071423292160034 -0.004382112994790077 0.0011391909793019295 0 0 0 0
1745657544 0.2024538815021515 -0.6329303979873657 -0.004802325740456581 0.0012090420350432396 0 0 0 0
1749379628 0.12961044907569885 -0.6455161571502686 -0.005186491645872593 0.0018921196460723877 0 0 0 0
1753101712 0.05866760015487671 -0.6497994065284729 -0.0054183341562747955 0.002525666728615761 0 0 0 0
1756823796 -0.01299123466014862 -0.6420973539352417 -0.005848538130521774 0.0034056492149829865 0 0 0 0
1760545880 -0.08150304853916168 -0.6238611936569214 -0.0060851089656353 0.00471007265150547 0 0 0 0
1764267964 -0.14508339762687683 -0.5950242877006531 -0.005850297398865223 0.0062606967985630035 0 0 0 0
1767990048 -0.20296025276184082 -0.5558677315711975 -0.004826157353818417 0.008037729188799858 0 0 0 0
1771712132 -0.2513572573661804 -0.5121096968650818 -0.0032240813598036766 0.009082566015422344 0 0 0 0
1775434216 -0.2935303747653961 -0.4620510935783386 -0.0016565220430493355 0.009633330628275871 0 0 0 0
1779156300 -0.3246767520904541 -0.40787333250045776 -0.00013923179358243942 0.009898739866912365 0 0 0 0
1782878384 -0.3510180711746216 -0.3485552668571472 0.0012898296117782593 0.009720220230519772 0 0 0 0
1786600468 -0.3671616017818451 -0.2868337333202362 0.0022314321249723434 0.009595178999006748 0 0 0 0
1790322552 -0.37495169043540955 -0.22365865111351013 0.0031763585284352303 0.009856530465185642 0 0 0 0
1794044636 -0.37200045585632324 -0.16040334105491638 0.004745349287986755 0.010239764116704464 0 0 0 0
1797766720 -0.35906457901000977 -0.10049045085906982 0.006521590985357761 0.010246890597045422 0 0 0 0
1801488804 -0.33692872524261475 -0.04497750103473663 0.008583282120525837 0.009915654547512531 0 0 0 0
1805210888 -0.3092077374458313 0.005962371826171875 0.010493475943803787 0.009264947846531868 0 0 0 0
1808932972 -0.27405309677124023 0.052783019840717316 0.012776718474924564 0.008339466527104378 0 0 0 0
1812655056 -0.2328527718782425 0.09287601709365845 0.015457192435860634 0.006647116504609585 0 0 0 0
1816377140 -0.18609318137168884 0.12782667577266693 0.01766340620815754 0.0040219007059931755 0 0 0 0
1820099224 -0.13540244102478027 0.15513291954994202 0.0196172334253788 0.0008918708190321922 0 0 0 0
1823821308 -0.08030109107494354 0.172822967171669 0.02080291137099266 -0.0032495474442839622 0 0 0 0
1827543392 -0.0227922722697258 0.18091481924057007 0.02086152881383896 -0.0076479315757751465 0 0 0 0
1831265476 0.03320895880460739 0.17944854497909546 0.020124509930610657 -0.012359573505818844 0 0 0 0
1834987560 0.08757191151380539 0.16851066052913666 0.017993982881307602 -0.017485860735177994 0 0 0 0
1838709644 0.13736355304718018 0.14953620731830597 0.01374928280711174 -0.02191491797566414 0 0 0 0
1842431728 0.1832517385482788 0.12328208237886429 0.008783861063420773 -0.024570517241954803 0 0 0 0
1846153812 0.22285515069961548 0.0907941684126854 0.0038465848192572594 -0.025682851672172546 0 0 0 0
1849875896 0.25521913170814514 0.05320699140429497 -0.0007830346003174782 -0.026337841525673866 0 0 0 0
1853597980 0.2804250121116638 0.010087773203849792 -0.00630572997033596 -0.02592228353023529 0 0 0 0
1857320064 0.2970682978630066 -0.03235010802745819 -0.011005906388163567 -0.024567516520619392 0 0 0 0
1861042148 0.30696040391921997 -0.07716511189937592 -0.01565292663872242 -0.022197073325514793 0 0 0 0
1864764232 0.308451384305954 -0.12105347216129303 -0.019559191539883614 -0.019188767299056053 0 0 0 0
1868486316 0.30333417654037476 -0.16529126465320587 -0.022796448320150375 -0.015386839397251606 0 0 0 0
1872208400 0.2924456298351288 -0.20454463362693787 -0.02555520087480545 -0.011436184868216515 0 0 0 0
1875930484 0.2744380235671997 -0.2403859943151474 -0.027913544327020645 -0.006411914713680744 0 0 0 0
1879652568 0.24943366646766663 -0.2727789878845215 -0.02893739379942417 -0.0009901821613311768 0 0 0 0
1883374652 0.22214865684509277 -0.29880577325820923 -0.028820080682635307 0.004671016708016396 0 0 0 0
1887096736 0.1910686045885086 -0.31955790519714355 -0.027626218274235725 0.010409115813672543 0 0 0 0
1890818820 0.1599021553993225 -0.33062291145324707 -0.025287216529250145 0.015111127868294716 0 0 0 0
1894540904 0.12574750185012817 -0.3389800190925598 -0.02144480124115944 0.019730936735868454 0 0 0 0
1898262988 0.09450801461935043 -0.341766893863678 -0.01744956523180008 0.02296489104628563 0 0 0 0
1901985072 0.06277842074632645 -0.3387196660041809 -0.013223318383097649 0.025411225855350494 0 0 0 0
1905707156 0.03272991627454758 -0.33139631152153015 -0.008864552713930607 0.027176138013601303 0 0 0 0
1909429240 0.007347133010625839 -0.31747251749038696 -0.004368115216493607 0.028591232374310493 0 0 0 0
1913151324 -0.01747671514749527 -0.30068984627723694 0.0006908997893333435 0.029317891225218773 0 0 0 0
1916873408 -0.03633641451597214 -0.28086984157562256 0.005891856737434864 0.02933548204600811 0 0 0 0
1920595492 -0.052580781280994415 -0.2591761648654938 0.011548692360520363 0.028434960171580315 0 0 0 0
1924317576 -0.06501202285289764 -0.23426823318004608 0.017148565500974655 0.026268301531672478 0 0 0 0
1928039660 -0.07262726128101349 -0.20937077701091766 0.022776484489440918 0.022868474945425987 0 0 0 0
1931761744 -0.07496745884418488 -0.18380820751190186 0.027826538309454918 0.017715472728013992 0 0 0 0
1935483828 -0.0745227262377739 -0.1568235605955124 0.031318020075559616 0.010467102751135826 0 0 0 0
1939205912 -0.0688452273607254 -0.12976893782615662 0.03197512775659561 0.002283475361764431 0 0 0 0
1942927996 -0.05647438019514084 -0.10574229806661606 0.029952486976981163 -0.004140209406614304 0 0 0 0
1946650080 -0.04163575917482376 -0.08511903136968613 0.027527695521712303 -0.009364359080791473 0 0 0 0
1950372164 -0.0233782771974802 -0.06739207357168198 0.024372348561882973 -0.013515766710042953 0 0 0 0
1954094248 -0.0025915764272212982 -0.053320541977882385 0.021236103028059006 -0.017503149807453156 0 0 0 0
1957816332 0.02057410031557083 -0.0434802770614624 0.017405860126018524 -0.02053958550095558 0 0 0 0
1961538416 0.04563058167695999 -0.03710746765136719 0.013183759525418282 -0.02288869395852089 0 0 0 0
1965260500 0.07072412967681885 -0.0361357256770134 0.008918128907680511 -0.02460552379488945 0 0 0 0
1968982584 0.09552918374538422 -0.04035504162311554 0.004520579241216183 -0.025695636868476868 0 0 0 0
1972704668 0.1182769238948822 -0.0504055880010128 -0.0007141279056668282 -0.025764314457774162 0 0 0 0
1976426752 0.13812239468097687 -0.061724353581666946 -0.005270431749522686 -0.024884086102247238 0 0 0 0
1980148836 0.1558903604745865 -0.07641111314296722 -0.009837118908762932 -0.023289747536182404 0 0 0 0
1983870920 0.17061364650726318 -0.09495995938777924 -0.014016158878803253 -0.021149439737200737 0 0 0 0
1987593004 0.18290932476520538 -0.11506468802690506 -0.017765387892723083 -0.018132030963897705 0 0 0 0
1991315088 0.19125238060951233 -0.1380627304315567 -0.020756443962454796 -0.013682445511221886 0 0 0 0
1995037172 0.19349361956119537 -0.16312649846076965 -0.0225435309112072 -0.009076984599232674 0 0 0 0
1998759256 0.19131918251514435 -0.18708685040473938 -0.022535623982548714 -0.004830488935112953 0 0 0 0
2002481340 0.18673641979694366 -0.20874063670635223 -0.022721828892827034 -0.0010788608342409134 0 0 0 0
2006203424 0.17588071525096893 -0.23019038140773773 -0.022119008004665375 0.0028534960001707077 0 0 0 0
2009925508 0.16010157763957977 -0.251242458820343 -0.02085909992456436 0.00665497500449419 0 0 0 0
2013647592 0.14522163569927216 -0.26552414894104004 -0.018954098224639893 0.009583850391209126 0 0 0 0
2017369676 0.12466993182897568 -0.2795874774456024 -0.016961902379989624 0.012251636013388634 0 0 0 0
2021091760 0.10439775139093399 -0.288568913936615 -0.014562942087650299 0.014407353475689888 0 0 0 0
2024813844 0.08034990727901459 -0.2957193851470947 -0.011956283822655678 0.016201911494135857 0 0 0 0
2028535928 0.0548529289662838 -0.29800593852996826 -0.009414222091436386 0.017679285258054733 0 0 0 0
2032258012 0.030364826321601868 -0.29607948660850525 -0.006766846403479576 0.019165581092238426 0 0 0 0
2035980096 0.006715769879519939 -0.28963422775268555 -0.0037088077515363693 0.019807307049632072 0 0 0 0
2039702180 -0.016165494918823242 -0.27870506048202515 -0.0002908250316977501 0.020105551928281784 0 0 0 0
2043424264 -0.038409799337387085 -0.26428449153900146 0.0028509944677352905 0.01982654444873333 0 0 0 0
2047146348 -0.05742233246564865 -0.24512802064418793 0.006214812397956848 0.018842240795493126 0 0 0 0
2050868432 -0.07393208146095276 -0.2233070731163025 0.009113235399127007 0.01698370650410652 0 0 0 0
2054590516 -0.08553239703178406 -0.19950607419013977 0.010618428699672222 0.015072567388415337 0 0 0 0
2058312600 -0.09507346898317337 -0.17204222083091736 0.012046793475747108 0.013686459511518478 0 0 0 0
2062034684 -0.09941251575946808 -0.14469191431999207 0.014234776608645916 0.012483465485274792 0 0 0 0
2065756768 -0.10052520036697388 -0.11518052220344543 0.01662890613079071 0.01049085147678852 0 0 0 0
2069478852 -0.09508462995290756 -0.08536641299724579 0.018772324547171593 0.007923953235149384 0 0 0 0
2073200936 -0.0854511708021164 -0.0549762025475502 0.0206294022500515 0.004442530684173107 0 0 0 0
2076923020 -0.06964614987373352 -0.027825666591525078 0.021494019776582718 -3.489851951599121e-05 0 0 0 0
2080645104 -0.05066414922475815 -0.0021530352532863617 0.021115172654390335 -0.00437543261796236 0 0 0 0
2084367188 -0.027168985456228256 0.02031123638153076 0.019305653870105743 -0.008771850727498531 0 0 0 0
2088089272 0.0016281399875879288 0.03871861845254898 0.01640726812183857 -0.011949483305215836 0 0 0 0
2091811356 0.03417535498738289 0.05168411508202553 0.013477779924869537 -0.01385277695953846 0 0 0 0
2095533440 0.06641674786806107 0.05814201012253761 0.010619588196277618 -0.015453973785042763 0 0 0 0
2099255524 0.09982936084270477 0.06057604029774666 0.007785777561366558 -0.016590163111686707 0 0 0 0
2102977608 0.1341334879398346 0.057369403541088104 0.004766630008816719 -0.016926726326346397 0 0 0 0
2106699692 0.16802038252353668 0.047850798815488815 0.002559782937169075 -0.016722533851861954 0 0 0 0
2110421776 0.19958865642547607 0.03319746255874634 0.0006093280389904976 -0.017430398613214493 0 0 0 0
2114143860 0.2286568135023117 0.01200910285115242 -0.0021106069907546043 -0.018020832911133766 0 0 0 0
2117865944 0.25294357538223267 -0.013311617076396942 -0.005540650337934494 -0.017935989424586296 0 0 0 0
2121588028 0.2714173495769501 -0.04035148769617081 -0.009154294617474079 -0.0169236920773983 0 0 0 0
2125310112 0.28458866477012634 -0.07272578775882721 -0.01235414668917656 -0.01499875821173191 0 0 0 0
2129032196 0.29120081663131714 -0.10728076845407486 -0.015134913846850395 -0.012350507080554962 0 0 0 0
2132754280 0.29556554555892944 -0.1365959793329239 -0.01719287410378456 -0.008997712284326553 0 0 0 0
2136476364 0.292501300573349 -0.17013464868068695 -0.018539464101195335 -0.0054913777858018875 0 0 0 0
2140198448 0.2849147617816925 -0.20113787055015564 -0.018852848559617996 -0.00167007464915514 0 0 0 0
2143920532 0.27267658710479736 -0.2291286289691925 -0.018198369070887566 0.0021239593625068665 0 0 0 0
2147642616 0.25832512974739075 -0.25364911556243896 -0.016739362850785255 0.00493316724896431 0 0 0 0
2151364700 0.23739486932754517 -0.27646756172180176 -0.015191715210676193 0.007201079279184341 0 0 0 0
2155086784 0.21549701690673828 -0.29571443796157837 -0.013762698508799076 0.009168412536382675 0 0 0 0
2158808868 0.1872965395450592 -0.3113338351249695 -0.012105152010917664 0.010832644067704678 0 0 0 0
2162530952 0.16457176208496094 -0.3193521201610565 -0.010353167541325092 0.012496229261159897 0 0 0 0
2166253036 0.13484874367713928 -0.3260137140750885 -0.008143609389662743 0.014142800122499466 0 0 0 0
2169975120 0.10697359591722488 -0.32772448658943176 -0.005358985625207424 0.015263218432664871 0 0 0 0
2173697204 0.0816410481929779 -0.3254929482936859 -0.0024948175996541977 0.01555724535137415 0 0 0 0
2177419288 0.05478998273611069 -0.3198089897632599 0.00021518394351005554 0.015152846463024616 0 0 0 0
2181141372 0.026845932006835938 -0.30951595306396484 0.0024310294538736343 0.014374267309904099 0 0 0 0
2184863456 0.005360305309295654 -0.2968718111515045 0.004304163157939911 0.013398893177509308 0 0 0 0
2188585540 -0.018871083855628967 -0.27888309955596924 0.0060785748064517975 0.012375765480101109 0 0 0 0
2192307624 -0.035664480179548264 -0.25770464539527893 0.007557716220617294 0.011220387183129787 0 0 0 0
2196029708 -0.050877202302217484 -0.23294813930988312 0.008826065808534622 0.009970094077289104 0 0 0 0
2199751792 -0.061319347470998764 -0.20710836350917816 0.010262074880301952 0.008712772279977798 0 0 0 0
2203473876 -0.06785467267036438 -0.1771324872970581 0.011802825145423412 0.007173454388976097 0 0 0 0
2207195960 -0.06411121040582657 -0.15225215256214142 0.0129619175568223 0.004852908663451672 0 0 0 0
2210918044 -0.05946741998195648 -0.126417875289917 0.013406718149781227 0.002513469196856022 0 0 0 0
2214640128 -0.054477475583553314 -0.10154761373996735 0.01314628031104803 -4.5532360672950745e-05 0 0 0 0
2218362212 -0.04401245713233948 -0.07888569682836533 0.012510379776358604 -0.00230467040091753 0 0 0 0
2222084296 -0.030666867271065712 -0.057411935180425644 0.011614415794610977 -0.004173483699560165 0 0 0 0
2225806380 -0.01311474572867155 -0.03678440302610397 0.010372506454586983 -0.005853133276104927 0 0 0 0
2229528464 0.00816060695797205 -0.019524458795785904 0.009134641848504543 -0.00751004833728075 0 0 0 0
2233250548 0.03262557089328766 -0.007227996364235878 0.007867036387324333 -0.008689023554325104 0 0 0 0
2236972632 0.05873320996761322 2.0341947674751282e-05 0.006166783161461353 -0.00984241347759962 0 0 0 0
2240694716 0.0847114771604538 0.0028824126347899437 0.004151253029704094 -0.01073440071195364 0 0 0 0
2244416800 0.11093520373106003 0.0021227411925792694 0.0022334419190883636 -0.011248813942074776 0 0 0 0
2248138884 0.13592885434627533 -0.00481230765581131 -9.100977331399918e-05 -0.01094292663037777 0 0 0 0
2251860968 0.15928712487220764 -0.017920788377523422 -0.0022279229015111923 -0.010009456425905228 0 0 0 0
2255583052 0.1802665889263153 -0.02883697673678398 -0.0032957689836621284 -0.00909512024372816 0 0 0 0
2259305136 0.19716776907444 -0.05044061318039894 -0.00400017574429512 -0.008241129107773304 0 0 0 0
2263027220 0.21207496523857117 -0.06756432354450226 -0.004813731648027897 -0.007780465297400951 0 0 0 0
2266749304 0.22051185369491577 -0.09158959239721298 -0.005683274939656258 -0.007005434483289719 0 0 0 0
2270471388 0.2243802845478058 -0.11761888116598129 -0.006669388152658939 -0.006195839494466782 0 0 0 0
2274193472 0.22720499336719513 -0.13571937382221222 -0.007225926965475082 -0.004941382445394993 0 0 0 0
2277915556 0.21969640254974365 -0.15975867211818695 -0.007539690472185612 -0.004194656386971474 0 0 0 0
2281637640 0.21520178020000458 -0.17745696008205414 -0.00784594938158989 -0.0035438602790236473 0 0 0 0
2285359724 0.20609736442565918 -0.1947121024131775 -0.00811355747282505 -0.002606702037155628 0 0 0 0
2289081808 0.1925300508737564 -0.21510441601276398 -0.008462745696306229 -0.0019278433173894882 0 0 0 0
2292803892 0.17375873029232025 -0.23219475150108337 -0.008794824592769146 -0.0008244700729846954 0 0 0 0
2296525976 0.15924319624900818 -0.2410426288843155 -0.009108977392315865 -0.00011851266026496887 0 0 0 0
2300248060 0.1393585503101349 -0.2490236908197403 -0.009146841242909431 0.0010447334498167038 0 0 0 0
2303970144 0.12485882639884949 -0.254215270280838 -0.00917012244462967 0.0016859350726008415 0 0 0 0
2307692228 0.09877710789442062 -0.2545400559902191 -0.009214415214955807 0.0027729421854019165 0 0 0 0
2311414312 0.07210400700569153 -0.25270628929138184 -0.009164175018668175 0.004043152555823326 0 0 0 0
2315136396 0.05875753238797188 -0.2445732057094574 -0.008875512517988682 0.00546026136726141 0 0 0 0
2318858480 0.03974767029285431 -0.23597049713134766 -0.008151278831064701 0.0069665974006056786 0 0 0 0
2322580564 0.01956770569086075 -0.22156012058258057 -0.007293797098100185 0.00816202163696289 0 0 0 0
2326302648 0.006639569997787476 -0.20584142208099365 -0.006105953827500343 0.009057499468326569 0 0 0 0
2330024732 -0.001720517873764038 -0.18795962631702423 -0.004782426171004772 0.009649557061493397 0 0 0 0
2333746816 -0.013396088033914566 -0.16827191412448883 -0.003515140153467655 0.010138766840100288 0 0 0 0
2337468900 -0.015953293070197105 -0.14764416217803955 -0.0024167289957404137 0.010659688152372837 0 0 0 0
2341190984 -0.01839737966656685 -0.12475485354661942 -0.0007000444456934929 0.011126784607768059 0 0 0 0
2344913068 -0.01719328761100769 -0.10169650614261627 0.0013406788930296898 0.010891166515648365 0 0 0 0
2348635152 -0.009354614652693272 -0.07945416867733002 0.0028804857283830643 0.009959559887647629 0 0 0 0
2352357236 -0.0015021488070487976 -0.05732037127017975 0.0041650282219052315 0.008555112406611443 0 0 0 0
2356079320 0.01422789879143238 -0.037329938262701035 0.004392133094370365 0.007549000903964043 0 0 0 0
2359801404 0.032166577875614166 -0.021728292107582092 0.004992120899260044 0.006983492523431778 0 0 0 0
2363523488 0.05311835557222366 -0.008177494630217552 0.005557745695114136 0.007024304009974003 0 0 0 0
2367245572 0.07499869912862778 0.0005249530076980591 0.00694404449313879 0.006219582632184029 0 0 0 0
2370967656 0.09819345921278 0.005838491953909397 0.008360667154192924 0.004502885043621063 0 0 0 0
2374689740 0.12259519845247269 0.007913116365671158 0.008586437441408634 0.002447722479701042 0 0 0 0
2378411824 0.14644986391067505 0.005646137520670891 0.008133459836244583 0.0006291735917329788 0 0 0 0
2382133908 0.16934996843338013 -0.00039016082882881165 0.007363110780715942 -0.0005065584555268288 0 0 0 0
2385855992 0.1895751655101776 -0.010003745555877686 0.006615310907363892 -0.001274198293685913 0 0 0 0
2389578076 0.20972727239131927 -0.021585803478956223 0.00603091437369585 -0.0019159140065312386 0 0 0 0
2393300160 0.22873975336551666 -0.035172391682863235 0.005544253624975681 -0.002687864936888218 0 0 0 0
2397022244 0.24570798873901367 -0.05261283740401268 0.005028607323765755 -0.0033989548683166504 0 0 0 0
2400744328 0.2601730525493622 -0.07473612576723099 0.0041215140372514725 -0.004101022146642208 0 0 0 0
2404466412 0.27153897285461426 -0.09917498379945755 0.0031055398285388947 -0.0043563079088926315 0 0 0 0
2408188496 0.27879592776298523 -0.12264041602611542 0.00247297715395689 -0.004407819360494614 0 0 0 0
2411910580 0.28147727251052856 -0.1510923206806183 0.0017669731751084328 -0.004596458747982979 0 0 0 0
2415632664 0.28042012453079224 -0.17711757123470306 0.001148708164691925 -0.004541371017694473 0 0 0 0
2419354748 0.27293139696121216 -0.2032572329044342 0.00024363212287425995 -0.004661042243242264 0 0 0 0
2423076832 0.26482293009757996 -0.2281257063150406 -0.0003893105313181877 -0.0046407487243413925 0 0 0 0
2426798916 0.2482617199420929 -0.2547593116760254 -0.0012013455852866173 -0.004322481341660023 0 0 0 0
2430521000 0.22890713810920715 -0.2742865979671478 -0.0017303656786680222 -0.0041389139369130135 0 0 0 0
2434243084 0.2140030860900879 -0.2920558452606201 -0.007169155403971672 -0.005128948949277401 0 0 0 0
2437965168 0.18731610476970673 -0.3046342432498932 -0.0033450499176979065 -0.0031047100201249123 0 0 0 0
2441687252 0.16343966126441956 -0.31530600786209106 -0.0038543669506907463 -0.002263878472149372 0 0 0 0
2445409336 0.13472282886505127 -0.3243102431297302 -0.004076807759702206 -0.0011032717302441597 0 0 0 0
2449131420 0.10680317878723145 -0.3268144428730011 -0.0036564646288752556 2.823956310749054e-05 0 0 0 0
2452853504 0.08275815844535828 -0.3256170153617859 -0.002878820523619652 0.0007783975452184677 0 0 0 0
2456575588 0.058510832488536835 -0.321254700422287 -0.001746591180562973 0.000807764008641243 0 0 0 0
2460297672 0.025727074593305588 -0.3121601343154907 -0.0014802496880292892 0.0005261031910777092 0 0 0 0
2464019756 0.0012241825461387634 -0.2997744679450989 -0.0012698424980044365 0.00034102238714694977 0 0 0 0
2467741840 -0.02319192886352539 -0.28357169032096863 -0.0011812830343842506 0.0003962581977248192 0 0 0 0
2471463924 -0.046943292021751404 -0.2639726996421814 -0.001327292062342167 0.0007812650874257088 0 0 0 0
2475186008 -0.06583517044782639 -0.24045330286026 -0.0003552371636033058 0.00035373400896787643 0 0 0 0
2478908092 -0.0818755179643631 -0.2128782719373703 9.480025619268417e-05 -0.00021958444267511368 0 0 0 0
2482630176 -0.09275500476360321 -0.18209265172481537 2.4478882551193237e-05 -0.00114417914301157 0 0 0 0
2486352260 -0.09836322069168091 -0.15024612843990326 -0.00043686293065547943 -0.0014667892828583717 0 0 0 0
2490074344 -0.09915061295032501 -0.1173115000128746 -0.0009078104048967361 -0.001716896891593933 0 0 0 0
2493796428 -0.09488414227962494 -0.08401402086019516 -0.0011643776670098305 -0.0016398169100284576 0 0 0 0
2497518512 -0.08422581106424332 -0.051961496472358704 -0.001310085877776146 -0.0018098670989274979 0 0 0 0
2501240596 -0.06828353554010391 -0.021784979850053787 -0.0014256061986088753 -0.0021849991753697395 0 0 0 0
2504962680 -0.04763107746839523 0.004687969572842121 -0.0018507391214370728 -0.0026956992223858833 0 0 0 0
2508684764 -0.022694149985909462 0.0274580717086792 -0.0027502458542585373 -0.0028049759566783905 0 0 0 0
2512406848 0.005487758666276932 0.044947221875190735 -0.0037213535979390144 -0.002675083465874195 0 0 0 0
2516128932 0.03634418547153473 0.05746563524007797 -0.00461387075483799 -0.002239275723695755 0 0 0 0
2519851016 0.0676971971988678 0.06647734344005585 -0.005400935187935829 -0.0015029516071081161 0 0 0 0
2523573100 0.09991437941789627 0.06912778317928314 -0.005914370529353619 -0.0005237413570284843 0 0 0 0
2527295184 0.13261741399765015 0.06613706797361374 -0.006156327202916145 0.0006410600617527962 0 0 0 0
2531017268 0.16389510035514832 0.0575312003493309 -0.005790875293314457 0.0017155306413769722 0 0 0 0
2534739352 0.19277481734752655 0.04400641471147537 -0.005502420477569103 0.0023914258927106857 0 0 0 0
2538461436 0.21838006377220154 0.025409460067749023 -0.005192250944674015 0.002891180105507374 0 0 0 0
2542183520 0.24026432633399963 0.004186972975730896 -0.005048288963735104 0.0033131521195173264 0 0 0 0
2545905604 0.2573069632053375 -0.023062951862812042 -0.0050273071974515915 0.004097346216440201 0 0 0 0
2549627688 0.2701987326145172 -0.04712824895977974 -0.004721260629594326 0.005147621966898441 0 0 0 0
2553349772 0.27879881858825684 -0.07285892218351364 -0.004194631241261959 0.006130359135568142 0 0 0 0
2557071856 0.2832206189632416 -0.1007501631975174 -0.0031714774668216705 0.006990404799580574 0 0 0 0
2560793940 0.2838623523712158 -0.1253289431333542 -0.0020918408408761024 0.007547218352556229 0 0 0 0
2564516024 0.2775173485279083 -0.15559791028499603 -0.0009176675230264664 0.0081277284771204 0 0 0 0
2568238108 0.2689075767993927 -0.17955780029296875 0.0004918491467833519 0.008427901193499565 0 0 0 0
2571960192 0.25739502906799316 -0.1997639238834381 0.002106674946844578 0.008513269945979118 0 0 0 0
2575682276 0.24474430084228516 -0.21822434663772583 0.0038789138197898865 0.008298234082758427 0 0 0 0
2579404360 0.22512100636959076 -0.2375229150056839 0.005670030601322651 0.0075635481625795364 0 0 0 0
2583126444 0.2065643072128296 -0.2495235949754715 0.007030682638287544 0.0062122708186507225 0 0 0 0
2586848528 0.18464697897434235 -0.2612380087375641 0.007977429777383804 0.004393027164041996 0 0 0 0
2590570612 0.1640525907278061 -0.26743972301483154 0.008544747717678547 0.0030988091602921486 0 0 0 0
2594292696 0.14390726387500763 -0.2696949243545532 0.008817569352686405 0.0017184354364871979 0 0 0 0
2598014780 0.12053097039461136 -0.2695935368537903 0.009194174781441689 0.0004259776324033737 0 0 0 0
2601736864 0.103261299431324 -0.2654958963394165 0.009564612060785294 -0.0010440098121762276 0 0 0 0
2605458948 0.08284440636634827 -0.2580292522907257 0.00964323990046978 -0.0027801012620329857 0 0 0 0
2609181032 0.06608158349990845 -0.24912549555301666 0.009205044247210026 -0.004816081374883652 0 0 0 0
2612903116 0.05251361429691315 -0.23715925216674805 0.00826788879930973 -0.006584388203918934 0 0 0 0
2616625200 0.03924406319856644 -0.22436948120594025 0.007154261693358421 -0.007913121953606606 0 0 0 0
2620347284 0.029727675020694733 -0.20987936854362488 0.005713343620300293 -0.009100718423724174 0 0 0 0
2624069368 0.021910153329372406 -0.19430693984031677 0.004381156526505947 -0.009894034825265408 0 0 0 0
2627791452 0.01623004674911499 -0.1770351231098175 0.0029596947133541107 -0.010709993541240692 0 0 0 0
2631513536 0.018452703952789307 -0.15971845388412476 0.0015705125406384468 -0.011248277500271797 0 0 0 0
2635235620 0.020331110805273056 -0.14343053102493286 0.0002002948895096779 -0.012030570767819881 0 0 0 0
2638957704 0.027080554515123367 -0.1282549351453781 -0.0015139970928430557 -0.012777565978467464 0 0 0 0
2642679788 0.03327556326985359 -0.11645059287548065 -0.004243561066687107 -0.013475454412400723 0 0 0 0
2646401872 0.043051838874816895 -0.10691548138856888 -0.0070721907541155815 -0.013298384845256805 0 0 0 0
2650123956 0.05533664673566818 -0.09863840043544769 -0.010200266726315022 -0.011951146647334099 0 0 0 0
2653846040 0.06561797857284546 -0.09406886994838715 -0.012864572927355766 -0.009791973978281021 0 0 0 0
2657568124 0.07823457568883896 -0.09072595834732056 -0.014795541763305664 -0.0068275704979896545 0 0 0 0
2661290208 0.09182475507259369 -0.09034471213817596 -0.01559409499168396 -0.003530067391693592 0 0 0 0
2665012292 0.10279576480388641 -0.09395990520715714 -0.0154208829626441 -0.00045700278133153915 0 0 0 0
2668734376 0.11284603923559189 -0.09929488599300385 -0.014579648151993752 0.0018950654193758965 0 0 0 0
2672456460 0.12269961833953857 -0.10650919377803802 -0.014236114919185638 0.003856300376355648 0 0 0 0
2676178544 0.12904442846775055 -0.1163882166147232 -0.013751504011452198 0.005985228344798088 0 0 0 0
2679900628 0.13476748764514923 -0.12512338161468506 -0.012890726327896118 0.008702517487108707 0 0 0 0
2683622712 0.13589800894260406 -0.13609756529331207 -0.010671637952327728 0.011475822888314724 0 0 0 0
2687344796 0.13463541865348816 -0.1488213837146759 -0.007816499099135399 0.013193263672292233 0 0 0 0
2691066880 0.1334715336561203 -0.15789860486984253 -0.004892650991678238 0.013907687738537788 0 0 0 0
2694788964 0.12467637658119202 -0.16889597475528717 -0.0021339179947972298 0.014124007895588875 0 0 0 0
2698511048 0.11932232230901718 -0.17629806697368622 0.0006192615255713463 0.013722134754061699 0 0 0 0
2702233132 0.11244092881679535 -0.1822015345096588 0.002793841063976288 0.013063822872936726 0 0 0 0
2705955216 0.10226665437221527 -0.1887648105621338 0.004816258326172829 0.012138770893216133 0 0 0 0
2709677300 0.09131071716547012 -0.1920636147260666 0.006862003356218338 0.011223707348108292 0 0 0 0
2713399384 0.08060191571712494 -0.19546282291412354 0.009273006580770016 0.009759614244103432 0 0 0 0
2717121468 0.0685373842716217 -0.19693857431411743 0.011123371310532093 0.007472960278391838 0 0 0 0
2720843552 0.054257556796073914 -0.1951189637184143 0.012103297747671604 0.004712178371846676 0 0 0 0
2724565636 0.042330436408519745 -0.1907605230808258 0.012207799591124058 0.0023245709016919136 0 0 0 0
2728287720 0.026859275996685028 -0.18378962576389313 0.012086732313036919 -2.9589049518108368e-05 0 0 0 0
2732009804 0.015539309941232204 -0.17192739248275757 0.011938131414353848 -0.0019539427012205124 0 0 0 0
2735731888 0.007019759155809879 -0.15946508944034576 0.011616293340921402 -0.0042197490110993385 0 0 0 0
2739453972 -5.8397650718688965e-05 -0.14665542542934418 0.010754970833659172 -0.006479288451373577 0 0 0 0
2743176056 -0.005353432148694992 -0.13170817494392395 0.009120331145823002 -0.008777027018368244 0 0 0 0
2746898140 -0.009317845106124878 -0.11529944837093353 0.007143777795135975 -0.010249347425997257 0 0 0 0
2750620224 -0.01049991324543953 -0.09707121551036835 0.00474963802844286 -0.011321358382701874 0 0 0 0
2754342308 -0.007373815402388573 -0.07851894199848175 0.0026306333020329475 -0.012023640796542168 0 0 0 0
2758064392 -0.0012513641268014908 -0.06051553413271904 0.00012300629168748856 -0.01214957982301712 0 0 0 0
2761786476 0.009224388748407364 -0.043703943490982056 -0.0023108813911676407 -0.011874239891767502 0 0 0 0
2765508560 0.021693794056773186 -0.029321668669581413 -0.004721577279269695 -0.01074233464896679 0 0 0 0
2769230644 0.03591116517782211 -0.017134957015514374 -0.006504584103822708 -0.00909615308046341 0 0 0 0
2772952728 0.05267493799328804 -0.007272940129041672 -0.0076332418248057365 -0.007422126829624176 0 0 0 0
2776674812 0.07108058035373688 0.0005443701520562172 -0.008330407552421093 -0.005887553095817566 0 0 0 0
2780396896 0.09002615511417389 0.004925623536109924 -0.009099213406443596 -0.004434614442288876 0 0 0 0
2784118980 0.10979592800140381 0.008563568815588951 -0.009795881807804108 -0.0029552653431892395 0 0 0 0
2787841064 0.13103920221328735 0.00840475782752037 -0.010368810966610909 -0.0008234325796365738 0 0 0 0
2791563148 0.15283629298210144 0.0029051676392555237 -0.009909102693200111 0.0017147846519947052 0 0 0 0
2795285232 0.17408323287963867 -0.003043733537197113 -0.008433332666754723 0.003503778949379921 0 0 0 0
2799007316 0.1951756775379181 -0.01243782602250576 -0.007105451077222824 0.00435505248606205 0 0 0 0
2802729400 0.21338564157485962 -0.03113318234682083 -0.005920956842601299 0.005002609454095364 0 0 0 0
2806451484 0.22740183770656586 -0.04932844638824463 -0.005017740651965141 0.005752191878855228 0 0 0 0
2810173568 0.24008865654468536 -0.06755786389112473 -0.0038431035354733467 0.006414629518985748 0 0 0 0
2813895652 0.2478684037923813 -0.09042380750179291 -0.002408367581665516 0.006581303663551807 0 0 0 0
2817617736 0.25348547101020813 -0.11354974657297134 -0.0010518450289964676 0.00668831542134285 0 0 0 0
2821339820 0.25594523549079895 -0.13726140558719635 0.0002255840227007866 0.006380144506692886 0 0 0 0
2825061904 0.253160297870636 -0.16165730357170105 0.0014511458575725555 0.00580031331628561 0 0 0 0
2828783988 0.24979345500469208 -0.182872474193573 0.002259518951177597 0.005185292102396488 0 0 0 0
2832506072 0.2425536811351776 -0.203568696975708 0.00276765413582325 0.004447024315595627 0 0 0 0
2836228156 0.2293604463338852 -0.22680042684078217 0.003250979818403721 0.0039028627797961235 0 0 0 0
2839950240 0.2176850438117981 -0.24487145245075226 0.003686212934553623 0.0034502753987908363 0 0 0 0
2843672324 0.20143486559391022 -0.26200157403945923 0.004316396079957485 0.0029871808364987373 0 0 0 0
2847394408 0.18373487889766693 -0.2775989770889282 0.004789428785443306 0.002429502084851265 0 0 0 0
2851116492 0.16237568855285645 -0.29007288813591003 0.0053579723462462425 0.001755119301378727 0 0 0 0
2854838576 0.14377671480178833 -0.2981378436088562 0.005847137421369553 0.0008978499099612236 0 0 0 0
2858560660 0.12420012056827545 -0.3057848811149597 0.006419536657631397 -0.0006929924711585045 0 0 0 0
2862282744 0.0987449660897255 -0.30955514311790466 0.006317568942904472 -0.0019437223672866821 0 0 0 0
2866004828 0.07832465320825577 -0.31044846773147583 0.005899257026612759 -0.0031362557783722878 0 0 0 0
2869726912 0.05173102021217346 -0.31022778153419495 0.005359649658203125 -0.004330633208155632 0 0 0 0
2873448996 0.03487617149949074 -0.30490824580192566 0.004632399417459965 -0.005320288240909576 0 0 0 0
2877171080 0.014381378889083862 -0.29863467812538147 0.0034249452874064445 -0.006299801170825958 0 0 0 0
2880893164 -0.0109243243932724 -0.29099804162979126 0.0019061556085944176 -0.006688068620860577 0 0 0 0
2884615248 -0.030553027987480164 -0.2776831388473511 0.000597258098423481 -0.006519094109535217 0 0 0 0
2888337332 -0.04721854254603386 -0.26400279998779297 -0.0003929249942302704 -0.006360750645399094 0 0 0 0
2892059416 -0.06634195148944855 -0.24759556353092194 -0.0014791535213589668 -0.006020145490765572 0 0 0 0
2895781500 -0.08063676953315735 -0.22849644720554352 -0.0025836173444986343 -0.005372483283281326 0 0 0 0
2899503584 -0.09062708169221878 -0.20849758386611938 -0.003300316631793976 -0.004574781283736229 0 0 0 0
2903225668 -0.10347585380077362 -0.18526996672153473 -0.003785831853747368 -0.0034917984157800674 0 0 0 0
2906947752 -0.1102173775434494 -0.1613771617412567 -0.004072157666087151 -0.002532300539314747 0 0 0 0
2910669836 -0.11437671631574631 -0.1375616192817688 -0.004025666043162346 -0.0015344666317105293 0 0 0 0
2914391920 -0.11387050896883011 -0.1128934919834137 -0.0037692319601774216 -0.0007033431902527809 0 0 0 0
2918114004 -0.10990215092897415 -0.08760904520750046 -0.0033244313672184944 -3.4870579838752747e-05 0 0 0 0
2921836088 -0.10328375548124313 -0.06398077309131622 -0.0030339499935507774 0.0003656260669231415 0 0 0 0
2925558172 -0.0943443775177002 -0.039711080491542816 -0.0026089176535606384 0.0006995657458901405 0 0 0 0
2929280256 -0.08198648691177368 -0.018611351028084755 -0.0024727312847971916 0.0011263946071267128 0 0 0 0
2933002340 -0.0672481432557106 -0.0007172375917434692 -0.0021933596581220627 0.0013770367950201035 0 0 0 0
2936724424 -0.050849609076976776 0.016345184296369553 -0.0020097503438591957 0.0018336940556764603 0 0 0 0
2940446508 -0.0331667922437191 0.031096216291189194 -0.0016944203525781631 0.0024969112128019333 0 0 0 0
2944168592 -0.012955095618963242 0.04370207339525223 -0.0009366218000650406 0.003153623081743717 0 0 0 0
2947890676 0.008154664188623428 0.05378321185708046 0.00016760453581809998 0.0034136278554797173 0 0 0 0
2951612760 0.030030446127057076 0.060949478298425674 0.0015460345894098282 0.0034274719655513763 0 0 0 0
2955334844 0.05142691731452942 0.06675034761428833 0.0025938255712389946 0.0025673219934105873 0 0 0 0
2959056928 0.07454657554626465 0.06937813013792038 0.002861635759472847 0.0015751393511891365 0 0 0 0
2962779012 0.09881044924259186 0.07003911584615707 0.0029267212375998497 0.0010180827230215073 0 0 0 0
2966501096 0.1228245347738266 0.06690186262130737 0.002941313199698925 0.00038658175617456436 0 0 0 0
2970223180 0.1465374380350113 0.06361100822687149 0.0027349796146154404 1.8991529941558838e-05 0 0 0 0
2973945264 0.1712481677532196 0.05241379886865616 0.002915068529546261 -0.0002635978162288666 0 0 0 0
2977667348 0.19490516185760498 0.04063732922077179 0.0031256573274731636 -0.0005985032767057419 0 0 0 0
2981389432 0.2151002585887909 0.025321049615740776 0.0033771684393286705 -0.0011346591636538506 0 0 0 0
2985111516 0.2343742698431015 0.0034969598054885864 0.003252042457461357 -0.001904236152768135 0 0 0 0
2988833600 0.2481546252965927 -0.01795409619808197 0.0028807921335101128 -0.0026363972574472427 0 0 0 0
2992555684 0.2598418891429901 -0.04242394119501114 0.0022387737408280373 -0.0031437594443559647 0 0 0 0
2996277768 0.26789191365242004 -0.06595294922590256 0.0012632589787244797 -0.0037883128970861435 0 0 0 0
2999999852 0.27105581760406494 -0.09250558912754059 0.0005474863573908806 -0.0038401493802666664 0 0 0 0
