# HZ S RI R 50
1500000000 -0.12385840713977814 -0.04401641711592674 0.03954582288861275 -0.03149386867880821 0 0 0 0
1503722084 -0.11035426706075668 -0.012390866875648499 0.033108361065387726 -0.03892301023006439 0 0 0 0
1507444168 -0.08927135914564133 0.017252398654818535 0.024706397205591202 -0.04445698484778404 0 0 0 0
1511166252 -0.06061117351055145 0.0430210642516613 0.014730589464306831 -0.047662679105997086 0 0 0 0
1514888336 -0.02734971232712269 0.06319984048604965 0.005047823302447796 -0.048102185130119324 0 0 0 0
1518610420 0.01056412048637867 0.0781729593873024 -0.004228061996400356 -0.04606497287750244 0 0 0 0
1522332504 0.05145230516791344 0.08622066676616669 -0.011771151795983315 -0.04243578389286995 0 0 0 0
1526054588 0.09451530128717422 0.08796635270118713 -0.0180737916380167 -0.03823203593492508 0 0 0 0
1529776672 0.13932254910469055 0.0824897289276123 -0.023150263354182243 -0.03337252140045166 0 0 0 0
1533498756 0.1850298047065735 0.06788415461778641 -0.027340015396475792 -0.02727280557155609 0 0 0 0
1537220840 0.22787383198738098 0.044971272349357605 -0.029807042330503464 -0.020817182958126068 0 0 0 0
1540942924 0.26774534583091736 0.01522083580493927 -0.03059241734445095 -0.015004455111920834 0 0 0 0
1544665008 0.3028368055820465 -0.02010742574930191 -0.030617982149124146 -0.010033026337623596 0 0 0 0
1548387092 0.3317231833934784 -0.0639641210436821 -0.030271407216787338 -0.005614335648715496 0 0 0 0
1552109176 0.355591744184494 -0.11141000688076019 -0.02958015911281109 -0.0008736737072467804 0 0 0 0
1555831260 0.3685884475708008 -0.16679616272449493 -0.02811100333929062 0.003532438538968563 0 0 0 0
1559553344 0.3733980059623718 -0.22295887768268585 -0.02576879970729351 0.007371218875050545 0 0 0 0
1563275428 0.3714038133621216 -0.27643677592277527 -0.023284845054149628 0.010225346311926842 0 0 0 0
1566997512 0.35728663206100464 -0.33608514070510864 -0.02033400535583496 0.01297314278781414 0 0 0 0
1570719596 0.33453649282455444 -0.3912266194820404 -0.0171344056725502 0.014830593951046467 0 0 0 0
1574441680 0.30635911226272583 -0.4411610960960388 -0.014315176755189896 0.015756957232952118 0 0 0 0
1578163764 0.2663809061050415 -0.4880751371383667 -0.011612560600042343 0.016476115211844444 0 0 0 0
1581885848 0.21717019379138947 -0.5264890789985657 -0.009357377886772156 0.016700491309165955 0 0 0 0
1585607932 0.16839975118637085 -0.556054413318634 -0.0070219943299889565 0.016957543790340424 0 0 0 0
1589330016 0.1104000061750412 -0.5804185271263123 -0.005142838694155216 0.016982590779662132 0 0 0 0
1593052100 0.05020000785589218 -0.5973494648933411 -0.0033840788528323174 0.01717730052769184 0 0 0 0
1596774184 -0.009447440505027771 -0.6025711297988892 -0.0015437174588441849 0.01749301329255104 0 0 0 0
1600496268 -0.07235410809516907 -0.6002416610717773 0.0008394178003072739 0.017643101513385773 0 0 0 0
1604218352 -0.13609957695007324 -0.5886045694351196 0.0034713391214609146 0.017363060265779495 0 0 0 0
1607940436 -0.19731946289539337 -0.5667462944984436 0.005788171663880348 0.016541438177227974 0 0 0 0
1611662520 -0.2531503736972809 -0.5394605398178101 0.0077921608462929726 0.015592431649565697 0 0 0 0
1615384604 -0.308991014957428 -0.5005374550819397 0.009726885706186295 0.014213836751878262 0 0 0 0
1619106688 -0.35658013820648193 -0.4540861248970032 0.01153611857444048 0.012876966036856174 0 0 0 0
1622828772 -0.40128082036972046 -0.3992520868778229 0.013563882559537888 0.01162002980709076 0 0 0 0
1626550856 -0.4337427020072937 -0.3409506678581238 0.015490427613258362 0.009685492143034935 0 0 0 0
1630272940 -0.4593164324760437 -0.2722170352935791 0.017538273707032204 0.007098950445652008 0 0 0 0
1633995024 -0.4764536917209625 -0.20048296451568604 0.018950600177049637 0.004080078564584255 0 0 0 0
1637717108 -0.48118868470191956 -0.12962095439434052 0.019509686157107353 0.0003881119191646576 0 0 0 0
1641439192 -0.4760173559188843 -0.054316312074661255 0.01924740895628929 -0.003225170075893402 0 0 0 0
1645161276 -0.45843517780303955 0.01986101269721985 0.018384264782071114 -0.006543549709022045 0 0 0 0
1648883360 -0.4293735921382904 0.09164080023765564 0.01695818454027176 -0.009589730761945248 0 0 0 0
1652605444 -0.3876650631427765 0.16023141145706177 0.015209868550300598 -0.012683702632784843 0 0 0 0
1656327528 -0.33694663643836975 0.21989724040031433 0.012721591629087925 -0.015746206045150757 0 0 0 0
1660049612 -0.2750116288661957 0.2736766040325165 0.008856844156980515 -0.01800369843840599 0 0 0 0
1663771696 -0.20498375594615936 0.3167453706264496 0.0048196446150541306 -0.019176211208105087 0 0 0 0
1667493780 -0.13235217332839966 0.34716707468032837 0.0009503588080406189 -0.019217250868678093 0 0 0 0
1671215864 -0.05226488411426544 0.36798179149627686 -0.002889145165681839 -0.01874484308063984 0 0 0 0
1674937948 0.029926955699920654 0.3761183023452759 -0.006679845042526722 -0.017131537199020386 0 0 0 0
1678660032 0.11515499651432037 0.3708435893058777 -0.009734016843140125 -0.014801164157688618 0 0 0 0
1682382116 0.19703766703605652 0.35114786028862 -0.01181519404053688 -0.011705783195793629 0 0 0 0
1686104200 0.27407050132751465 0.32119184732437134 -0.013060816563665867 -0.008757689036428928 0 0 0 0
1689826284 0.3460487127304077 0.2762190103530884 -0.013694731518626213 -0.005971831269562244 0 0 0 0
1693548368 0.41015568375587463 0.22054153680801392 -0.013930687680840492 -0.0031412187963724136 0 0 0 0
1697270452 0.46441590785980225 0.1578110009431839 -0.01360120065510273 -0.00047062989324331284 0 0 0 0
1700992536 0.5070186257362366 0.08635544776916504 -0.012735632248222828 0.0018202457576990128 0 0 0 0
1704714620 0.5381137728691101 0.010454103350639343 -0.011748905293643475 0.0040003834292292595 0 0 0 0
1708436704 0.5558030009269714 -0.06979759782552719 -0.010330276563763618 0.0062041012570261955 0 0 0 0
1712158788 0.5620248317718506 -0.14931084215641022 -0.008210444822907448 0.007956665009260178 0 0 0 0
1715880872 0.5566399097442627 -0.22852329909801483 -0.005567076615989208 0.008912298828363419 0 0 0 0
1719602956 0.5372333526611328 -0.3078843951225281 -0.0029886113479733467 0.008990207687020302 0 0 0 0
1723325040 0.5040236711502075 -0.3811835050582886 -0.0005971239879727364 0.00819245632737875 0 0 0 0
1727047124 0.4655449092388153 -0.4452008008956909 0.0009276028722524643 0.006954100914299488 0 0 0 0
1730769208 0.4151768088340759 -0.5046173334121704 0.0018299715593457222 0.0055686235427856445 0 0 0 0
1734491292 0.356217622756958 -0.5543530583381653 0.002296590246260166 0.004333026707172394 0 0 0 0
1738213376 0.2895411252975464 -0.5929456353187561 0.0026247547939419746 0.0031420551240444183 0 0 0 0
1741935460 0.2263832688331604 -0.6198782920837402 0.0022694962099194527 0.002056811936199665 0 0 0 0
1745657544 0.15381872653961182 -0.6371251344680786 0.0015974091365933418 0.0013317149132490158 0 0 0 0
1749379628 0.08003922551870346 -0.6429398655891418 0.0009785601869225502 0.0012406595051288605 0 0 0 0
1753101712 0.012822791934013367 -0.6366719007492065 0.0007662707939743996 0.0014536958187818527 0 0 0 0
1756823796 -0.05302906036376953 -0.6218874454498291 0.0008374461904168129 0.0016208244487643242 0 0 0 0
1760545880 -0.12018008530139923 -0.5954408645629883 0.001101742498576641 0.001538657583296299 0 0 0 0
1764267964 -0.1730206310749054 -0.5626358985900879 0.0012838980183005333 0.0013017365708947182 0 0 0 0
1767990048 -0.22291147708892822 -0.52100670337677 0.00134276133030653 0.000848257914185524 0 0 0 0
1771712132 -0.2692130208015442 -0.47351863980293274 0.001283685676753521 0.00046238768845796585 0 0 0 0
1775434216 -0.30264878273010254 -0.42242002487182617 0.0008688578382134438 -0.0002606585621833801 0 0 0 0
1779156300 -0.32734841108322144 -0.3684917092323303 -0.0001373356208205223 -0.0004920745268464088 0 0 0 0
1782878384 -0.3473770320415497 -0.3099040389060974 -0.001081785187125206 -0.00017470307648181915 0 0 0 0
1786600468 -0.35773247480392456 -0.2514668107032776 -0.001729339361190796 0.0005226666107773781 0 0 0 0
1790322552 -0.3601037561893463 -0.1902535855770111 -0.0022462913766503334 0.001539420336484909 0 0 0 0
1794044636 -0.3518790602684021 -0.13609319925308228 -0.0024232910946011543 0.00260055810213089 0 0 0 0
1797766720 -0.3372384309768677 -0.07930278033018112 -0.0024855714291334152 0.004040783271193504 0 0 0 0
1801488804 -0.31537389755249023 -0.02480281889438629 -0.0018865354359149933 0.0060949744656682014 0 0 0 0
1805210888 -0.2860380709171295 0.020552940666675568 -1.9030645489692688e-05 0.008069449104368687 0 0 0 0
1808932972 -0.24868319928646088 0.06718088686466217 0.0030025504529476166 0.008703277446329594 0 0 0 0
1812655056 -0.20411735773086548 0.10596421360969543 0.005587935447692871 0.007935701869428158 0 0 0 0
1816377140 -0.15571323037147522 0.13397948443889618 0.007620093412697315 0.007209841161966324 0 0 0 0
1820099224 -0.10197675228118896 0.1545977145433426 0.010136013850569725 0.005901736207306385 0 0 0 0
1823821308 -0.047697409987449646 0.16565313935279846 0.012393118813633919 0.0033386237919330597 0 0 0 0
1827543392 0.006915517151355743 0.1678154319524765 0.013408745639026165 -0.00026963185518980026 0 0 0 0
1831265476 0.05877386033535004 0.16092418134212494 0.012980109080672264 -0.003823688253760338 0 0 0 0
1834987560 0.10754577815532684 0.14577661454677582 0.011688767932355404 -0.0067482637241482735 0 0 0 0
1838709644 0.15156522393226624 0.12385162711143494 0.00953732244670391 -0.009037344716489315 0 0 0 0
1842431728 0.19053098559379578 0.0977151021361351 0.006789966486394405 -0.010368891060352325 0 0 0 0
1846153812 0.22419679164886475 0.06601764261722565 0.00461946614086628 -0.010349799878895283 0 0 0 0
1849875896 0.2524833083152771 0.031015340238809586 0.0031020604074001312 -0.009773293510079384 0 0 0 0
1853597980 0.2736881673336029 -0.007694721221923828 0.002661009319126606 -0.009575685486197472 0 0 0 0
1857320064 0.2895396053791046 -0.047228407114744186 0.002527395263314247 -0.01031414419412613 0 0 0 0
1861042148 0.2986956238746643 -0.08869079500436783 0.0015569822862744331 -0.011915039271116257 0 0 0 0
1864764232 0.3006992042064667 -0.13091081380844116 -0.0006437487900257111 -0.013547757640480995 0 0 0 0
1868486316 0.2957627773284912 -0.17091095447540283 -0.00343191996216774 -0.01393168792128563 0 0 0 0
1872208400 0.2853221595287323 -0.20929980278015137 -0.0063591813668608665 -0.013347613625228405 0 0 0 0
1875930484 0.27141961455345154 -0.24350830912590027 -0.008398137055337429 -0.01207916159182787 0 0 0 0
1879652568 0.2466672658920288 -0.2778532803058624 -0.010130289942026138 -0.011095097288489342 0 0 0 0
1883374652 0.22045111656188965 -0.3053866922855377 -0.012117518112063408 -0.01065748929977417 0 0 0 0
1887096736 0.18840304017066956 -0.32695305347442627 -0.015338810160756111 -0.009627804160118103 0 0 0 0
1890818820 0.15507477521896362 -0.34098973870277405 -0.018806971609592438 -0.00695196446031332 0 0 0 0
1894540904 0.11905964463949203 -0.3483178913593292 -0.02126484550535679 -0.002370608039200306 0 0 0 0
1898262988 0.08414778858423233 -0.3494604527950287 -0.022037405520677567 0.0029080044478178024 0 0 0 0
1901985072 0.052781134843826294 -0.34475135803222656 -0.02060595527291298 0.007807435467839241 0 0 0 0
1905707156 0.024386592209339142 -0.3372870683670044 -0.018784893676638603 0.011553791351616383 0 0 0 0
1909429240 -0.004696100950241089 -0.3229826092720032 -0.01638500764966011 0.01496022380888462 0 0 0 0
1913151324 -0.0281227920204401 -0.3062852919101715 -0.013411997817456722 0.01814848929643631 0 0 0 0
1916873408 -0.05277750641107559 -0.2843100428581238 -0.009538338519632816 0.020776117220520973 0 0 0 0
1920595492 -0.06900214403867722 -0.2605726420879364 -0.005218495614826679 0.02236100658774376 0 0 0 0
1924317576 -0.08139277249574661 -0.23253557085990906 -0.00047777872532606125 0.02276613935828209 0 0 0 0
1928039660 -0.08897338807582855 -0.203261598944664 0.00399938877671957 0.02240382879972458 0 0 0 0
1931761744 -0.09096512198448181 -0.1759253889322281 0.008530858904123306 0.02081223763525486 0 0 0 0
1935483828 -0.08872672915458679 -0.14766664803028107 0.01232888549566269 0.017688442021608353 0 0 0 0
1939205912 -0.08273206651210785 -0.11965251713991165 0.01435428112745285 0.014256829395890236 0 0 0 0
1942927996 -0.07103019952774048 -0.09320030361413956 0.015380236320197582 0.011122039519250393 0 0 0 0
1946650080 -0.05426802486181259 -0.07015936821699142 0.015946656465530396 0.009000733494758606 0 0 0 0
1950372164 -0.03451643884181976 -0.04930427670478821 0.017031807452440262 0.006854505278170109 0 0 0 0
1954094248 -0.011340204626321793 -0.03321428969502449 0.018175603821873665 0.0048599764704704285 0 0 0 0
1957816332 0.014328839257359505 -0.02055789716541767 0.01961652934551239 0.0022781910374760628 0 0 0 0
1961538416 0.042409319430589676 -0.012932965531945229 0.020285192877054214 -0.0012753810733556747 0 0 0 0
1965260500 0.07255170494318008 -0.009118841029703617 0.020373394712805748 -0.004597471095621586 0 0 0 0
1968982584 0.10348042845726013 -0.014157023280858994 0.020268339663743973 -0.008316779509186745 0 0 0 0
1972704668 0.13198581337928772 -0.024939436465501785 0.019497860223054886 -0.01286399643868208 0 0 0 0
1976426752 0.15820416808128357 -0.040163591504096985 0.017221715301275253 -0.017620790749788284 0 0 0 0
1980148836 0.17942997813224792 -0.06081247329711914 0.013465759344398975 -0.02191479504108429 0 0 0 0
1983870920 0.19626790285110474 -0.08447124063968658 0.008056183345615864 -0.02508579194545746 0 0 0 0
1987593004 0.2095019668340683 -0.10908228158950806 0.0020803064107894897 -0.026057984679937363 0 0 0 0
1991315088 0.21647214889526367 -0.13757897913455963 -0.0038304030895233154 -0.0259222574532032 0 0 0 0
1995037172 0.21761374175548553 -0.16558530926704407 -0.009198278188705444 -0.02370692975819111 0 0 0 0
1998759256 0.2143983244895935 -0.19415123760700226 -0.013426970690488815 -0.020531928166747093 0 0 0 0
2002481340 0.20996998250484467 -0.2187345176935196 -0.015676546841859818 -0.017519928514957428 0 0 0 0
2006203424 0.19543325901031494 -0.2449788749217987 -0.018280718475580215 -0.014892165549099445 0 0 0 0
2009925508 0.1794740855693817 -0.26580601930618286 -0.020706752315163612 -0.012368747964501381 0 0 0 0
2013647592 0.15732595324516296 -0.28589075803756714 -0.02319222316145897 -0.008948791772127151 0 0 0 0
2017369676 0.13604822754859924 -0.2999729514122009 -0.025467965751886368 -0.0048535531386733055 0 0 0 0
2021091760 0.10870244354009628 -0.3122810125350952 -0.027044987305998802 3.1251460313797e-05 0 0 0 0
2024813844 0.07913219183683395 -0.31802111864089966 -0.027188826352357864 0.006237350404262543 0 0 0 0
2028535928 0.053917109966278076 -0.3188948929309845 -0.02542392909526825 0.012090498581528664 0 0 0 0
2032258012 0.026463016867637634 -0.31507793068885803 -0.022305428981781006 0.01697731204330921 0 0 0 0
2035980096 -0.0002844110131263733 -0.3066325783729553 -0.018326276913285255 0.020396597683429718 0 0 0 0
2039702180 -0.02509438805282116 -0.2939199209213257 -0.013921009376645088 0.023497888818383217 0 0 0 0
2043424264 -0.04893405735492706 -0.27750739455223083 -0.009022269397974014 0.02541261911392212 0 0 0 0
2047146348 -0.0700301080942154 -0.25732988119125366 -0.004042343236505985 0.02598029188811779 0 0 0 0
2050868432 -0.08586765080690384 -0.23610055446624756 0.0005786679685115814 0.0259355790913105 0 0 0 0
2054590516 -0.10185488313436508 -0.20984530448913574 0.005103554576635361 0.024907464161515236 0 0 0 0
2058312600 -0.11283677071332932 -0.18140903115272522 0.00879667792469263 0.02335568517446518 0 0 0 0
2062034684 -0.11906787753105164 -0.15020573139190674 0.012293417006731033 0.021624650806188583 0 0 0 0
2065756768 -0.12204015254974365 -0.11652372777462006 0.01618952490389347 0.018985897302627563 0 0 0 0
2069478852 -0.11743535101413727 -0.08329960703849792 0.01907568797469139 0.015724020078778267 0 0 0 0
2073200936 -0.10790926963090897 -0.050092048943042755 0.021526778116822243 0.01163463108241558 0 0 0 0
2076923020 -0.0919223204255104 -0.01728532463312149 0.022474613040685654 0.007291063666343689 0 0 0 0
2080645104 -0.07005435228347778 0.01199866458773613 0.02249095030128956 0.0034416159614920616 0 0 0 0
2084367188 -0.04194721579551697 0.03768085315823555 0.022038213908672333 6.400328129529953e-05 0 0 0 0
2088089272 -0.010386686772108078 0.05832275375723839 0.021498747169971466 -0.002953032962977886 0 0 0 0
2091811356 0.025295862928032875 0.0724208801984787 0.020956585183739662 -0.005787527188658714 0 0 0 0
2095533440 0.06276698410511017 0.07960917800664902 0.020395908504724503 -0.009230079129338264 0 0 0 0
2099255524 0.10023514926433563 0.08043927699327469 0.019009018316864967 -0.013190814293920994 0 0 0 0
2102977608 0.13664625585079193 0.07648885250091553 0.016070708632469177 -0.017209794372320175 0 0 0 0
2106699692 0.17191147804260254 0.06724469363689423 0.012460876256227493 -0.019783152267336845 0 0 0 0
2110421776 0.20671086013317108 0.04990261048078537 0.008146999403834343 -0.021758437156677246 0 0 0 0
2114143860 0.23825788497924805 0.029543166980147362 0.0039407070726156235 -0.02257968671619892 0 0 0 0
2117865944 0.2643319368362427 0.0019575729966163635 -0.0001118592917919159 -0.022895731031894684 0 0 0 0
2121588028 0.28492316603660583 -0.029775304719805717 -0.004274137318134308 -0.02273726835846901 0 0 0 0
2125310112 0.30049949884414673 -0.06060279533267021 -0.008864755742251873 -0.021525166928768158 0 0 0 0
2129032196 0.30942851305007935 -0.09790277481079102 -0.0135627631098032 -0.018969742581248283 0 0 0 0
2132754280 0.3130848705768585 -0.13114725053310394 -0.017195412889122963 -0.014667916111648083 0 0 0 0
2136476364 0.31248658895492554 -0.1660201996564865 -0.01902719959616661 -0.009798433631658554 0 0 0 0
2140198448 0.3067827522754669 -0.2002599984407425 -0.0187037643045187 -0.005330131389200687 0 0 0 0
2143920532 0.2931298017501831 -0.23456117510795593 -0.017593801021575928 -0.0020830752328038216 0 0 0 0
2147642616 0.27585569024086 -0.26420918107032776 -0.016662433743476868 6.711762398481369e-05 0 0 0 0
2151364700 0.2532596290111542 -0.2895190417766571 -0.015827465802431107 0.0017383377999067307 0 0 0 0
2155086784 0.2276960164308548 -0.31118878722190857 -0.015030816197395325 0.0038558291271328926 0 0 0 0
2158808868 0.1994575560092926 -0.328463613986969 -0.01448160782456398 0.005250389687716961 0 0 0 0
2162530952 0.16989314556121826 -0.3392565846443176 -0.013810614123940468 0.0070972563698887825 0 0 0 0
2166253036 0.13811539113521576 -0.3465642035007477 -0.013013374991714954 0.009299599565565586 0 0 0 0
2169975120 0.10495443642139435 -0.3485027253627777 -0.011635431088507175 0.01170382834970951 0 0 0 0
2173697204 0.07579201459884644 -0.3449174463748932 -0.009387334808707237 0.013695437461137772 0 0 0 0
2177419288 0.04560460150241852 -0.33804208040237427 -0.0065903691574931145 0.015005229040980339 0 0 0 0
2181141372 0.016868509352207184 -0.3276103436946869 -0.0038906922563910484 0.015423527918756008 0 0 0 0
2184863456 -0.009492665529251099 -0.3116898536682129 -0.0016759717836976051 0.015548978932201862 0 0 0 0
2188585540 -0.03509850800037384 -0.2906588912010193 0.0005131764337420464 0.015795398503541946 0 0 0 0
2192307624 -0.055474430322647095 -0.2657383978366852 0.0031117601320147514 0.01578926108777523 0 0 0 0
2196029708 -0.07162438333034515 -0.23662370443344116 0.006204744800925255 0.015323946252465248 0 0 0 0
2199751792 -0.08252982050180435 -0.20662546157836914 0.009394082240760326 0.013909894973039627 0 0 0 0
2203473876 -0.08607521653175354 -0.17534251511096954 0.011959804221987724 0.011488099582493305 0 0 0 0
2207195960 -0.08496524393558502 -0.14409524202346802 0.013489180244505405 0.008911209180951118 0 0 0 0
2210918044 -0.081063412129879 -0.112989142537117 0.014413446187973022 0.005717639811336994 0 0 0 0
2214640128 -0.06828223168849945 -0.08646166324615479 0.014819550327956676 0.003180139698088169 0 0 0 0
2218362212 -0.05610993504524231 -0.05851198360323906 0.01478491723537445 0.00022011715918779373 0 0 0 0
2222084296 -0.0375039242208004 -0.036184560507535934 0.014478243887424469 -0.0023622680455446243 0 0 0 0
2225806380 -0.015150187537074089 -0.015423590317368507 0.013710323721170425 -0.004742622375488281 0 0 0 0
2229528464 0.010672569274902344 0.0007633594796061516 0.012532017193734646 -0.00765114463865757 0 0 0 0
2233250548 0.038777828216552734 0.012258793227374554 0.010555609129369259 -0.010267816483974457 0 0 0 0
2236972632 0.06909777224063873 0.017201649025082588 0.007588842883706093 -0.012342766858637333 0 0 0 0
2240694716 0.09863847494125366 0.016146128997206688 0.0044871605932712555 -0.013138769194483757 0 0 0 0
2244416800 0.1273179054260254 0.012020457535982132 0.0016725193709135056 -0.013210935518145561 0 0 0 0
2248138884 0.15319077670574188 -0.0008948296308517456 -0.0012573525309562683 -0.012575026601552963 0 0 0 0
2251860968 0.17621418833732605 -0.01317550614476204 -0.003575214184820652 -0.011764958500862122 0 0 0 0
2255583052 0.19527162611484528 -0.03514522314071655 -0.005524684675037861 -0.01032615453004837 0 0 0 0
2259305136 0.21072982251644135 -0.0553622767329216 -0.0070089055225253105 -0.008956358768045902 0 0 0 0
2263027220 0.2210584580898285 -0.07804839313030243 -0.00856380071491003 -0.006856926716864109 0 0 0 0
2266749304 0.22776268422603607 -0.09813902527093887 -0.009198845364153385 -0.00432918407022953 0 0 0 0
2270471388 0.23275263607501984 -0.12017717957496643 -0.0090583311393857 -0.0022645173594355583 0 0 0 0
2274193472 0.23256568610668182 -0.1427847146987915 -0.00817022379487753 -0.00047860294580459595 0 0 0 0
2277915556 0.22957158088684082 -0.1654214709997177 -0.007133062928915024 0.0005032587796449661 0 0 0 0
2281637640 0.21835672855377197 -0.19242657721042633 -0.006224941462278366 0.001014125533401966 0 0 0 0
2285359724 0.2042219191789627 -0.21268224716186523 -0.005638726055622101 0.0009917821735143661 0 0 0 0
2289081808 0.1890278458595276 -0.22820830345153809 -0.005372093059122562 0.0010885857045650482 0 0 0 0
2292803892 0.16863098740577698 -0.24308860301971436 -0.005326790735125542 0.0010028965771198273 0 0 0 0
2296525976 0.15513069927692413 -0.24658843874931335 -0.005590247921645641 0.0011521456763148308 0 0 0 0
2300248060 0.13239283859729767 -0.2558671832084656 -0.005870511755347252 0.0016565807163715363 0 0 0 0
2303970144 0.11041286587715149 -0.2615995407104492 -0.006192182190716267 0.002623702399432659 0 0 0 0
2307692228 0.08767638355493546 -0.26061007380485535 -0.0059575773775577545 0.004144956357777119 0 0 0 0
2311414312 0.07240962237119675 -0.2556479275226593 -0.004714583978056908 0.005196158774197102 0 0 0 0
2315136396 0.04367592930793762 -0.2504875063896179 -0.0029832283034920692 0.005551381967961788 0 0 0 0
2318858480 0.02681640535593033 -0.23974770307540894 -0.001797400414943695 0.00506476778537035 0 0 0 0
2322580564 0.01033780351281166 -0.22384345531463623 -0.0011170124635100365 0.004380134865641594 0 0 0 0
2326302648 -0.009801117703318596 -0.20440271496772766 -0.0005671530961990356 0.0034558242186903954 0 0 0 0
2330024732 -0.01493702083826065 -0.1840941160917282 -0.0008486798033118248 0.002623431384563446 0 0 0 0
2333746816 -0.025680406019091606 -0.16117294132709503 -0.001307101920247078 0.002152559347450733 0 0 0 0
2337468900 -0.031798817217350006 -0.13568049669265747 -0.0015168311074376106 0.0021107299253344536 0 0 0 0
2341190984 -0.02977524884045124 -0.11198131740093231 -0.002025490626692772 0.0018376875668764114 0 0 0 0
2344913068 -0.02530834823846817 -0.08620066940784454 -0.0026733046397566795 0.0020159492269158363 0 0 0 0
2348635152 -0.015152690932154655 -0.06246074289083481 -0.003128841519355774 0.0026760417968034744 0 0 0 0
2352357236 -0.0023640161380171776 -0.04145028442144394 -0.003297246992588043 0.003529854118824005 0 0 0 0
2356079320 0.014231996610760689 -0.021838659420609474 -0.003045608289539814 0.004260472021996975 0 0 0 0
2359801404 0.03353170305490494 -0.005601096898317337 -0.0025475183501839638 0.0047320229932665825 0 0 0 0
2363523488 0.055736906826496124 0.008266996592283249 -0.0023936964571475983 0.005230475217103958 0 0 0 0
2367245572 0.0811622142791748 0.018886685371398926 -0.0020709242671728134 0.005746864713728428 0 0 0 0
2370967656 0.10923399031162262 0.02464371919631958 -0.0014729509130120277 0.006510961800813675 0 0 0 0
2374689740 0.13780802488327026 0.02345428429543972 -0.00040939636528491974 0.0071784863248467445 0 0 0 0
2378411824 0.16574996709823608 0.018210768699645996 0.0008156662806868553 0.00715835765004158 0 0 0 0
2382133908 0.1921548992395401 0.009291663765907288 0.0016045812517404556 0.007030314765870571 0 0 0 0
2385855992 0.21608026325702667 -0.005994231440126896 0.0023469850420951843 0.007026204839348793 0 0 0 0
2389578076 0.2388169765472412 -0.023477360606193542 0.002932896837592125 0.007032363675534725 0 0 0 0
2393300160 0.25578612089157104 -0.047752074897289276 0.0036993026733398438 0.00716270599514246 0 0 0 0
2397022244 0.26811033487319946 -0.07046695053577423 0.005236875265836716 0.007412873208522797 0 0 0 0
2400744328 0.2770238220691681 -0.09632313251495361 0.007187414914369583 0.006913728080689907 0 0 0 0
2404466412 0.2823612093925476 -0.12283395975828171 0.00889561790972948 0.00560738705098629 0 0 0 0
2408188496 0.28490811586380005 -0.14791923761367798 0.009879454970359802 0.00387455802410841 0 0 0 0
2411910580 0.28197675943374634 -0.17588429152965546 0.010470322333276272 0.002126459963619709 0 0 0 0
2415632664 0.2777280807495117 -0.19994071125984192 0.011039946228265762 0.0003708014264702797 0 0 0 0
2419354748 0.2652406096458435 -0.22513559460639954 0.011390257626771927 -0.001482163555920124 0 0 0 0
2423076832 0.25367212295532227 -0.24536079168319702 0.011337030678987503 -0.0038432208821177483 0 0 0 0
2426798916 0.23622936010360718 -0.26754114031791687 0.010520728304982185 -0.006100226193666458 0 0 0 0
2430521000 0.21464261412620544 -0.2869638502597809 0.008842392824590206 -0.008355999365448952 0 0 0 0
2434243084 0.19149169325828552 -0.3029959499835968 0.007085508666932583 -0.00954324472695589 0 0 0 0
2437965168 0.16872715950012207 -0.31481999158859253 0.005383000709116459 -0.01071846392005682 0 0 0 0
2441687252 0.14351221919059753 -0.3217790126800537 0.0035035843029618263 -0.011358693242073059 0 0 0 0
2445409336 0.11756641417741776 -0.3271068036556244 0.0018295496702194214 -0.011839209124445915 0 0 0 0
2449131420 0.08699752390384674 -0.32683926820755005 0.00015792157500982285 -0.0122678242623806 0 0 0 0
2452853504 0.058847010135650635 -0.32096755504608154 -0.0017364481464028358 -0.012180150486528873 0 0 0 0
2456575588 0.030859090387821198 -0.3130260109901428 -0.0038057658821344376 -0.012084766291081905 0 0 0 0
2460297672 0.006963282823562622 -0.2988067865371704 -0.005376285873353481 -0.011711420491337776 0 0 0 0
2464019756 -0.020340604707598686 -0.28282833099365234 -0.007742191664874554 -0.010901954025030136 0 0 0 0
2467741840 -0.039781831204891205 -0.2620358169078827 -0.009602094069123268 -0.009733651764690876 0 0 0 0
2471463924 -0.05551549792289734 -0.2374355047941208 -0.011046912521123886 -0.008352330885827541 0 0 0 0
2475186008 -0.06869927048683167 -0.21258769929409027 -0.012405711226165295 -0.0070404671132564545 0 0 0 0
2478908092 -0.07894451171159744 -0.18389460444450378 -0.013746230863034725 -0.005035074427723885 0 0 0 0
2482630176 -0.08343610167503357 -0.15531428158283234 -0.014819495379924774 -0.0028792480006814003 0 0 0 0
2486352260 -0.08413080871105194 -0.12647667527198792 -0.015561635605990887 -0.0004059476777911186 0 0 0 0
2490074344 -0.07974743843078613 -0.09859757870435715 -0.015972360968589783 0.0022876067087054253 0 0 0 0
2493796428 -0.07111924886703491 -0.07095542550086975 -0.015487270429730415 0.005558443255722523 0 0 0 0
2497518512 -0.059084147214889526 -0.04519007354974747 -0.014182613231241703 0.008154763840138912 0 0 0 0
2501240596 -0.04315841570496559 -0.022290272638201714 -0.012481684796512127 0.010426242835819721 0 0 0 0
2504962680 -0.02438669465482235 -0.0009276866912841797 -0.010741831734776497 0.012081420049071312 0 0 0 0
2508684764 -0.0024044737219810486 0.01664552465081215 -0.00854859221726656 0.01409277692437172 0 0 0 0
2512406848 0.021125832572579384 0.030785396695137024 -0.005737044848501682 0.015755657106637955 0 0 0 0
2516128932 0.04690712317824364 0.04228910803794861 -0.002434183843433857 0.016460493206977844 0 0 0 0
2519851016 0.07556524872779846 0.049195803701877594 0.0009509213268756866 0.016433482989668846 0 0 0 0
2523573100 0.10346036404371262 0.051736801862716675 0.004024012014269829 0.015254328027367592 0 0 0 0
2527295184 0.1327134519815445 0.04882919415831566 0.006651789881289005 0.013788948766887188 0 0 0 0
2531017268 0.15986418724060059 0.041183196008205414 0.008873006328940392 0.011977992951869965 0 0 0 0
2534739352 0.18570388853549957 0.027454711496829987 0.010861615650355816 0.009729468263685703 0 0 0 0
2538461436 0.20829564332962036 0.010118208825588226 0.012071936391294003 0.006981074810028076 0 0 0 0
2542183520 0.22631388902664185 -0.006806168705224991 0.012609056197106838 0.0043035028502345085 0 0 0 0
2545905604 0.24056540429592133 -0.027941912412643433 0.012678242288529873 0.001619073562324047 0 0 0 0
2549627688 0.25377005338668823 -0.05008832365274429 0.012339521199464798 -0.0008064517751336098 0 0 0 0
2553349772 0.2612481713294983 -0.07332383841276169 0.011442932300269604 -0.003254486247897148 0 0 0 0
2557071856 0.2658175230026245 -0.09457065910100937 0.009871942922472954 -0.0051966141909360886 0 0 0 0
2560793940 0.2668806314468384 -0.1210549995303154 0.007942263036966324 -0.006542709656059742 0 0 0 0
2564516024 0.2631973922252655 -0.144454687833786 0.006261928007006645 -0.006900239735841751 0 0 0 0
2568238108 0.2576642632484436 -0.16301794350147247 0.0050659338012337685 -0.007395259104669094 0 0 0 0
2571960192 0.247362419962883 -0.18523670732975006 0.003508511930704117 -0.007587354630231857 0 0 0 0
2575682276 0.23770231008529663 -0.2009187638759613 0.002561379224061966 -0.007675771601498127 0 0 0 0
2579404360 0.22540462017059326 -0.21642178297042847 0.0014286208897829056 -0.007662919349968433 0 0 0 0
2583126444 0.21139734983444214 -0.2289351224899292 0.0005528880283236504 -0.007811524905264378 0 0 0 0
2586848528 0.19422799348831177 -0.24230416119098663 -0.0006243642419576645 -0.007724962197244167 0 0 0 0
2590570612 0.1776575893163681 -0.250591516494751 -0.0019538095220923424 -0.007647914811968803 0 0 0 0
2594292696 0.1632528007030487 -0.2539733052253723 -0.0028704265132546425 -0.007210005074739456 0 0 0 0
2598014780 0.1410597860813141 -0.26157134771347046 -0.004193680360913277 -0.006407218985259533 0 0 0 0
2601736864 0.12662853300571442 -0.26344236731529236 -0.005044431425631046 -0.0056903064250946045 0 0 0 0
2605458948 0.10363129526376724 -0.262085884809494 -0.00572567991912365 -0.0041950782760977745 0 0 0 0
2609181032 0.0846717581152916 -0.2580849230289459 -0.005827377550303936 -0.003112455829977989 0 0 0 0
2612903116 0.07001911848783493 -0.2501562833786011 -0.005886825732886791 -0.002151460386812687 0 0 0 0
2616625200 0.05042673647403717 -0.24057036638259888 -0.005740256980061531 -0.0011253319680690765 0 0 0 0
2620347284 0.0396154560148716 -0.2284281700849533 -0.005392743274569511 -0.0003412887454032898 0 0 0 0
2624069368 0.028010260313749313 -0.21483254432678223 -0.004713644273579121 0.00019073951989412308 0 0 0 0
2627791452 0.016828805208206177 -0.19674192368984222 -0.004179725423455238 -0.00013282708823680878 0 0 0 0
2631513536 0.014177861623466015 -0.17958632111549377 -0.004384246654808521 -0.0001546163111925125 0 0 0 0
2635235620 0.011409010738134384 -0.16221913695335388 -0.004495495930314064 0.00027462374418973923 0 0 0 0
2638957704 0.01206888910382986 -0.14602556824684143 -0.004632733762264252 0.0008790390565991402 0 0 0 0
2642679788 0.017722755670547485 -0.12852339446544647 -0.00459425151348114 0.0015154676511883736 0 0 0 0
2646401872 0.027088018134236336 -0.11433270573616028 -0.004294117912650108 0.002156795933842659 0 0 0 0
2650123956 0.03594113886356354 -0.10318918526172638 -0.0037335939705371857 0.0025862138718366623 0 0 0 0
2653846040 0.04717087745666504 -0.09405206143856049 -0.002913312055170536 0.0031571313738822937 0 0 0 0
2657568124 0.06041058897972107 -0.0866314023733139 -0.0021807197481393814 0.0030987197533249855 0 0 0 0
2661290208 0.07317300885915756 -0.08401744812726974 -0.0018282486125826836 0.003090926446020603 0 0 0 0
2665012292 0.0875874012708664 -0.08242804557085037 -0.001391194760799408 0.0033630365505814552 0 0 0 0
2668734376 0.09990814328193665 -0.08556186407804489 -0.0008610989898443222 0.0031346604228019714 0 0 0 0
2672456460 0.11175055801868439 -0.09085334837436676 -0.00020535197108983994 0.0030323807150125504 0 0 0 0
2676178544 0.12232625484466553 -0.09804919362068176 0.00021618325263261795 0.002675369381904602 0 0 0 0
2679900628 0.1317075937986374 -0.10749569535255432 0.0003636116161942482 0.0022514918819069862 0 0 0 0
2683622712 0.13675621151924133 -0.1188080683350563 0.00045448821038007736 0.002122456207871437 0 0 0 0
2687344796 0.13971318304538727 -0.13097257912158966 0.0008460963144898415 0.0019283154979348183 0 0 0 0
2691066880 0.1406218409538269 -0.14289391040802002 0.0008046235889196396 0.0014875615015625954 0 0 0 0
2694788964 0.13681083917617798 -0.15697482228279114 0.0007638027891516685 0.001539689488708973 0 0 0 0
2698511048 0.13154572248458862 -0.1674310863018036 0.0009075189009308815 0.001794476993381977 0 0 0 0
2702233132 0.12795212864875793 -0.17530950903892517 0.0016283011063933372 0.0017674388363957405 0 0 0 0
2705955216 0.11909651756286621 -0.18479035794734955 0.0023086825385689735 0.0011104531586170197 0 0 0 0
2709677300 0.106490857899189 -0.19350942969322205 0.0024237511679530144 0.0003417329862713814 0 0 0 0
2713399384 0.09154225885868073 -0.19928093254566193 0.002276507206261158 -0.000365368090569973 0 0 0 0
2717121468 0.07900841534137726 -0.201432466506958 0.0020364103838801384 -0.0007980950176715851 0 0 0 0
2720843552 0.06477896124124527 -0.2000582367181778 0.0016932468861341476 -0.0011875815689563751 0 0 0 0
2724565636 0.048487767577171326 -0.19693860411643982 0.0013569267466664314 -0.001384141854941845 0 0 0 0
2728287720 0.03351382538676262 -0.1903020143508911 0.000895058736205101 -0.0014909235760569572 0 0 0 0
2732009804 0.021531149744987488 -0.18167658150196075 0.0006927987560629845 -0.0013794312253594398 0 0 0 0
2735731888 0.01083749532699585 -0.1701914668083191 0.0006116144359111786 -0.0013826843351125717 0 0 0 0
2739453972 0.0024759508669376373 -0.15628814697265625 0.00037479400634765625 -0.0015361625701189041 0 0 0 0
2743176056 -0.006379477679729462 -0.14104041457176208 0.0002888711169362068 -0.001357044093310833 0 0 0 0
2746898140 -0.01188129186630249 -0.12325158715248108 0.0002564340829849243 -0.0011366857215762138 0 0 0 0
2750620224 -0.011678177863359451 -0.1048361137509346 0.0006088661029934883 -0.0012068916112184525 0 0 0 0
2754342308 -0.009158039465546608 -0.08696793019771576 0.0006159497424960136 -0.0017175227403640747 0 0 0 0
2758064392 -0.004923267289996147 -0.06936914473772049 0.00024943333119153976 -0.0022479426115751266 0 0 0 0
2761786476 0.0031582526862621307 -0.05348177254199982 -0.00020012259483337402 -0.0024199001491069794 0 0 0 0
2765508560 0.01330860611051321 -0.03752340376377106 -0.0009377384558320045 -0.0023493189364671707 0 0 0 0
2769230644 0.02508614771068096 -0.023026056587696075 -0.0014323722571134567 -0.0019805701449513435 0 0 0 0
2772952728 0.04033650830388069 -0.009342840872704983 -0.0016757277771830559 -0.0016130926087498665 0 0 0 0
2776674812 0.05800233781337738 0.0018833894282579422 -0.0018085744231939316 -0.0011360645294189453 0 0 0 0
2780396896 0.07894596457481384 0.008886073715984821 -0.0018438063561916351 -0.0005998890846967697 0 0 0 0
2784118980 0.10060028731822968 0.013404592871665955 -0.0015544332563877106 -0.0001914631575345993 0 0 0 0
2787841064 0.12318596988916397 0.013546394184231758 -0.0012275511398911476 0.00011397991329431534 0 0 0 0
2791563148 0.1460346132516861 0.011176610365509987 -0.0006788978353142738 0.00025035906583070755 0 0 0 0
2795285232 0.16911932826042175 0.005423977971076965 -0.00048739928752183914 -9.759888052940369e-05 0 0 0 0
2799007316 0.19052863121032715 -0.007278367877006531 -0.000383489765226841 -0.0004994561895728111 0 0 0 0
2802729400 0.20968662202358246 -0.021479196846485138 -0.0005046604201197624 -0.0006627663969993591 0 0 0 0
2806451484 0.22669115662574768 -0.039339594542980194 -0.0009476980194449425 -0.0007522730156779289 0 0 0 0
2810173568 0.24056695401668549 -0.05957220494747162 -0.001239498145878315 -0.00039775948971509933 0 0 0 0
2813895652 0.2526145279407501 -0.07956128567457199 -0.0012502502650022507 -3.798399120569229e-05 0 0 0 0
2817617736 0.25978776812553406 -0.10569176822900772 -0.0011969218030571938 0.00020630192011594772 0 0 0 0
2821339820 0.2622346580028534 -0.13318341970443726 -0.0010791504755616188 0.0004558321088552475 0 0 0 0
2825061904 0.2625265419483185 -0.15786932408809662 -0.0009644124656915665 0.0008783470839262009 0 0 0 0
2828783988 0.2586723864078522 -0.18095959722995758 -0.00047182291746139526 0.001225409097969532 0 0 0 0
2832506072 0.24814750254154205 -0.20600131154060364 0.0001172265037894249 0.0012888284400105476 0 0 0 0
2836228156 0.2368091642856598 -0.22854435443878174 0.0007257387042045593 0.0011005569249391556 0 0 0 0
2839950240 0.2195769101381302 -0.2493695467710495 0.0010978234931826591 0.0007286351174116135 0 0 0 0
2843672324 0.2072657346725464 -0.26427072286605835 0.001456931233406067 0.00029405485838651657 0 0 0 0
2847394408 0.184559628367424 -0.27969127893447876 0.0015312731266021729 -0.0002533458173274994 0 0 0 0
2851116492 0.1683095097541809 -0.2914188802242279 0.0015043113380670547 -0.0007074195891618729 0 0 0 0
2854838576 0.14729513227939606 -0.30157631635665894 0.0014007631689310074 -0.0012125782668590546 0 0 0 0
2858560660 0.12770763039588928 -0.31083551049232483 0.001208137720823288 -0.0019756248220801353 0 0 0 0
2862282744 0.09919038414955139 -0.31607040762901306 0.0006723878905177116 -0.0022253012284636497 0 0 0 0
2866004828 0.0798749327659607 -0.31746700406074524 0.0002647712826728821 -0.0022350111976265907 0 0 0 0
2869726912 0.05577540397644043 -0.31719255447387695 4.3363310396671295e-05 -0.0021087033674120903 0 0 0 0
2873448996 0.03209322690963745 -0.3140016198158264 -0.00021666381508111954 -0.0020047184079885483 0 0 0 0
2877171080 0.0056843385100364685 -0.3075923025608063 -0.000491962768137455 -0.0020184852182865143 0 0 0 0
2880893164 -0.014309093356132507 -0.2980858087539673 -0.0007272372022271156 -0.0019658831879496574 0 0 0 0
2884615248 -0.03893467038869858 -0.2829776406288147 -0.001010846346616745 -0.0018704598769545555 0 0 0 0
2888337332 -0.05631280690431595 -0.2679540514945984 -0.0013465574011206627 -0.00169431883841753 0 0 0 0
2892059416 -0.07164378464221954 -0.25093013048171997 -0.0015306230634450912 -0.0012499736621975899 0 0 0 0
2895781500 -0.08898270130157471 -0.23092687129974365 -0.0017121769487857819 -0.0011017946526408195 0 0 0 0
2899503584 -0.10114526003599167 -0.20986002683639526 -0.0018766345456242561 -0.0006396183744072914 0 0 0 0
2903225668 -0.11147335171699524 -0.18626606464385986 -0.0017248345538973808 -0.0003214636817574501 0 0 0 0
2906947752 -0.12090790271759033 -0.15974682569503784 -0.00176988635212183 0.00028308015316724777 0 0 0 0
2910669836 -0.1234656423330307 -0.1327110230922699 -0.0016356976702809334 0.0006640637293457985 0 0 0 0
2914391920 -0.12411458790302277 -0.10467982292175293 -0.0014649787917733192 0.0010611889883875847 0 0 0 0
2918114004 -0.11943699419498444 -0.0789542868733406 -0.001183898188173771 0.0013326769694685936 0 0 0 0
2921836088 -0.11151020228862762 -0.05317588523030281 -0.0006388695910573006 0.0015361635014414787 0 0 0 0
2925558172 -0.1006401926279068 -0.030985569581389427 -0.0002805981785058975 0.001528366468846798 0 0 0 0
2929280256 -0.0875825360417366 -0.008275688625872135 -0.00012667104601860046 0.0014636162668466568 0 0 0 0
2933002340 -0.07173857092857361 0.01147383265197277 7.631443440914154e-05 0.0015812264755368233 0 0 0 0
2936724424 -0.05318531394004822 0.030931178480386734 0.0002650972455739975 0.0017604799941182137 0 0 0 0
2940446508 -0.03265003487467766 0.04647022858262062 0.0007164152339100838 0.002036904916167259 0 0 0 0
2944168592 -0.010350722819566727 0.05939488485455513 0.001143091358244419 0.00205062422901392 0 0 0 0
2947890676 0.013072497211396694 0.06995078176259995 0.0015616966411471367 0.0021620038896799088 0 0 0 0
2951612760 0.039240699261426926 0.07783522456884384 0.0021862005814909935 0.002300969325006008 0 0 0 0
2955334844 0.0661369040608406 0.08241964131593704 0.0028659040108323097 0.0019807014614343643 0 0 0 0
2959056928 0.09297417849302292 0.08232659846544266 0.003692351281642914 0.0014299824833869934 0 0 0 0
2962779012 0.12026132643222809 0.07921040058135986 0.00414006132632494 0.0008780686184763908 0 0 0 0
2966501096 0.14725296199321747 0.07177582383155823 0.004580844193696976 4.527531564235687e-05 0 0 0 0
2970223180 0.17200908064842224 0.05969342961907387 0.004643782041966915 -0.0009267553687095642 0 0 0 0
2973945264 0.1941981166601181 0.04662321135401726 0.004428857937455177 -0.0017849821597337723 0 0 0 0
2977667348 0.21573132276535034 0.0276772603392601 0.004142606630921364 -0.0027238065376877785 0 0 0 0
2981389432 0.232812762260437 0.007724538445472717 0.0035810349509119987 -0.0033248495310544968 0 0 0 0
2985111516 0.24836081266403198 -0.015059135854244232 0.0028124433010816574 -0.004079004749655724 0 0 0 0
2988833600 0.2584947347640991 -0.04036334529519081 0.0017776330932974815 -0.004256336018443108 0 0 0 0
2992555684 0.26617467403411865 -0.06487490236759186 0.0009381137788295746 -0.004446097649633884 0 0 0 0
2996277768 0.26917678117752075 -0.08933655172586441 0.0001828353852033615 -0.004182100296020508 0 0 0 0
2999999852 0.27019113302230835 -0.11381997168064117 -0.0005846386775374413 -0.003922107629477978 0 0 0 0
