# HZ S RI R 50
1500000000 -0.018921460956335068 -0.04229201003909111 0.033668600022792816 -0.026925209909677505 0 0 0 0
1503722084 -0.008557641878724098 -0.03642357513308525 0.028915122151374817 -0.03051578439772129 0 0 0 0
1507444168 0.002335888333618641 -0.029577728360891342 0.024076588451862335 -0.033105481415987015 0 0 0 0
1511166252 0.01500829216092825 -0.021094635128974915 0.01998484507203102 -0.035650599747896194 0 0 0 0
1514888336 0.03201545029878616 -0.012671309523284435 0.015041342005133629 -0.03917476534843445 0 0 0 0
1518610420 0.052854523062705994 -0.006936110556125641 0.008091749623417854 -0.04212801903486252 0 0 0 0
1522332504 0.07472710311412811 -0.004969589412212372 2.820231020450592e-05 -0.04275112226605415 0 0 0 0
1526054588 0.09811005741357803 -0.004500924609601498 -0.007817575708031654 -0.04087718576192856 0 0 0 0
1529776672 0.12427227199077606 -0.006570491939783096 -0.014186806976795197 -0.03752707690000534 0 0 0 0
1533498756 0.15115304291248322 -0.015067048370838165 -0.019590074196457863 -0.0330655463039875 0 0 0 0
1537220840 0.1786307543516159 -0.026557613164186478 -0.02329152263700962 -0.028140641748905182 0 0 0 0
1540942924 0.2065071165561676 -0.04396849125623703 -0.02595825307071209 -0.023350391536951065 0 0 0 0
1544665008 0.23353680968284607 -0.06720596551895142 -0.02798697166144848 -0.019338957965373993 0 0 0 0
1548387092 0.2559460699558258 -0.09767436236143112 -0.029924796894192696 -0.014837556518614292 0 0 0 0
1552109176 0.27325204014778137 -0.1304851472377777 -0.03112739324569702 -0.009710444137454033 0 0 0 0
1555831260 0.28741222620010376 -0.16482305526733398 -0.03118988685309887 -0.004543105140328407 0 0 0 0
1559553344 0.2958085536956787 -0.20527805387973785 -0.030627384781837463 0.00010426901280879974 0 0 0 0
1563275428 0.2965434789657593 -0.24925361573696136 -0.029372986406087875 0.004835505969822407 0 0 0 0
1566997512 0.29128944873809814 -0.2900351881980896 -0.027110854163765907 0.009385415352880955 0 0 0 0
1570719596 0.2798852324485779 -0.3309679925441742 -0.024227282032370567 0.01299253199249506 0 0 0 0
1574441680 0.260603129863739 -0.372646689414978 -0.020459797233343124 0.01582677662372589 0 0 0 0
1578163764 0.23923423886299133 -0.4113187789916992 -0.016724275425076485 0.017460016533732414 0 0 0 0
1581885848 0.21199370920658112 -0.4471021294593811 -0.013303267769515514 0.018016869202256203 0 0 0 0
1585607932 0.1748407930135727 -0.4809797704219818 -0.010598456487059593 0.01821386255323887 0 0 0 0
1589330016 0.13231950998306274 -0.5084843039512634 -0.008079960942268372 0.018371015787124634 0 0 0 0
1593052100 0.08275991678237915 -0.5302674770355225 -0.006024538539350033 0.01827746443450451 0 0 0 0
1596774184 0.031967729330062866 -0.545417308807373 -0.003992840647697449 0.018241968005895615 0 0 0 0
1600496268 -0.019728735089302063 -0.5514370203018188 -0.002369268797338009 0.018335184082388878 0 0 0 0
1604218352 -0.07270720601081848 -0.5522055625915527 -0.0005217352882027626 0.018802165985107422 0 0 0 0
1607940436 -0.12767258286476135 -0.5454477071762085 0.0019948091357946396 0.01882668025791645 0 0 0 0
1611662520 -0.18212367594242096 -0.5310990214347839 0.004549702629446983 0.01872374676167965 0 0 0 0
1615384604 -0.23833736777305603 -0.5066601634025574 0.007353384979069233 0.01799672469496727 0 0 0 0
1619106688 -0.2886154055595398 -0.4730346202850342 0.010061395354568958 0.016807515174150467 0 0 0 0
1622828772 -0.3385799527168274 -0.43035146594047546 0.01264724601060152 0.015005242079496384 0 0 0 0
1626550856 -0.38090407848358154 -0.3824268579483032 0.014827164821326733 0.012628516182303429 0 0 0 0
1630272940 -0.4171040952205658 -0.32289591431617737 0.016382668167352676 0.009804682806134224 0 0 0 0
1633995024 -0.44410020112991333 -0.2595773935317993 0.017253555357456207 0.007021654397249222 0 0 0 0
1637717108 -0.4607820212841034 -0.19273915886878967 0.017863141372799873 0.0044879429042339325 0 0 0 0
1641439192 -0.4675515294075012 -0.12058533728122711 0.018640726804733276 0.0015592370182275772 0 0 0 0
1645161276 -0.4635794758796692 -0.045774221420288086 0.01871522143483162 -0.0017639519646763802 0 0 0 0
1648883360 -0.4480622112751007 0.028980078175663948 0.017586689442396164 -0.0052611976861953735 0 0 0 0
1652605444 -0.4176730215549469 0.10362079739570618 0.015809495002031326 -0.007709602825343609 0 0 0 0
1656327528 -0.37448832392692566 0.1730136275291443 0.013912931084632874 -0.009580927900969982 0 0 0 0
1660049612 -0.3206694722175598 0.23502935469150543 0.012015239335596561 -0.010996634140610695 0 0 0 0
1663771696 -0.2566184103488922 0.28692805767059326 0.010342332534492016 -0.012196892872452736 0 0 0 0
1667493780 -0.1845918893814087 0.3293795585632324 0.008338965475559235 -0.013357054442167282 0 0 0 0
1671215864 -0.10690436512231827 0.3588576316833496 0.0060740625485777855 -0.0141554931178689 0 0 0 0
1674937948 -0.020724698901176453 0.37598916888237 0.0036841584369540215 -0.01488163135945797 0 0 0 0
1678660032 0.06507427245378494 0.37739038467407227 0.0009138602763414383 -0.01477290689945221 0 0 0 0
1682382116 0.15043199062347412 0.36445000767707825 -0.0013502808287739754 -0.013671981170773506 0 0 0 0
1686104200 0.22984236478805542 0.33895638585090637 -0.0028626704588532448 -0.012584295123815536 0 0 0 0
1689826284 0.30482685565948486 0.30140411853790283 -0.004213620908558369 -0.011938171461224556 0 0 0 0
1693548368 0.37348198890686035 0.2531690299510956 -0.005919072777032852 -0.011219163425266743 0 0 0 0
1697270452 0.43343254923820496 0.1938556283712387 -0.007441872730851173 -0.009802120737731457 0 0 0 0
1700992536 0.48256441950798035 0.13059811294078827 -0.00844497513025999 -0.00794737134128809 0 0 0 0
1704714620 0.5218686461448669 0.05292004346847534 -0.008931156247854233 -0.006294297054409981 0 0 0 0
1708436704 0.5475805401802063 -0.02287238836288452 -0.009137348271906376 -0.004922922700643539 0 0 0 0
1712158788 0.5611923336982727 -0.10333491861820221 -0.009157543070614338 -0.003685416653752327 0 0 0 0
1715880872 0.5631341934204102 -0.18158645927906036 -0.009052637964487076 -0.0024632513523101807 0 0 0 0
1719602956 0.5508524179458618 -0.2590111494064331 -0.008797488175332546 -0.0013657035306096077 0 0 0 0
1723325040 0.5277471542358398 -0.3370203375816345 -0.00830128788948059 -0.0004151351749897003 0 0 0 0
1727047124 0.4963776469230652 -0.4034048318862915 -0.007855912670493126 0.00022105034440755844 0 0 0 0
1730769208 0.451863557100296 -0.4674972891807556 -0.007539961487054825 0.0007465900853276253 0 0 0 0
1734491292 0.4007362425327301 -0.5231841206550598 -0.0073583247140049934 0.0013298653066158295 0 0 0 0
1738213376 0.34178662300109863 -0.5697826743125916 -0.006924467161297798 0.0017829807475209236 0 0 0 0
1741935460 0.2744184136390686 -0.6080360412597656 -0.006698356010019779 0.002046111971139908 0 0 0 0
1745657544 0.20751918852329254 -0.6334348917007446 -0.006742386147379875 0.0020749736577272415 0 0 0 0
1749379628 0.13639941811561584 -0.6494980454444885 -0.0071268230676651 0.0023858947679400444 0 0 0 0
1753101712 0.06608831882476807 -0.6530218720436096 -0.007572195492684841 0.0029943203553557396 0 0 0 0
1756823796 -0.010439664125442505 -0.6469115018844604 -0.008077026344835758 0.004027142189443111 0 0 0 0
1760545880 -0.07764007151126862 -0.6292262673377991 -0.00834243930876255 0.005433626472949982 0 0 0 0
1764267964 -0.14294841885566711 -0.6019434332847595 -0.008382140658795834 0.0072946008294820786 0 0 0 0
1767990048 -0.20103496313095093 -0.565876305103302 -0.007558303885161877 0.009499448351562023 0 0 0 0
1771712132 -0.2514417767524719 -0.5207472443580627 -0.005810601636767387 0.011050693690776825 0 0 0 0
1775434216 -0.2954339385032654 -0.47062939405441284 -0.004245872609317303 0.011968066915869713 0 0 0 0
1779156300 -0.3298184871673584 -0.4143451154232025 -0.00278399046510458 0.012703199870884418 0 0 0 0
1782878384 -0.3547866940498352 -0.35630542039871216 -0.001480892300605774 0.013628821820020676 0 0 0 0
1786600468 -0.3737385869026184 -0.2939375638961792 0.000337403267621994 0.01481133233755827 0 0 0 0
1790322552 -0.37953391671180725 -0.2319738268852234 0.0028803320601582527 0.015651699155569077 0 0 0 0
1794044636 -0.37898752093315125 -0.16767752170562744 0.005756763741374016 0.015784505754709244 0 0 0 0
1797766720 -0.367683470249176 -0.1071864515542984 0.008377325721085072 0.01536559872329235 0 0 0 0
1801488804 -0.3483750820159912 -0.049729228019714355 0.011082755401730537 0.015092014335095882 0 0 0 0
1805210888 -0.3218294382095337 0.003988481126725674 0.014496302232146263 0.013967168517410755 0 0 0 0
1808932972 -0.2880452275276184 0.053452856838703156 0.01767946593463421 0.011828368529677391 0 0 0 0
1812655056 -0.24746812880039215 0.09689746052026749 0.02030603401362896 0.009075132198631763 0 0 0 0
1816377140 -0.19878602027893066 0.13615287840366364 0.022679153829813004 0.006022515706717968 0 0 0 0
1820099224 -0.14526459574699402 0.1650032103061676 0.025204401463270187 0.0020016394555568695 0 0 0 0
1823821308 -0.08824767172336578 0.18430832028388977 0.02663625404238701 -0.003211681731045246 0 0 0 0
1827543392 -0.028504088521003723 0.1936880350112915 0.026155861094594002 -0.008760000579059124 0 0 0 0
1831265476 0.030437415465712547 0.19271664321422577 0.024912141263484955 -0.013677846640348434 0 0 0 0
1834987560 0.08816691488027573 0.18169881403446198 0.02258135937154293 -0.019451024010777473 0 0 0 0
1838709644 0.140933558344841 0.16210824251174927 0.018585167825222015 -0.02453036978840828 0 0 0 0
1842431728 0.18825262784957886 0.1357835829257965 0.013352462090551853 -0.027947258204221725 0 0 0 0
1846153812 0.2308157980442047 0.10072554647922516 0.00782227236777544 -0.02984674461185932 0 0 0 0
1849875896 0.26471731066703796 0.060906052589416504 0.0025614388287067413 -0.03065207228064537 0 0 0 0
1853597980 0.29080015420913696 0.01771150529384613 -0.00261821411550045 -0.0307951420545578 0 0 0 0
1857320064 0.3086608052253723 -0.028797410428524017 -0.007860825397074223 -0.029955700039863586 0 0 0 0
1861042148 0.31857115030288696 -0.07393257319927216 -0.012708257883787155 -0.028365299105644226 0 0 0 0
1864764232 0.3209044337272644 -0.12012648582458496 -0.01748836785554886 -0.02615436725318432 0 0 0 0
1868486316 0.31682997941970825 -0.16484974324703217 -0.021948371082544327 -0.023349057883024216 0 0 0 0
1872208400 0.30459633469581604 -0.2083154320716858 -0.026303410530090332 -0.019819635897874832 0 0 0 0
1875930484 0.28413769602775574 -0.2492217719554901 -0.030763722956180573 -0.017265131697058678 0 0 0 0
1879652568 0.2573472857475281 -0.2835385799407959 -0.03409291431307793 -0.01096433587372303 0 0 0 0
1883374652 0.22755883634090424 -0.3101099133491516 -0.035552408546209335 -0.004425534047186375 0 0 0 0
1887096736 0.1949230432510376 -0.33091554045677185 -0.035850889980793 0.002170816995203495 0 0 0 0
1890818820 0.16057506203651428 -0.3452833890914917 -0.03493000194430351 0.008642664179205894 0 0 0 0
1894540904 0.1259632706642151 -0.35301709175109863 -0.03329416736960411 0.014502066187560558 0 0 0 0
1898262988 0.09139607846736908 -0.35470759868621826 -0.030554112046957016 0.02027800865471363 0 0 0 0
1901985072 0.05578383803367615 -0.35078567266464233 -0.026458047330379486 0.025518935173749924 0 0 0 0
1905707156 0.025140106678009033 -0.34141403436660767 -0.02217908948659897 0.0296650230884552 0 0 0 0
1909429240 -0.0033168941736221313 -0.32618069648742676 -0.017438208684325218 0.03325502574443817 0 0 0 0
1913151324 -0.028181785717606544 -0.30778172612190247 -0.011851356364786625 0.03653104603290558 0 0 0 0
1916873408 -0.04984169453382492 -0.2867959141731262 -0.004875761456787586 0.03883664309978485 0 0 0 0
1920595492 -0.06840644776821136 -0.2609410881996155 0.0024754945188760757 0.039516545832157135 0 0 0 0
1924317576 -0.0802546888589859 -0.23394615948200226 0.010192949324846268 0.039222411811351776 0 0 0 0
1928039660 -0.08580203354358673 -0.20565906167030334 0.017778461799025536 0.03697706013917923 0 0 0 0
1931761744 -0.09027240425348282 -0.17670829594135284 0.02571345865726471 0.032653629779815674 0 0 0 0
1935483828 -0.08732069283723831 -0.14773260056972504 0.03161441162228584 0.026094025000929832 0 0 0 0
1939205912 -0.0800287276506424 -0.11875993758440018 0.0349510982632637 0.018345046788454056 0 0 0 0
1942927996 -0.0665917620062828 -0.09072918444871902 0.03635784238576889 0.011021006852388382 0 0 0 0
1946650080 -0.04714775085449219 -0.0683249905705452 0.036709487438201904 0.004714915528893471 0 0 0 0
1950372164 -0.02474481612443924 -0.049037013202905655 0.03681812807917595 -0.0013771168887615204 0 0 0 0
1954094248 0.0008279988542199135 -0.03510230407118797 0.03580234572291374 -0.007947331294417381 0 0 0 0
1957816332 0.028247414156794548 -0.026475418359041214 0.03358947113156319 -0.014410783536732197 0 0 0 0
1961538416 0.05556240677833557 -0.023296304047107697 0.029460683465003967 -0.020743653178215027 0 0 0 0
1965260500 0.08358344435691833 -0.02495119348168373 0.02427970990538597 -0.02533198893070221 0 0 0 0
1968982584 0.11012882739305496 -0.03206256031990051 0.019068188965320587 -0.028361547738313675 0 0 0 0
1972704668 0.13365383446216583 -0.044857971370220184 0.013575387187302113 -0.030986987054347992 0 0 0 0
1976426752 0.1549743264913559 -0.05919937789440155 0.007887434214353561 -0.03225170075893402 0 0 0 0
1980148836 0.17371156811714172 -0.07789071649312973 0.0016131652519106865 -0.03282339125871658 0 0 0 0
1983870920 0.18896092474460602 -0.09883414208889008 -0.004478623159229755 -0.03215010091662407 0 0 0 0
1987593004 0.19960756599903107 -0.12331412732601166 -0.010389336384832859 -0.030295446515083313 0 0 0 0
1991315088 0.20481537282466888 -0.15150128304958344 -0.015378809534013271 -0.026854099705815315 0 0 0 0
1995037172 0.2048667073249817 -0.17836850881576538 -0.01915089599788189 -0.02318667806684971 0 0 0 0
1998759256 0.19779512286186218 -0.20495428144931793 -0.022354235872626305 -0.01912963204085827 0 0 0 0
2002481340 0.1873781979084015 -0.22811898589134216 -0.024852819740772247 -0.014893724583089352 0 0 0 0
2006203424 0.172370046377182 -0.24948689341545105 -0.026708180084824562 -0.0101736169308424 0 0 0 0
2009925508 0.15432631969451904 -0.2672286927700043 -0.027555353939533234 -0.006039449013769627 0 0 0 0
2013647592 0.13419398665428162 -0.2807239294052124 -0.028228718787431717 -0.0018074456602334976 0 0 0 0
2017369676 0.11094489693641663 -0.2909104824066162 -0.028453508391976357 0.003053768537938595 0 0 0 0
2021091760 0.08784637600183487 -0.29686182737350464 -0.02805212140083313 0.008003066293895245 0 0 0 0
2024813844 0.06403480470180511 -0.3002665340900421 -0.026190098375082016 0.012798809446394444 0 0 0 0
2028535928 0.03938302397727966 -0.2992657721042633 -0.023679587990045547 0.01742563396692276 0 0 0 0
2032258012 0.014892295002937317 -0.2925749719142914 -0.019722355529665947 0.02164311148226261 0 0 0 0
2035980096 -0.008226364850997925 -0.2822583317756653 -0.015620902180671692 0.02430705353617668 0 0 0 0
2039702180 -0.030130431056022644 -0.26871222257614136 -0.010809874162077904 0.02621537819504738 0 0 0 0
2043424264 -0.05074573680758476 -0.2513519525527954 -0.006270410493016243 0.026942744851112366 0 0 0 0
2047146348 -0.06710682809352875 -0.2303798496723175 -0.0020528100430965424 0.026998916640877724 0 0 0 0
2050868432 -0.07932645082473755 -0.20787853002548218 0.0017621004953980446 0.02685440704226494 0 0 0 0
2054590516 -0.08846984803676605 -0.1822691708803177 0.005518450401723385 0.025923851877450943 0 0 0 0
2058312600 -0.09438114613294601 -0.15501299500465393 0.009247289039194584 0.025531824678182602 0 0 0 0
2062034684 -0.09468366205692291 -0.12838757038116455 0.013268692418932915 0.024348286911845207 0 0 0 0
2065756768 -0.09152545779943466 -0.1002264991402626 0.01764301396906376 0.02209058403968811 0 0 0 0
2069478852 -0.08314844220876694 -0.07173370569944382 0.02147122286260128 0.019354209303855896 0 0 0 0
2073200936 -0.07004323601722717 -0.04531969875097275 0.0248362198472023 0.015493648126721382 0 0 0 0
2076923020 -0.05256379768252373 -0.0211612768471241 0.02770294062793255 0.010561100207269192 0 0 0 0
2080645104 -0.0320533849298954 0.000133623369038105 0.029183074831962585 0.005292682908475399 0 0 0 0
2084367188 -0.008891809731721878 0.01790870539844036 0.029734252020716667 -0.0004152292385697365 0 0 0 0
2088089272 0.018475499004125595 0.03253811225295067 0.0285352636128664 -0.005628565326333046 0 0 0 0
2091811356 0.04794519022107124 0.041851840913295746 0.02665874920785427 -0.01070932112634182 0 0 0 0
2095533440 0.0785449966788292 0.04679182544350624 0.02384910173714161 -0.01489692647010088 0 0 0 0
2099255524 0.10941006988286972 0.04661015048623085 0.020338110625743866 -0.018286723643541336 0 0 0 0
2102977608 0.1408640593290329 0.041087448596954346 0.016998151317238808 -0.020522644743323326 0 0 0 0
2106699692 0.17010904848575592 0.03124270588159561 0.014285966753959656 -0.022641414776444435 0 0 0 0
2110421776 0.1977185308933258 0.015593737363815308 0.01106739230453968 -0.025280412286520004 0 0 0 0
2114143860 0.2229176014661789 -0.00517447292804718 0.006711789406836033 -0.027781523764133453 0 0 0 0
2117865944 0.2432638704776764 -0.026286941021680832 0.001184551976621151 -0.029308389872312546 0 0 0 0
2121588028 0.25974327325820923 -0.052887484431266785 -0.004284977912902832 -0.029590265825390816 0 0 0 0
2125310112 0.2700052261352539 -0.08134684711694717 -0.010176052339375019 -0.02830926701426506 0 0 0 0
2129032196 0.2775556445121765 -0.1076967865228653 -0.015417676419019699 -0.02624874748289585 0 0 0 0
2132754280 0.2791418433189392 -0.13760678470134735 -0.02096298150718212 -0.022495154291391373 0 0 0 0
2136476364 0.2769755423069 -0.16471213102340698 -0.025319986045360565 -0.017618898302316666 0 0 0 0
2140198448 0.27218228578567505 -0.1914423406124115 -0.027901550754904747 -0.011523377150297165 0 0 0 0
2143920532 0.2623041868209839 -0.218729168176651 -0.0285476241260767 -0.005283473990857601 0 0 0 0
2147642616 0.2496514767408371 -0.24302633106708527 -0.027940673753619194 -2.2902153432369232e-05 0 0 0 0
2151364700 0.2324848473072052 -0.26500722765922546 -0.026547404006123543 0.004533874802291393 0 0 0 0
2155086784 0.21233507990837097 -0.28302839398384094 -0.024585537612438202 0.008654716424643993 0 0 0 0
2158808868 0.1888417899608612 -0.2979911267757416 -0.021938709542155266 0.011986922472715378 0 0 0 0
2162530952 0.1650443971157074 -0.3087591528892517 -0.019431093707680702 0.014823298901319504 0 0 0 0
2166253036 0.13942769169807434 -0.3151949644088745 -0.016631728038191795 0.017343323677778244 0 0 0 0
2169975120 0.11418477445840836 -0.31876951456069946 -0.01360698975622654 0.01965741068124771 0 0 0 0
2173697204 0.08785225450992584 -0.31806623935699463 -0.009963098913431168 0.02121812105178833 0 0 0 0
2177419288 0.06304935365915298 -0.3148948550224304 -0.006412622518837452 0.022144407033920288 0 0 0 0
2181141372 0.040196068584918976 -0.3087419271469116 -0.0032081175595521927 0.02266264706850052 0 0 0 0
2184863456 0.014413535594940186 -0.2972734570503235 0.0002661151811480522 0.02259380742907524 0 0 0 0
2188585540 -0.006728216074407101 -0.2818111777305603 0.003553357906639576 0.022493721917271614 0 0 0 0
2192307624 -0.02646494284272194 -0.26187124848365784 0.007229656912386417 0.02177036553621292 0 0 0 0
2196029708 -0.04379020631313324 -0.23835314810276031 0.011017673648893833 0.020191429182887077 0 0 0 0
2199751792 -0.05577918514609337 -0.21275636553764343 0.014314263127744198 0.018105730414390564 0 0 0 0
2203473876 -0.060699526220560074 -0.18644964694976807 0.01763537898659706 0.014884229749441147 0 0 0 0
2207195960 -0.0609075166285038 -0.16147412359714508 0.020158452913165092 0.011048758402466774 0 0 0 0
2210918044 -0.062352318316698074 -0.1345546692609787 0.021152757108211517 0.006273076869547367 0 0 0 0
2214640128 -0.05285269394516945 -0.11181837320327759 0.02041149139404297 0.0023140525445342064 0 0 0 0
2218362212 -0.04538308456540108 -0.0879865288734436 0.019097644835710526 -0.0007683746516704559 0 0 0 0
2222084296 -0.03579477593302727 -0.06481561809778214 0.01792866922914982 -0.003385549411177635 0 0 0 0
2225806380 -0.01877075992524624 -0.04370860382914543 0.01689385622739792 -0.005406158976256847 0 0 0 0
2229528464 -0.00023686978965997696 -0.024230938404798508 0.015603319741785526 -0.008012669160962105 0 0 0 0
2233250548 0.02366921305656433 -0.009518632665276527 0.013898386619985104 -0.010225391015410423 0 0 0 0
2236972632 0.049842771142721176 0.00012928061187267303 0.011584102176129818 -0.01199811790138483 0 0 0 0
2240694716 0.07582271844148636 0.0037141703069210052 0.008959059603512287 -0.012969453819096088 0 0 0 0
2244416800 0.10161027312278748 0.0031247474253177643 0.006914141587913036 -0.0134639423340559 0 0 0 0
2248138884 0.12821108102798462 0.0013074129819869995 0.005336381494998932 -0.013916142284870148 0 0 0 0
2251860968 0.15364374220371246 -0.008432578295469284 0.004026656039059162 -0.013571338728070259 0 0 0 0
2255583052 0.17741112411022186 -0.023673206567764282 0.0017598140984773636 -0.014192430302500725 0 0 0 0
2259305136 0.19668948650360107 -0.04183705151081085 -0.00045151542872190475 -0.014064731076359749 0 0 0 0
2263027220 0.21311882138252258 -0.06305115669965744 -0.0023849699646234512 -0.013807405717670918 0 0 0 0
2266749304 0.2232140749692917 -0.08677589893341064 -0.004245833493769169 -0.013158462941646576 0 0 0 0
2270471388 0.22834214568138123 -0.11027786880731583 -0.00604133028537035 -0.012453438714146614 0 0 0 0
2274193472 0.2265026569366455 -0.13513608276844025 -0.007804730907082558 -0.011269348673522472 0 0 0 0
2277915556 0.22354193031787872 -0.1564224660396576 -0.009265972301363945 -0.009971648454666138 0 0 0 0
2281637640 0.21504652500152588 -0.17878374457359314 -0.010434937663376331 -0.008883718401193619 0 0 0 0
2285359724 0.20999173820018768 -0.19318506121635437 -0.01151137426495552 -0.00744246318936348 0 0 0 0
2289081808 0.19814808666706085 -0.2110922783613205 -0.01254996843636036 -0.005816209129989147 0 0 0 0
2292803892 0.18164534866809845 -0.22789667546749115 -0.013168876059353352 -0.004010153003036976 0 0 0 0
2296525976 0.16718295216560364 -0.23727750778198242 -0.013748804107308388 -0.0023894375190138817 0 0 0 0
2300248060 0.14898300170898438 -0.24641644954681396 -0.014098904095590115 -0.0007042782381176949 0 0 0 0
2303970144 0.12541574239730835 -0.25776049494743347 -0.014377279207110405 0.0013506365939974785 0 0 0 0
2307692228 0.10084418952465057 -0.258286714553833 -0.014450645074248314 0.0035072769969701767 0 0 0 0
2311414312 0.08266810327768326 -0.2553313970565796 -0.013925226405262947 0.0059932442381978035 0 0 0 0
2315136396 0.05952032655477524 -0.250053733587265 -0.012590267695486546 0.008400484919548035 0 0 0 0
2318858480 0.043472424149513245 -0.24113035202026367 -0.010938659310340881 0.010168613865971565 0 0 0 0
2322580564 0.02068183571100235 -0.22904546558856964 -0.00919117871671915 0.01146766822785139 0 0 0 0
2326302648 0.005569726228713989 -0.21237197518348694 -0.007499679923057556 0.012530196458101273 0 0 0 0
2330024732 -0.008059091866016388 -0.19352450966835022 -0.005467855371534824 0.013607729226350784 0 0 0 0
2333746816 -0.016627594828605652 -0.17237481474876404 -0.0034344997256994247 0.014384299516677856 0 0 0 0
2337468900 -0.02075476199388504 -0.15037678182125092 -0.0012781815603375435 0.014778314158320427 0 0 0 0
2341190984 -0.020931456238031387 -0.12701672315597534 0.0010458193719387054 0.014618253335356712 0 0 0 0
2344913068 -0.0208192877471447 -0.10289046168327332 0.003748709335923195 0.013749402016401291 0 0 0 0
2348635152 -0.014162277802824974 -0.07928702235221863 0.005442055873572826 0.012394962832331657 0 0 0 0
2352357236 -0.0032225409522652626 -0.05794300511479378 0.006833833642303944 0.011191627010703087 0 0 0 0
2356079320 0.01057014986872673 -0.03743758797645569 0.007756234146654606 0.00981576181948185 0 0 0 0
2359801404 0.030174676328897476 -0.019434930756688118 0.008775265887379646 0.008503088727593422 0 0 0 0
2363523488 0.05069125443696976 -0.006996942684054375 0.009627635590732098 0.007234429009258747 0 0 0 0
2367245572 0.07415597140789032 0.0024046292528510094 0.010307544842362404 0.00586786400526762 0 0 0 0
2370967656 0.09876363724470139 0.008009880781173706 0.010935967788100243 0.004192891530692577 0 0 0 0
2374689740 0.12224173545837402 0.008161734789609909 0.010916225612163544 0.0020560836419463158 0 0 0 0
2378411824 0.14616426825523376 0.006133757531642914 0.010408620350062847 0.0004741605371236801 0 0 0 0
2382133908 0.16870573163032532 0.00021785497665405273 0.009640002623200417 -0.0008895453065633774 0 0 0 0
2385855992 0.1898909956216812 -0.009244047105312347 0.009021534584462643 -0.001730235293507576 0 0 0 0
2389578076 0.21051932871341705 -0.020977720618247986 0.008531265892088413 -0.0027392320334911346 0 0 0 0
2393300160 0.22962643206119537 -0.0346078984439373 0.007832756265997887 -0.0037857461720705032 0 0 0 0
2397022244 0.24564528465270996 -0.054648131132125854 0.006998325698077679 -0.00476353894919157 0 0 0 0
2400744328 0.2596036195755005 -0.07438939809799194 0.005920714698731899 -0.005603428930044174 0 0 0 0
2404466412 0.27059370279312134 -0.09770651906728745 0.004631011746823788 -0.0058691175654530525 0 0 0 0
2408188496 0.27811911702156067 -0.12363139539957047 0.0038903672248125076 -0.006112806499004364 0 0 0 0
2411910580 0.2825931906700134 -0.15107163786888123 0.003253418020904064 -0.006670182570815086 0 0 0 0
2415632664 0.2803315222263336 -0.17657431960105896 0.002101680263876915 -0.007189890369772911 0 0 0 0
2419354748 0.27408674359321594 -0.2036687582731247 0.000699884258210659 -0.007471136748790741 0 0 0 0
2423076832 0.2638031840324402 -0.22996313869953156 -0.0010061385110020638 -0.007538360543549061 0 0 0 0
2426798916 0.24826258420944214 -0.2554771900177002 -0.0020908741280436516 -0.006855892017483711 0 0 0 0
2430521000 0.23112623393535614 -0.27409034967422485 -0.003368108533322811 -0.006225817836821079 0 0 0 0
2434243084 0.20870304107666016 -0.290880411863327 -0.004310352727770805 -0.005515351891517639 0 0 0 0
2437965168 0.18672877550125122 -0.30430909991264343 -0.0052206190302968025 -0.004662202671170235 0 0 0 0
2441687252 0.16138377785682678 -0.31517869234085083 -0.006053525023162365 -0.0033790506422519684 0 0 0 0
2445409336 0.1343158483505249 -0.3233676254749298 -0.006331387907266617 -0.0019154390320181847 0 0 0 0
2449131420 0.10992816090583801 -0.3242153227329254 -0.006090408191084862 -0.0006840955466032028 0 0 0 0
2452853504 0.08265890181064606 -0.3247588574886322 -0.005591237917542458 0.0005051763728260994 0 0 0 0
2456575588 0.05206169933080673 -0.3201260566711426 -0.004774218425154686 0.001082034781575203 0 0 0 0
2460297672 0.025715164840221405 -0.31241732835769653 -0.004491943866014481 0.001435834914445877 0 0 0 0
2464019756 0.0019895583391189575 -0.2991556227207184 -0.0041691018268466 0.001952214166522026 0 0 0 0
2467741840 -0.023187115788459778 -0.28303617238998413 -0.0037900637835264206 0.0022539962083101273 0 0 0 0
2471463924 -0.04568006843328476 -0.2639887034893036 -0.003233233466744423 0.002729276195168495 0 0 0 0
2475186008 -0.06489115208387375 -0.24031250178813934 -0.002617333084344864 0.0028254641219973564 0 0 0 0
2478908092 -0.0803452879190445 -0.21373935043811798 -0.0019377032294869423 0.003164641559123993 0 0 0 0
2482630176 -0.09127181768417358 -0.1834748089313507 -0.0013402709737420082 0.002957369200885296 0 0 0 0
2486352260 -0.09743869304656982 -0.15220960974693298 -0.000835934653878212 0.003016236238181591 0 0 0 0
2490074344 -0.099159836769104 -0.11933356523513794 -0.00019770022481679916 0.002939748577773571 0 0 0 0
2493796428 -0.09325946867465973 -0.08779370784759521 0.0007568178698420525 0.0024290336295962334 0 0 0 0
2497518512 -0.08532147109508514 -0.05490736663341522 0.0013217590749263763 0.001414692960679531 0 0 0 0
2501240596 -0.06966829299926758 -0.02667076326906681 0.0012006452307105064 0.0004281960427761078 0 0 0 0
2504962680 -0.05095090717077255 0.0003306502476334572 0.0010156827047467232 -0.0005227215588092804 0 0 0 0
2508684764 -0.027557678520679474 0.023920316249132156 0.00036177877336740494 -0.001215730793774128 0 0 0 0
2512406848 -0.001226494088768959 0.043368615210056305 -0.0007730983197689056 -0.0017252881079912186 0 0 0 0
2516128932 0.028365597128868103 0.058272913098335266 -0.0016762064769864082 -0.0014158599078655243 0 0 0 0
2519851016 0.06010252237319946 0.06943153589963913 -0.0023976899683475494 -0.0008602859452366829 0 0 0 0
2523573100 0.09406477212905884 0.07355964183807373 -0.0025059720501303673 -6.899703294038773e-05 0 0 0 0
2527295184 0.12774719297885895 0.072808638215065 -0.0020013293251395226 0.00028539542108774185 0 0 0 0
2531017268 0.16127648949623108 0.06485803425312042 -0.0017119357362389565 0.00014725979417562485 0 0 0 0
2534739352 0.19213874638080597 0.05058035999536514 -0.001955893822014332 -0.00034986529499292374 0 0 0 0
2538461436 0.21951818466186523 0.03331102430820465 -0.002903078682720661 -0.0005609616637229919 0 0 0 0
2542183520 0.24172373116016388 0.01114722341299057 -0.004006301052868366 -0.0002466794103384018 0 0 0 0
2545905604 0.26004403829574585 -0.01338869333267212 -0.004948798567056656 0.0009665712714195251 0 0 0 0
2549627688 0.2725191116333008 -0.04166523367166519 -0.005033616907894611 0.002734992653131485 0 0 0 0
2553349772 0.2845539450645447 -0.06507416069507599 -0.0044582560658454895 0.004453749395906925 0 0 0 0
2557071856 0.2896917760372162 -0.09377448260784149 -0.0030206041410565376 0.005637958645820618 0 0 0 0
2560793940 0.28919851779937744 -0.1252831518650055 -0.001575341448187828 0.006055695004761219 0 0 0 0
2564516024 0.28671562671661377 -0.15096551179885864 -0.0004894910380244255 0.006014436483383179 0 0 0 0
2568238108 0.2790839672088623 -0.1769372522830963 0.0005617495626211166 0.006070301868021488 0 0 0 0
2571960192 0.265774667263031 -0.20115016400814056 0.0015901103615760803 0.005803044885396957 0 0 0 0
2575682276 0.2519432008266449 -0.22078390419483185 0.0024656159803271294 0.005641169846057892 0 0 0 0
2579404360 0.23269782960414886 -0.24142850935459137 0.0034095225855708122 0.005239519290626049 0 0 0 0
2583126444 0.21600067615509033 -0.25367921590805054 0.004227733239531517 0.004704863764345646 0 0 0 0
2586848528 0.19282543659210205 -0.26604586839675903 0.005041711963713169 0.004041758365929127 0 0 0 0
2590570612 0.16996674239635468 -0.2746628224849701 0.006205398589372635 0.003455163910984993 0 0 0 0
2594292696 0.1462995857000351 -0.2786080241203308 0.007122809067368507 0.002420716919004917 0 0 0 0
2598014780 0.1238957941532135 -0.27927297353744507 0.007875974290072918 0.000998874194920063 0 0 0 0
2601736864 0.1003083735704422 -0.2774043083190918 0.00830049067735672 -0.0005400702357292175 0 0 0 0
2605458948 0.08020320534706116 -0.2681281864643097 0.008303900249302387 -0.0022081173956394196 0 0 0 0
2609181032 0.059342190623283386 -0.2589395046234131 0.008152395486831665 -0.003845701925456524 0 0 0 0
2612903116 0.04419203847646713 -0.2460891306400299 0.007689850404858589 -0.0056668855249881744 0 0 0 0
2616625200 0.030985508114099503 -0.23071999847888947 0.0068311914801597595 -0.00727414432913065 0 0 0 0
2620347284 0.019618820399045944 -0.21488790214061737 0.005391404032707214 -0.008864042349159718 0 0 0 0
2624069368 0.011448122560977936 -0.1964997500181198 0.003611861728131771 -0.00977298617362976 0 0 0 0
2627791452 0.00624895840883255 -0.17549696564674377 0.002649289555847645 -0.009517200291156769 0 0 0 0
2631513536 0.007369235157966614 -0.15501606464385986 0.0011854730546474457 -0.009964413940906525 0 0 0 0
2635235620 0.01169438473880291 -0.1364196538925171 -8.011516183614731e-05 -0.010504957288503647 0 0 0 0
2638957704 0.01894552633166313 -0.12056553363800049 -0.0016004648059606552 -0.011045907624065876 0 0 0 0
2642679788 0.02749009057879448 -0.1074899435043335 -0.003879457712173462 -0.011957116425037384 0 0 0 0
2646401872 0.03935723379254341 -0.09723381698131561 -0.006410100497305393 -0.011908355168998241 0 0 0 0
2650123956 0.05171443894505501 -0.08827901631593704 -0.009236629121005535 -0.011121322400867939 0 0 0 0
2653846040 0.06484486162662506 -0.08210867643356323 -0.011970451101660728 -0.009347745217382908 0 0 0 0
2657568124 0.07941089570522308 -0.07846040278673172 -0.014281650073826313 -0.006536826491355896 0 0 0 0
2661290208 0.09495928883552551 -0.07848881185054779 -0.01568106934428215 -0.0033717378973960876 0 0 0 0
2665012292 0.11003859341144562 -0.08194027841091156 -0.015716800466179848 0.00027423538267612457 0 0 0 0
2668734376 0.12339656800031662 -0.08957739919424057 -0.014965577982366085 0.0035895714536309242 0 0 0 0
2672456460 0.1360798478126526 -0.09785480052232742 -0.01346457377076149 0.006043660454452038 0 0 0 0
2676178544 0.14343112707138062 -0.11167238652706146 -0.011739211156964302 0.008249816484749317 0 0 0 0
2679900628 0.14766427874565125 -0.12593454122543335 -0.009891846217215061 0.010103752836585045 0 0 0 0
2683622712 0.14987018704414368 -0.13924315571784973 -0.007515609264373779 0.011519992724061012 0 0 0 0
2687344796 0.14884839951992035 -0.1530320793390274 -0.005384661257266998 0.01236263569444418 0 0 0 0
2691066880 0.14170268177986145 -0.16807016730308533 -0.0024896198883652687 0.012760836631059647 0 0 0 0
2694788964 0.136371448636055 -0.1771962195634842 -0.00012916512787342072 0.01246747188270092 0 0 0 0
2698511048 0.128160297870636 -0.18691173195838928 0.0019980603829026222 0.01155119389295578 0 0 0 0
2702233132 0.11427770555019379 -0.19636406004428864 0.0035657091066241264 0.010491529479622841 0 0 0 0
2705955216 0.10417552292346954 -0.20142236351966858 0.004728568717837334 0.009629066102206707 0 0 0 0
2709677300 0.09028169512748718 -0.2050851285457611 0.006102966144680977 0.009168190881609917 0 0 0 0
2713399384 0.07491730898618698 -0.20773394405841827 0.007889791391789913 0.008024405688047409 0 0 0 0
2717121468 0.05989904701709747 -0.2065356820821762 0.009395389817655087 0.00637273583561182 0 0 0 0
2720843552 0.046221207827329636 -0.20182380080223083 0.010294362902641296 0.0044888779520988464 0 0 0 0
2724565636 0.0319465696811676 -0.19520138204097748 0.01105574518442154 0.0025645680725574493 0 0 0 0
2728287720 0.017364205792546272 -0.18553921580314636 0.011374871246516705 0.0002361619845032692 0 0 0 0
2732009804 0.005838578566908836 -0.1725214570760727 0.01137615367770195 -0.0019190795719623566 0 0 0 0
2735731888 -0.004192303866147995 -0.1581699103116989 0.011254647746682167 -0.004179755225777626 0 0 0 0
2739453972 -0.007568061351776123 -0.1417231261730194 0.010297144763171673 -0.006463705562055111 0 0 0 0
2743176056 -0.014344997704029083 -0.12454386800527573 0.008696229197084904 -0.008833538740873337 0 0 0 0
2746898140 -0.015801116824150085 -0.10681779682636261 0.006392451003193855 -0.010526076890528202 0 0 0 0
2750620224 -0.0129168089479208 -0.08857161551713943 0.00421131681650877 -0.011385454796254635 0 0 0 0
2754342308 -0.008489549160003662 -0.07015633583068848 0.001574070192873478 -0.011890914291143417 0 0 0 0
2758064392 -0.0005802297964692116 -0.05250338092446327 -0.0008372869342565536 -0.011527741327881813 0 0 0 0
2761786476 0.011301634833216667 -0.03665686026215553 -0.0027653872966766357 -0.010901433415710926 0 0 0 0
2765508560 0.024896034970879555 -0.02338762767612934 -0.004542202688753605 -0.01022256352007389 0 0 0 0
2769230644 0.03976620361208916 -0.011841912753880024 -0.006113334558904171 -0.009412426501512527 0 0 0 0
2772952728 0.05671366676688194 -0.0025900769978761673 -0.007881716825067997 -0.0077689699828624725 0 0 0 0
2776674812 0.0748952105641365 0.004511473700404167 -0.009152841754257679 -0.005976425483822823 0 0 0 0
2780396896 0.09450207650661469 0.009065233170986176 -0.009890897199511528 -0.003847380168735981 0 0 0 0
2784118980 0.11533910781145096 0.009751307778060436 -0.010127514600753784 -0.0018244460225105286 0 0 0 0
2787841064 0.13639941811561584 0.00871821865439415 -0.010021302849054337 4.9277208745479584e-05 0 0 0 0
2791563148 0.15840835869312286 0.0034561762586236 -0.009541967883706093 0.0020668180659413338 0 0 0 0
2795285232 0.17965492606163025 -0.005335122346878052 -0.008524276316165924 0.0037791505455970764 0 0 0 0
2799007316 0.1996089071035385 -0.017795145511627197 -0.007038339972496033 0.005331503227353096 0 0 0 0
2802729400 0.21573416888713837 -0.033067576587200165 -0.005603494122624397 0.006165817379951477 0 0 0 0
2806451484 0.2294488549232483 -0.05383885279297829 -0.004015169106423855 0.006760044023394585 0 0 0 0
2810173568 0.2408795952796936 -0.07089956104755402 -0.002600269392132759 0.006864463910460472 0 0 0 0
2813895652 0.24940359592437744 -0.09567518532276154 -0.0012186672538518906 0.0068207718431949615 0 0 0 0
2817617736 0.25361955165863037 -0.11802268028259277 -4.629697650671005e-05 0.006605888716876507 0 0 0 0
2821339820 0.2541903853416443 -0.14179730415344238 0.001078820787370205 0.006282280199229717 0 0 0 0
2825061904 0.2507112920284271 -0.1641855686903 0.0020869560539722443 0.005876835435628891 0 0 0 0
2828783988 0.2457488477230072 -0.18598026037216187 0.0029979990795254707 0.005286118946969509 0 0 0 0
2832506072 0.2365478277206421 -0.2063639760017395 0.00389072485268116 0.004437876865267754 0 0 0 0
2836228156 0.22475405037403107 -0.22521156072616577 0.004474906250834465 0.0034816963598132133 0 0 0 0
2839950240 0.21049386262893677 -0.24533110857009888 0.004837171174585819 0.0026047909632325172 0 0 0 0
2843672324 0.19815713167190552 -0.25895652174949646 0.005012448877096176 0.0018850788474082947 0 0 0 0
2847394408 0.18469998240470886 -0.27241045236587524 0.005194076336920261 0.0013331612572073936 0 0 0 0
2851116492 0.16384482383728027 -0.28598445653915405 0.005623446777462959 0.0005527567118406296 0 0 0 0
2854838576 0.1423817276954651 -0.2948377728462219 0.005923701450228691 -0.0004160897806286812 0 0 0 0
2858560660 0.12691497802734375 -0.302368700504303 0.006149381399154663 -0.0019020605832338333 0 0 0 0
2862282744 0.09969830513000488 -0.30942243337631226 0.005817160941660404 -0.0033222390338778496 0 0 0 0
2866004828 0.08186405897140503 -0.30900856852531433 0.005166425369679928 -0.0043556904420256615 0 0 0 0
2869726912 0.05970349162817001 -0.30914896726608276 0.004422137513756752 -0.005208255723118782 0 0 0 0
2873448996 0.038628414273262024 -0.30690228939056396 0.0034102918580174446 -0.005809434689581394 0 0 0 0
2877171080 0.012696802616119385 -0.301938533782959 0.0022277068346738815 -0.006360642611980438 0 0 0 0
2880893164 -0.008179441094398499 -0.295016884803772 0.0010796068236231804 -0.00655105896294117 0 0 0 0
2884615248 -0.030682973563671112 -0.28285786509513855 -0.0001626545563340187 -0.006570799276232719 0 0 0 0
2888337332 -0.05133681744337082 -0.26732704043388367 -0.001166592352092266 -0.0062025003135204315 0 0 0 0
2892059416 -0.06785102188587189 -0.25045767426490784 -0.002156873233616352 -0.00577167421579361 0 0 0 0
2895781500 -0.08376617729663849 -0.23129652440547943 -0.002968975342810154 -0.005236654542386532 0 0 0 0
2899503584 -0.0956946536898613 -0.2097734957933426 -0.003861113451421261 -0.004391844384372234 0 0 0 0
2903225668 -0.10590630769729614 -0.18664950132369995 -0.004244259558618069 -0.003358130343258381 0 0 0 0
2906947752 -0.11399072408676147 -0.16212907433509827 -0.00450928695499897 -0.002249283716082573 0 0 0 0
2910669836 -0.11720625311136246 -0.1362277865409851 -0.0045282719656825066 -0.001168672926723957 0 0 0 0
2914391920 -0.11541865766048431 -0.1111532598733902 -0.004230382852256298 -0.00040999241173267365 0 0 0 0
2918114004 -0.11292599141597748 -0.08449483662843704 -0.003877035342156887 0.0002514747902750969 0 0 0 0
2921836088 -0.10510015487670898 -0.06052929908037186 -0.0036034006625413895 0.0008022449910640717 0 0 0 0
2925558172 -0.09517072141170502 -0.03706083074212074 -0.003218487836420536 0.0011930009350180626 0 0 0 0
2929280256 -0.08261322975158691 -0.015185259282588959 -0.0027275457978248596 0.0017168577760457993 0 0 0 0
2933002340 -0.068168044090271 0.0028687994927167892 -0.002475537359714508 0.0021348781883716583 0 0 0 0
2936724424 -0.05050656199455261 0.020276758819818497 -0.0020503271371126175 0.0025598639622330666 0 0 0 0
2940446508 -0.031554751098155975 0.034869756549596786 -0.0013456624001264572 0.0031219543889164925 0 0 0 0
2944168592 -0.01088428869843483 0.04743102937936783 -0.0006577111780643463 0.0033926283940672874 0 0 0 0
2947890676 0.01150546595454216 0.056575290858745575 0.00034658145159482956 0.003606969490647316 0 0 0 0
2951612760 0.0331757515668869 0.06369709968566895 0.001464763656258583 0.0034565776586532593 0 0 0 0
2955334844 0.055890075862407684 0.06894272565841675 0.0023109251633286476 0.0026387693360447884 0 0 0 0
2959056928 0.07918732613325119 0.07124049216508865 0.0025112396106123924 0.002029022201895714 0 0 0 0
2962779012 0.10412143915891647 0.07103502750396729 0.002756210044026375 0.001516810618340969 0 0 0 0
2966501096 0.12821784615516663 0.06706148386001587 0.003047737292945385 0.0011986391618847847 0 0 0 0
2970223180 0.1535441130399704 0.060591645538806915 0.0034628910943865776 0.0007600560784339905 0 0 0 0
2973945264 0.17693805694580078 0.05132273584604263 0.0036241114139556885 0.00030954740941524506 0 0 0 0
2977667348 0.2001543939113617 0.035226739943027496 0.004021698608994484 -0.00035527627915143967 0 0 0 0
2981389432 0.2204427272081375 0.01862725242972374 0.004004261456429958 -0.0011802222579717636 0 0 0 0
2985111516 0.23579198122024536 -0.0016646236181259155 0.003796648234128952 -0.002109028398990631 0 0 0 0
2988833600 0.24924519658088684 -0.029570847749710083 0.0033294642344117165 -0.0029617100954055786 0 0 0 0
2992555684 0.2593393623828888 -0.0478476956486702 0.002598031423985958 -0.003569246269762516 0 0 0 0
2996277768 0.26476922631263733 -0.07260369509458542 0.0016815774142742157 -0.00411691889166832 0 0 0 0
2999999852 0.26876285672187805 -0.09755242615938187 0.0006089871749281883 -0.004179941490292549 0 0 0 0
