# HZ S RI R 50
1500000000 -0.017528124153614044 -0.04012526944279671 0.03699604794383049 -0.025256503373384476 0 0 0 0
1503722084 -0.006748853251338005 -0.032690584659576416 0.03203670307993889 -0.030108101665973663 0 0 0 0
1507444168 0.006251581944525242 -0.025378677994012833 0.026857737451791763 -0.033659473061561584 0 0 0 0
1511166252 0.021528031677007675 -0.018584340810775757 0.022365832701325417 -0.037064433097839355 0 0 0 0
1514888336 0.03921062499284744 -0.013053039088845253 0.016603359952569008 -0.0414590910077095 0 0 0 0
1518610420 0.05900454521179199 -0.009792199358344078 0.00912014115601778 -0.04476464167237282 0 0 0 0
1522332504 0.07908852398395538 -0.009722182527184486 -0.00029129162430763245 -0.04526035487651825 0 0 0 0
1526054588 0.10070725530385971 -0.009909501299262047 -0.009096475318074226 -0.04294165223836899 0 0 0 0
1529776672 0.1239268034696579 -0.012783333659172058 -0.01585579477250576 -0.03899124637246132 0 0 0 0
1533498756 0.15058688819408417 -0.020102761685848236 -0.02135605923831463 -0.03434106707572937 0 0 0 0
1537220840 0.17747944593429565 -0.03059706836938858 -0.025642871856689453 -0.02944440022110939 0 0 0 0
1540942924 0.20500750839710236 -0.048610903322696686 -0.02909490466117859 -0.023836670443415642 0 0 0 0
1544665008 0.23095326125621796 -0.07241899520158768 -0.03136712685227394 -0.01796117052435875 0 0 0 0
1548387092 0.25193214416503906 -0.10089202970266342 -0.03238583356142044 -0.011810076422989368 0 0 0 0
1552109176 0.2678717076778412 -0.13208848237991333 -0.03190615773200989 -0.006334363482892513 0 0 0 0
1555831260 0.28204280138015747 -0.16443756222724915 -0.03046087548136711 -0.0017046211287379265 0 0 0 0
1559553344 0.2905788719654083 -0.20350144803524017 -0.029062172397971153 0.002154330722987652 0 0 0 0
1563275428 0.2903430461883545 -0.24430963397026062 -0.02766827493906021 0.00591152161359787 0 0 0 0
1566997512 0.2859472930431366 -0.2851468324661255 -0.02554350718855858 0.009985621087253094 0 0 0 0
1570719596 0.27693742513656616 -0.32406044006347656 -0.02257922664284706 0.012951229698956013 0 0 0 0
1574441680 0.26183193922042847 -0.36447829008102417 -0.019102616235613823 0.015245086513459682 0 0 0 0
1578163764 0.24234318733215332 -0.40557971596717834 -0.0158553384244442 0.016655543819069862 0 0 0 0
1581885848 0.21707378327846527 -0.4427347183227539 -0.012968617491424084 0.017324373126029968 0 0 0 0
1585607932 0.17980840802192688 -0.47808581590652466 -0.010310545563697815 0.017670366913080215 0 0 0 0
1589330016 0.13648930191993713 -0.5091036558151245 -0.007964232936501503 0.0178486630320549 0 0 0 0
1593052100 0.09013979136943817 -0.5325243473052979 -0.005984443239867687 0.017853865399956703 0 0 0 0
1596774184 0.03812916576862335 -0.5487475395202637 -0.0038435785099864006 0.01807369664311409 0 0 0 0
1600496268 -0.014590010046958923 -0.55716872215271 -0.0019137952476739883 0.01808355376124382 0 0 0 0
1604218352 -0.07094588875770569 -0.5585722923278809 4.146993160247803e-05 0.017984379082918167 0 0 0 0
1607940436 -0.12881331145763397 -0.5501934289932251 0.001878315582871437 0.017829570919275284 0 0 0 0
1611662520 -0.18420645594596863 -0.5343425869941711 0.004103989340364933 0.017750898376107216 0 0 0 0
1615384604 -0.23942753672599792 -0.5098223686218262 0.006532440893352032 0.017346864566206932 0 0 0 0
1619106688 -0.2928219735622406 -0.475315660238266 0.009358379989862442 0.016335666179656982 0 0 0 0
1622828772 -0.3415735065937042 -0.4349876642227173 0.011690633371472359 0.014944300055503845 0 0 0 0
1626550856 -0.38605380058288574 -0.3823257088661194 0.013821177184581757 0.012977223843336105 0 0 0 0
1630272940 -0.41897857189178467 -0.32422447204589844 0.015887122601270676 0.010761205106973648 0 0 0 0
1633995024 -0.4477415978908539 -0.2562968134880066 0.01764121651649475 0.007967233657836914 0 0 0 0
1637717108 -0.4635339379310608 -0.18636223673820496 0.018830513581633568 0.004858626984059811 0 0 0 0
1641439192 -0.46809354424476624 -0.11892755329608917 0.019523967057466507 0.001615379936993122 0 0 0 0
1645161276 -0.46269914507865906 -0.04316079616546631 0.01924276538193226 -0.002401677891612053 0 0 0 0
1648883360 -0.4454367756843567 0.03555537760257721 0.017430298030376434 -0.005978384055197239 0 0 0 0
1652605444 -0.4159517288208008 0.10545222461223602 0.015023551881313324 -0.008281809277832508 0 0 0 0
1656327528 -0.3727363049983978 0.1741166114807129 0.012851529754698277 -0.009507427923381329 0 0 0 0
1660049612 -0.3190871477127075 0.23462451994419098 0.011267504654824734 -0.01034886110574007 0 0 0 0
1663771696 -0.25539660453796387 0.2866966724395752 0.01017211563885212 -0.01164139062166214 0 0 0 0
1667493780 -0.18362149596214294 0.3280014097690582 0.008379891514778137 -0.013315857388079166 0 0 0 0
1671215864 -0.105674147605896 0.3585975170135498 0.006195090711116791 -0.014507202431559563 0 0 0 0
1674937948 -0.02170589566230774 0.37605878710746765 0.0033814189955592155 -0.01557953841984272 0 0 0 0
1678660032 0.06349927186965942 0.3786981999874115 3.0024908483028412e-05 -0.015329169109463692 0 0 0 0
1682382116 0.14983788132667542 0.366519033908844 -0.002563226968050003 -0.014000978320837021 0 0 0 0
1686104200 0.23166924715042114 0.34134384989738464 -0.00442859623581171 -0.012503878213465214 0 0 0 0
1689826284 0.3079727292060852 0.30263713002204895 -0.00580111239105463 -0.010982903651893139 0 0 0 0
1693548368 0.37687990069389343 0.2535772919654846 -0.006786384619772434 -0.009571891278028488 0 0 0 0
1697270452 0.4349488615989685 0.19587594270706177 -0.007512508891522884 -0.008084246888756752 0 0 0 0
1700992536 0.4844193458557129 0.13105237483978271 -0.008123843930661678 -0.0065337661653757095 0 0 0 0
1704714620 0.5232155323028564 0.05538420379161835 -0.00814735796302557 -0.0050846850499510765 0 0 0 0
1708436704 0.5497176051139832 -0.020622625946998596 -0.00786950159817934 -0.0039031105116009712 0 0 0 0
1712158788 0.5622931718826294 -0.10286559164524078 -0.0075156958773732185 -0.0032266853377223015 0 0 0 0
1715880872 0.5638356804847717 -0.18415766954421997 -0.007659762166440487 -0.002683292143046856 0 0 0 0
1719602956 0.5525458455085754 -0.2618775963783264 -0.007791619747877121 -0.0019699381664395332 0 0 0 0
1723325040 0.5277893543243408 -0.3392602205276489 -0.007831855677068233 -0.0009893234819173813 0 0 0 0
1727047124 0.49627628922462463 -0.4053577780723572 -0.0073827896267175674 -0.0001894226297736168 0 0 0 0
1730769208 0.4506225287914276 -0.4697551131248474 -0.007055900990962982 0.00013563130050897598 0 0 0 0
1734491292 0.3982580304145813 -0.5260359644889832 -0.007085814140737057 0.00040777307003736496 0 0 0 0
1738213376 0.33875709772109985 -0.5718916654586792 -0.007000437006354332 0.0008980454877018929 0 0 0 0
1741935460 0.2743808627128601 -0.6088153719902039 -0.006932140327990055 0.0011458070948719978 0 0 0 0
1745657544 0.20453260838985443 -0.6363770365715027 -0.0072556231170892715 0.001359749585390091 0 0 0 0
1749379628 0.13525089621543884 -0.650423526763916 -0.007806162349879742 0.0020568473264575005 0 0 0 0
1753101712 0.05990651249885559 -0.6536412239074707 -0.008190148510038853 0.002879822626709938 0 0 0 0
1756823796 -0.013580888509750366 -0.6458846926689148 -0.008367198519408703 0.0040543945506215096 0 0 0 0
1760545880 -0.07906530797481537 -0.6288085579872131 -0.008524877950549126 0.005427643656730652 0 0 0 0
1764267964 -0.14307639002799988 -0.6015745401382446 -0.00856103841215372 0.00705520436167717 0 0 0 0
1767990048 -0.2015961855649948 -0.5646315813064575 -0.007906613871455193 0.009215222671627998 0 0 0 0
1771712132 -0.25264662504196167 -0.5198419094085693 -0.006535377353429794 0.010890310630202293 0 0 0 0
1775434216 -0.2956942617893219 -0.4689074456691742 -0.005065505392849445 0.011841390281915665 0 0 0 0
1779156300 -0.3292481303215027 -0.4152970314025879 -0.003631720319390297 0.012698031961917877 0 0 0 0
1782878384 -0.3564029335975647 -0.3553961515426636 -0.0021574590355157852 0.013494724407792091 0 0 0 0
1786600468 -0.3735966384410858 -0.29573893547058105 -0.0008811280131340027 0.014522664248943329 0 0 0 0
1790322552 -0.38204655051231384 -0.23000729084014893 0.001166761852800846 0.015955066308379173 0 0 0 0
1794044636 -0.3800275921821594 -0.1648196280002594 0.004002120345830917 0.01702008582651615 0 0 0 0
1797766720 -0.36818671226501465 -0.10539215803146362 0.007339117117226124 0.01730492152273655 0 0 0 0
1801488804 -0.34788990020751953 -0.04506319761276245 0.010922849178314209 0.016731396317481995 0 0 0 0
1805210888 -0.3206666111946106 0.007166653871536255 0.01424068957567215 0.015369260683655739 0 0 0 0
1808932972 -0.2858594059944153 0.0559253916144371 0.017266441136598587 0.013880749233067036 0 0 0 0
1812655056 -0.24386556446552277 0.09972675144672394 0.02050587348639965 0.01135025080293417 0 0 0 0
1816377140 -0.19465789198875427 0.13725629448890686 0.023816071450710297 0.008353901095688343 0 0 0 0
1820099224 -0.14271530508995056 0.16421683132648468 0.026808587834239006 0.004249203950166702 0 0 0 0
1823821308 -0.08508339524269104 0.1834052950143814 0.02885552868247032 -0.001604503020644188 0 0 0 0
1827543392 -0.025442346930503845 0.1924745738506317 0.02878875471651554 -0.00792972557246685 0 0 0 0
1831265476 0.03247667849063873 0.1909838318824768 0.02774704620242119 -0.013603230006992817 0 0 0 0
1834987560 0.08910141885280609 0.1799885630607605 0.0255266185849905 -0.019738666713237762 0 0 0 0
1838709644 0.141738623380661 0.1596592515707016 0.02124437317252159 -0.025528155267238617 0 0 0 0
1842431728 0.18851810693740845 0.1337977647781372 0.015480639412999153 -0.029764363542199135 0 0 0 0
1846153812 0.23050932586193085 0.09956669807434082 0.009330258704721928 -0.03211315721273422 0 0 0 0
1849875896 0.2642555832862854 0.05904751643538475 0.0030944766476750374 -0.033251047134399414 0 0 0 0
1853597980 0.29074007272720337 0.017101913690567017 -0.0031179795041680336 -0.033307723701000214 0 0 0 0
1857320064 0.309431791305542 -0.026641398668289185 -0.008830718696117401 -0.032325368374586105 0 0 0 0
1861042148 0.31940019130706787 -0.07507522404193878 -0.0146502535790205 -0.02987750619649887 0 0 0 0
1864764232 0.3211306631565094 -0.12261387705802917 -0.01917099952697754 -0.027021577581763268 0 0 0 0
1868486316 0.3163182735443115 -0.1680244654417038 -0.023379208520054817 -0.023710623383522034 0 0 0 0
1872208400 0.30419331789016724 -0.2092907875776291 -0.027441956102848053 -0.020329967141151428 0 0 0 0
1875930484 0.2844228744506836 -0.24774125218391418 -0.031488340348005295 -0.015972141176462173 0 0 0 0
1879652568 0.25964683294296265 -0.2805907130241394 -0.03444714471697807 -0.009645038284361362 0 0 0 0
1883374652 0.22846928238868713 -0.30982983112335205 -0.036028776317834854 -0.0026430943980813026 0 0 0 0
1887096736 0.19700606167316437 -0.33073949813842773 -0.035716164857149124 0.004219480790197849 0 0 0 0
1890818820 0.16277682781219482 -0.34516245126724243 -0.03422319144010544 0.010120554827153683 0 0 0 0
1894540904 0.12536190450191498 -0.35472795367240906 -0.03173108026385307 0.015818893909454346 0 0 0 0
1898262988 0.0928289145231247 -0.356148362159729 -0.028737884014844894 0.02062794379889965 0 0 0 0
1901985072 0.055448055267333984 -0.3522326946258545 -0.02501508593559265 0.025170443579554558 0 0 0 0
1905707156 0.021910078823566437 -0.343254029750824 -0.020751439034938812 0.0293340552598238 0 0 0 0
1909429240 -0.004887469112873077 -0.3270113170146942 -0.01624254137277603 0.032891787588596344 0 0 0 0
1913151324 -0.030231736600399017 -0.3078046441078186 -0.01032755896449089 0.03606173396110535 0 0 0 0
1916873408 -0.053821876645088196 -0.28511932492256165 -0.0030267713591456413 0.0378354974091053 0 0 0 0
1920595492 -0.06785780936479568 -0.2601170539855957 0.003379243426024914 0.0381961427628994 0 0 0 0
1924317576 -0.08133991807699203 -0.2315247654914856 0.010350650176405907 0.037538088858127594 0 0 0 0
1928039660 -0.08781757950782776 -0.2026560753583908 0.01779584214091301 0.03563347086310387 0 0 0 0
1931761744 -0.08946053683757782 -0.17452959716320038 0.025450466200709343 0.03206349164247513 0 0 0 0
1935483828 -0.08712723851203918 -0.1445135623216629 0.032106414437294006 0.02521778829395771 0 0 0 0
1939205912 -0.07857155799865723 -0.11522802710533142 0.03591366857290268 0.017104865983128548 0 0 0 0
1942927996 -0.0632299929857254 -0.08843514323234558 0.037137892097234726 0.009696157649159431 0 0 0 0
1946650080 -0.0451393648982048 -0.06628136336803436 0.03726327419281006 0.0025291265919804573 0 0 0 0
1950372164 -0.0214228518307209 -0.04769386351108551 0.03609431907534599 -0.004029091447591782 0 0 0 0
1954094248 0.0037636011838912964 -0.03424615412950516 0.034085605293512344 -0.010259918868541718 0 0 0 0
1957816332 0.03247128799557686 -0.025753969326615334 0.031245354562997818 -0.01603010669350624 0 0 0 0
1961538416 0.061025477945804596 -0.024113863706588745 0.027402931824326515 -0.0209772028028965 0 0 0 0
1965260500 0.08863098919391632 -0.02801857888698578 0.022709039971232414 -0.024920295923948288 0 0 0 0
1968982584 0.1141815036535263 -0.03701414167881012 0.01774640567600727 -0.028032882139086723 0 0 0 0
1972704668 0.13615289330482483 -0.050281643867492676 0.012380477041006088 -0.030528748407959938 0 0 0 0
1976426752 0.15542002022266388 -0.06611648201942444 0.006693774834275246 -0.03198288753628731 0 0 0 0
1980148836 0.17146974802017212 -0.08463557064533234 0.0007686102762818336 -0.03255472332239151 0 0 0 0
1983870920 0.18493393063545227 -0.10558699071407318 -0.005273639224469662 -0.03187159076333046 0 0 0 0
1987593004 0.1951095461845398 -0.12895594537258148 -0.011299208737909794 -0.029519161209464073 0 0 0 0
1991315088 0.19890110194683075 -0.1548854410648346 -0.015985157340765 -0.02597697265446186 0 0 0 0
1995037172 0.19916343688964844 -0.17940576374530792 -0.018880050629377365 -0.022098585963249207 0 0 0 0
1998759256 0.19235020875930786 -0.2049110233783722 -0.02167794294655323 -0.01844862848520279 0 0 0 0
2002481340 0.1822492480278015 -0.22677277028560638 -0.02364957705140114 -0.015264401212334633 0 0 0 0
2006203424 0.17089010775089264 -0.24654334783554077 -0.025622840970754623 -0.011215855367481709 0 0 0 0
2009925508 0.15132416784763336 -0.2656208574771881 -0.02700299769639969 -0.0073629105463624 0 0 0 0
2013647592 0.13135862350463867 -0.2777504324913025 -0.028043989092111588 -0.003172549419105053 0 0 0 0
2017369676 0.11092926561832428 -0.2882503867149353 -0.028295904397964478 0.0006091408431529999 0 0 0 0
2021091760 0.08604905009269714 -0.2943496108055115 -0.02896217443048954 0.005436496809124947 0 0 0 0
2024813844 0.06498266756534576 -0.2958871126174927 -0.028041217476129532 0.010095673613250256 0 0 0 0
2028535928 0.04031415656208992 -0.2949073612689972 -0.026551131159067154 0.01562527008354664 0 0 0 0
2032258012 0.017263099551200867 -0.2895573675632477 -0.0239060390740633 0.020504746586084366 0 0 0 0
2035980096 -0.007337406277656555 -0.2799721658229828 -0.019550271332263947 0.024532722309231758 0 0 0 0
2039702180 -0.027783777564764023 -0.26764997839927673 -0.014584306627511978 0.027916962280869484 0 0 0 0
2043424264 -0.04780369624495506 -0.2509423792362213 -0.009071866981685162 0.0298602357506752 0 0 0 0
2047146348 -0.06211381405591965 -0.23182249069213867 -0.004079981707036495 0.030635088682174683 0 0 0 0
2050868432 -0.0774809867143631 -0.20784123241901398 0.0012337574735283852 0.030561987310647964 0 0 0 0
2054590516 -0.08406973630189896 -0.1835411787033081 0.00556622538715601 0.029817093163728714 0 0 0 0
2058312600 -0.0896758884191513 -0.15823966264724731 0.010304826311767101 0.029408639296889305 0 0 0 0
2062034684 -0.09274880588054657 -0.1325632482767105 0.01559987012296915 0.02778545394539833 0 0 0 0
2065756768 -0.09114851802587509 -0.10431353747844696 0.02106928639113903 0.02495257370173931 0 0 0 0
2069478852 -0.08335953950881958 -0.07643595337867737 0.025504780933260918 0.02038085274398327 0 0 0 0
2073200936 -0.0720943957567215 -0.049307774752378464 0.028801050037145615 0.015029574744403362 0 0 0 0
2076923020 -0.05619358271360397 -0.02404850721359253 0.03073485754430294 0.009130316786468029 0 0 0 0
2080645104 -0.03623651713132858 -0.0027903327718377113 0.03160063177347183 0.0031640445813536644 0 0 0 0
2084367188 -0.013033325783908367 0.016293443739414215 0.03134232014417648 -0.0028198976069688797 0 0 0 0
2088089272 0.013721253722906113 0.032056841999292374 0.02980373613536358 -0.00874110497534275 0 0 0 0
2091811356 0.04320507496595383 0.04261798411607742 0.02678287774324417 -0.013902082107961178 0 0 0 0
2095533440 0.0745556503534317 0.04870472103357315 0.023315750062465668 -0.018039923161268234 0 0 0 0
2099255524 0.1065489873290062 0.04918082803487778 0.01877625100314617 -0.021084705367684364 0 0 0 0
2102977608 0.13813316822052002 0.04419618099927902 0.014867912977933884 -0.022327858954668045 0 0 0 0
2106699692 0.16882815957069397 0.03375015780329704 0.011630145832896233 -0.024179883301258087 0 0 0 0
2110421776 0.1968199908733368 0.021057114005088806 0.007993366569280624 -0.026240259408950806 0 0 0 0
2114143860 0.22251273691654205 0.00122079998254776 0.0034160465002059937 -0.02790571004152298 0 0 0 0
2117865944 0.24428707361221313 -0.024069182574748993 -0.002222520299255848 -0.028374403715133667 0 0 0 0
2121588028 0.2623334527015686 -0.05009101331233978 -0.007442380301654339 -0.0273367278277874 0 0 0 0
2125310112 0.27390095591545105 -0.07954862713813782 -0.012616812251508236 -0.025322962552309036 0 0 0 0
2129032196 0.2803422212600708 -0.1091265082359314 -0.016986576840281487 -0.02244773507118225 0 0 0 0
2132754280 0.28328368067741394 -0.1373923420906067 -0.02115924097597599 -0.01864493452012539 0 0 0 0
2136476364 0.28140437602996826 -0.16626563668251038 -0.024079561233520508 -0.013776997104287148 0 0 0 0
2140198448 0.2738232910633087 -0.19480696320533752 -0.025524672120809555 -0.008347232826054096 0 0 0 0
2143920532 0.2643325924873352 -0.22002871334552765 -0.02549063228070736 -0.0033201007172465324 0 0 0 0
2147642616 0.2491932511329651 -0.2463688999414444 -0.024580422788858414 0.0010076072067022324 0 0 0 0
2151364700 0.2314203679561615 -0.26654142141342163 -0.023569196462631226 0.004371996037662029 0 0 0 0
2155086784 0.21157564222812653 -0.28395047783851624 -0.022270124405622482 0.008005615323781967 0 0 0 0
2158808868 0.1881217360496521 -0.30033326148986816 -0.02045661397278309 0.011435659602284431 0 0 0 0
2162530952 0.165901780128479 -0.30902424454689026 -0.018164198845624924 0.014346919022500515 0 0 0 0
2166253036 0.13831362128257751 -0.3165617287158966 -0.014926980249583721 0.017242781817913055 0 0 0 0
2169975120 0.11253684759140015 -0.31920328736305237 -0.011392717249691486 0.018881279975175858 0 0 0 0
2173697204 0.0898047536611557 -0.31791314482688904 -0.008040200918912888 0.01966104656457901 0 0 0 0
2177419288 0.06300795823335648 -0.31595638394355774 -0.004881109111011028 0.020065022632479668 0 0 0 0
2181141372 0.03961913287639618 -0.30759936571121216 -0.002092663198709488 0.020171305164694786 0 0 0 0
2184863456 0.014532223343849182 -0.296692818403244 0.0008158823475241661 0.020106105133891106 0 0 0 0
2188585540 -0.010394945740699768 -0.2801392674446106 0.0038197049871087074 0.019931592047214508 0 0 0 0
2192307624 -0.02868422120809555 -0.26026079058647156 0.007083309814333916 0.019281715154647827 0 0 0 0
2196029708 -0.04333718121051788 -0.23726607859134674 0.010388556867837906 0.01736908219754696 0 0 0 0
2199751792 -0.0545034259557724 -0.2121984362602234 0.01295409630984068 0.0154050812125206 0 0 0 0
2203473876 -0.06384600698947906 -0.1837971806526184 0.01560874655842781 0.012696407735347748 0 0 0 0
2207195960 -0.05989447981119156 -0.15936985611915588 0.017534032464027405 0.009450376965105534 0 0 0 0
2210918044 -0.05914139747619629 -0.1334294080734253 0.018440652638673782 0.0053637465462088585 0 0 0 0
2214640128 -0.05446995794773102 -0.1090582013130188 0.01783391274511814 0.0017894478514790535 0 0 0 0
2218362212 -0.04379068315029144 -0.08803755789995193 0.016729412600398064 -0.001026882790029049 0 0 0 0
2222084296 -0.0335327610373497 -0.0664672926068306 0.015565651468932629 -0.0031268903985619545 0 0 0 0
2225806380 -0.019630327820777893 -0.044897038489580154 0.014445950277149677 -0.004872399382293224 0 0 0 0
2229528464 7.463805377483368e-05 -0.02556934952735901 0.013374444097280502 -0.006237455643713474 0 0 0 0
2233250548 0.023681282997131348 -0.011201394721865654 0.012431459501385689 -0.008095839992165565 0 0 0 0
2236972632 0.048910997807979584 -0.002078043296933174 0.011250630021095276 -0.009999226778745651 0 0 0 0
2240694716 0.07527036964893341 0.0040144771337509155 0.009339021518826485 -0.011867481283843517 0 0 0 0
2244416800 0.10161953419446945 0.004625920206308365 0.0075276093557477 -0.012719172984361649 0 0 0 0
2248138884 0.12822052836418152 0.0005088523030281067 0.00518037099391222 -0.013879060745239258 0 0 0 0
2251860968 0.15415164828300476 -0.010996418073773384 0.0023394757881760597 -0.014445377513766289 0 0 0 0
2255583052 0.17563356459140778 -0.027225755155086517 -6.216391921043396e-05 -0.014362121000885963 0 0 0 0
2259305136 0.19627583026885986 -0.04012483358383179 -0.001850193366408348 -0.013813292607665062 0 0 0 0
2263027220 0.20950599014759064 -0.06667199730873108 -0.0032836860045790672 -0.013531596399843693 0 0 0 0
2266749304 0.221135213971138 -0.08633942902088165 -0.005490392446517944 -0.013242633081972599 0 0 0 0
2270471388 0.22816893458366394 -0.10846641659736633 -0.007754521444439888 -0.012151027098298073 0 0 0 0
2274193472 0.22476725280284882 -0.13417859375476837 -0.009270082227885723 -0.010466615669429302 0 0 0 0
2277915556 0.22574292123317719 -0.15170639753341675 -0.01029699295759201 -0.009171449579298496 0 0 0 0
2281637640 0.21870242059230804 -0.1746910959482193 -0.011220618151128292 -0.007504013366997242 0 0 0 0
2285359724 0.20728537440299988 -0.19527927041053772 -0.012155898846685886 -0.006497547961771488 0 0 0 0
2289081808 0.19621725380420685 -0.21345838904380798 -0.01306370459496975 -0.004909914918243885 0 0 0 0
2292803892 0.18638718128204346 -0.22372597455978394 -0.013778594322502613 -0.003572440706193447 0 0 0 0
2296525976 0.15992149710655212 -0.24137836694717407 -0.014460624195635319 -0.0016163364052772522 0 0 0 0
2300248060 0.1475926637649536 -0.24539873003959656 -0.014763275161385536 0.000302216038107872 0 0 0 0
2303970144 0.13142503798007965 -0.25413778424263 -0.014992840588092804 0.002301368862390518 0 0 0 0
2307692228 0.10339485853910446 -0.2558228671550751 -0.015123276039958 0.004504953511059284 0 0 0 0
2311414312 0.0899006649851799 -0.2528141140937805 -0.01444094069302082 0.0068411193788051605 0 0 0 0
2315136396 0.05992817133665085 -0.2502113878726959 -0.013145764358341694 0.009294032119214535 0 0 0 0
2318858480 0.043641574680805206 -0.24196717143058777 -0.011851713061332703 0.01087700854986906 0 0 0 0
2322580564 0.02593626081943512 -0.22826793789863586 -0.009865282103419304 0.012596397660672665 0 0 0 0
2326302648 0.007633529603481293 -0.21247640252113342 -0.00755268894135952 0.014038789086043835 0 0 0 0
2330024732 -0.005781831219792366 -0.19325919449329376 -0.0058128684759140015 0.014548367820680141 0 0 0 0
2333746816 -0.01370493695139885 -0.17303776741027832 -0.0035212701186537743 0.015349444933235645 0 0 0 0
2337468900 -0.023188747465610504 -0.14920327067375183 -0.0006671035662293434 0.015481817536056042 0 0 0 0
2341190984 -0.02059418335556984 -0.12633070349693298 0.0015017194673418999 0.014817364513874054 0 0 0 0
2344913068 -0.020468013361096382 -0.10237959772348404 0.0035544047132134438 0.013834591954946518 0 0 0 0
2348635152 -0.015388855710625648 -0.07883577048778534 0.005482384003698826 0.012593173421919346 0 0 0 0
2352357236 -0.0033588912338018417 -0.05701059103012085 0.006957510486245155 0.01100152637809515 0 0 0 0
2356079320 0.011841801926493645 -0.036506615579128265 0.007734342478215694 0.009384410455822945 0 0 0 0
2359801404 0.030214393511414528 -0.0199414175003767 0.008433140814304352 0.0080916378647089 0 0 0 0
2363523488 0.051789648830890656 -0.006766859441995621 0.009227344766259193 0.006924508139491081 0 0 0 0
2367245572 0.07458312809467316 0.002838672138750553 0.01016522292047739 0.005682581104338169 0 0 0 0
2370967656 0.0981922298669815 0.006677763536572456 0.010743926279246807 0.003660758025944233 0 0 0 0
2374689740 0.12211844325065613 0.00816405937075615 0.010596691630780697 0.0014390461146831512 0 0 0 0
2378411824 0.14526990056037903 0.006088227033615112 0.009807620197534561 -0.00028836820274591446 0 0 0 0
2382133908 0.1682363748550415 0.00021361559629440308 0.008890276774764061 -0.0014103874564170837 0 0 0 0
2385855992 0.18956884741783142 -0.009625770151615143 0.008014406077563763 -0.0021174708381295204 0 0 0 0
2389578076 0.21083183586597443 -0.01939796656370163 0.007735965773463249 -0.002594894729554653 0 0 0 0
2393300160 0.22994573414325714 -0.03401537239551544 0.007670587860047817 -0.0034572435542941093 0 0 0 0
2397022244 0.24592861533164978 -0.05360396206378937 0.007391318678855896 -0.004832218401134014 0 0 0 0
2400744328 0.26189321279525757 -0.07548244297504425 0.006224482320249081 -0.0064862556755542755 0 0 0 0
2404466412 0.27103498578071594 -0.10005704313516617 0.004568468779325485 -0.007151318714022636 0 0 0 0
2408188496 0.2793283462524414 -0.12357810884714127 0.003102067857980728 -0.007436311803758144 0 0 0 0
2411910580 0.2814425528049469 -0.1502462476491928 0.0019740695133805275 -0.007658929564058781 0 0 0 0
2415632664 0.2782410681247711 -0.17814457416534424 0.0007258336991071701 -0.007913828827440739 0 0 0 0
2419354748 0.27452871203422546 -0.20160788297653198 -0.0006134379655122757 -0.007958094589412212 0 0 0 0
2423076832 0.2636452317237854 -0.22831861674785614 -0.0021030809730291367 -0.0076744575053453445 0 0 0 0
2426798916 0.2497333288192749 -0.252130389213562 -0.003444202244281769 -0.007075093686580658 0 0 0 0
2430521000 0.22926001250743866 -0.2729119658470154 -0.004525746218860149 -0.006324396468698978 0 0 0 0
2434243084 0.2094639390707016 -0.28933826088905334 -0.0055027613416314125 -0.005401771515607834 0 0 0 0
2437965168 0.18601909279823303 -0.304068922996521 -0.006788849830627441 -0.004269382916390896 0 0 0 0
2441687252 0.16214092075824738 -0.31374362111091614 -0.007539595477283001 -0.002599291503429413 0 0 0 0
2445409336 0.1369652897119522 -0.3205946087837219 -0.007663259282708168 -0.0007625008001923561 0 0 0 0
2449131420 0.10694324970245361 -0.3248262107372284 -0.007092159241437912 0.0011738361790776253 0 0 0 0
2452853504 0.08314963430166245 -0.32415005564689636 -0.006063623353838921 0.0025649648159742355 0 0 0 0
2456575588 0.056326113641262054 -0.31984743475914 -0.004636639729142189 0.003351956605911255 0 0 0 0
2460297672 0.02827583998441696 -0.31223994493484497 -0.0034826556220650673 0.0034969691187143326 0 0 0 0
2464019756 0.004594624042510986 -0.2998960614204407 -0.0027000848203897476 0.0035754013806581497 0 0 0 0
2467741840 -0.021754160523414612 -0.28410935401916504 -0.001846221275627613 0.003672149032354355 0 0 0 0
2471463924 -0.04234747588634491 -0.26759377121925354 -0.0021687420085072517 0.003972211852669716 0 0 0 0
2475186008 -0.0615355521440506 -0.24148273468017578 5.454011261463165e-05 0.00306113064289093 0 0 0 0
2478908092 -0.07889877259731293 -0.21432507038116455 0.0005975803360342979 0.0023148078471422195 0 0 0 0
2482630176 -0.09038066864013672 -0.18431982398033142 0.0008570458739995956 0.0013636304065585136 0 0 0 0
2486352260 -0.09622608125209808 -0.15366730093955994 0.0006318483501672745 0.0007787775248289108 0 0 0 0
2490074344 -0.09854401648044586 -0.1209355890750885 0.0005521364510059357 0.0008563082665205002 0 0 0 0
2493796428 -0.09419681131839752 -0.08923543989658356 0.0009545721113681793 0.0003997664898633957 0 0 0 0
2497518512 -0.08574853092432022 -0.05542192980647087 0.0011319313198328018 -0.0002656765282154083 0 0 0 0
2501240596 -0.06997933983802795 -0.02611996978521347 0.0010182391852140427 -0.0012116450816392899 0 0 0 0
2504962680 -0.05046285688877106 0.0005293292924761772 0.0006097825244069099 -0.0020963838323950768 0 0 0 0
2508684764 -0.02696223370730877 0.0239093080163002 -0.0002515939995646477 -0.0027738651260733604 0 0 0 0
2512406848 0.00011283345520496368 0.042891040444374084 -0.0015083523467183113 -0.002987694926559925 0 0 0 0
2516128932 0.029043002054095268 0.057924091815948486 -0.0025867940858006477 -0.0028355130925774574 0 0 0 0
2519851016 0.060803234577178955 0.06815080344676971 -0.00367643591016531 -0.002206983044743538 0 0 0 0
2523573100 0.0944419875741005 0.07239591330289841 -0.0042320070788264275 -0.0011797333136200905 0 0 0 0
2527295184 0.128008171916008 0.07137186080217361 -0.004347695037722588 -0.00016540195792913437 0 0 0 0
2531017268 0.1603633016347885 0.06294354796409607 -0.004321997985243797 0.0005310121923685074 0 0 0 0
2534739352 0.1904272437095642 0.05070234090089798 -0.004074916243553162 0.0009324988350272179 0 0 0 0
2538461436 0.21756196022033691 0.030770722776651382 -0.0038164081051945686 0.0012853797525167465 0 0 0 0
2542183520 0.24095788598060608 0.010589979588985443 -0.004114651121199131 0.0015276186168193817 0 0 0 0
2545905604 0.25924158096313477 -0.015030174516141415 -0.0044258395209908485 0.002114061266183853 0 0 0 0
2549627688 0.2734699845314026 -0.04142609238624573 -0.004751594737172127 0.003100940026342869 0 0 0 0
2553349772 0.28373023867607117 -0.0682867094874382 -0.004511958919465542 0.004480329342186451 0 0 0 0
2557071856 0.2913852334022522 -0.09508239477872849 -0.0037349211052060127 0.005704809911549091 0 0 0 0
2560793940 0.29011109471321106 -0.12335614114999771 -0.002419448457658291 0.006679672747850418 0 0 0 0
2564516024 0.28497642278671265 -0.15165171027183533 -0.0011337921023368835 0.007172194309532642 0 0 0 0
2568238108 0.2765894830226898 -0.17673882842063904 0.0004427935928106308 0.007522517815232277 0 0 0 0
2571960192 0.26591163873672485 -0.1996297687292099 0.002009693533182144 0.007330943830311298 0 0 0 0
2575682276 0.25134143233299255 -0.22074347734451294 0.003349093720316887 0.0068791527301073074 0 0 0 0
2579404360 0.23237212002277374 -0.2407444715499878 0.004757680930197239 0.006162918172776699 0 0 0 0
2583126444 0.21211159229278564 -0.2564385235309601 0.0061066290363669395 0.00502906646579504 0 0 0 0
2586848528 0.19137747585773468 -0.2673671245574951 0.0070059094578027725 0.003572561778128147 0 0 0 0
2590570612 0.16930317878723145 -0.27376604080200195 0.0075002070516347885 0.0023022377863526344 0 0 0 0
2594292696 0.14649799466133118 -0.27821797132492065 0.007977824658155441 0.0011126305907964706 0 0 0 0
2598014780 0.12197833508253098 -0.27821147441864014 0.008288401179015636 -0.000530206598341465 0 0 0 0
2601736864 0.10462446510791779 -0.27477774024009705 0.00836884044110775 -0.0022291867062449455 0 0 0 0
2605458948 0.07975531369447708 -0.26821714639663696 0.007879447191953659 -0.004055553115904331 0 0 0 0
2609181032 0.06124725192785263 -0.2588004767894745 0.0067997341975569725 -0.005506153218448162 0 0 0 0
2612903116 0.04501600190997124 -0.2459726333618164 0.0057943593710660934 -0.006717439740896225 0 0 0 0
2616625200 0.03065922111272812 -0.2316281944513321 0.004364262335002422 -0.007537800818681717 0 0 0 0
2620347284 0.021396838128566742 -0.21495458483695984 0.0031673489138484 -0.008008292876183987 0 0 0 0
2624069368 0.010942425578832626 -0.1968529224395752 0.0018873000517487526 -0.008236430585384369 0 0 0 0
2627791452 0.004968535155057907 -0.1765650510787964 0.0009780479595065117 -0.008850781247019768 0 0 0 0
2631513536 0.005187301896512508 -0.15664468705654144 -0.0002371193841099739 -0.008840847760438919 0 0 0 0
2635235620 0.008975796401500702 -0.13785383105278015 -0.0010939622297883034 -0.008897390216588974 0 0 0 0
2638957704 0.01610763557255268 -0.12106947600841522 -0.0018938956782221794 -0.009311627596616745 0 0 0 0
2642679788 0.02535894326865673 -0.10558028519153595 -0.003475761041045189 -0.00995638594031334 0 0 0 0
2646401872 0.03755854815244675 -0.09490077197551727 -0.005627192556858063 -0.010053342208266258 0 0 0 0
2650123956 0.052013419568538666 -0.08527480810880661 -0.007652373053133488 -0.009516289457678795 0 0 0 0
2653846040 0.06658598780632019 -0.07915250957012177 -0.009741081856191158 -0.008314523845911026 0 0 0 0
2657568124 0.08099572360515594 -0.0767347514629364 -0.011940968222916126 -0.006423567421734333 0 0 0 0
2661290208 0.09753815829753876 -0.07719701528549194 -0.013382564298808575 -0.0039617447182536125 0 0 0 0
2665012292 0.11357436329126358 -0.08007373660802841 -0.01390594057738781 -0.0013317782431840897 0 0 0 0
2668734376 0.12589237093925476 -0.09007888287305832 -0.013812031596899033 0.0015225326642394066 0 0 0 0
2672456460 0.1374317705631256 -0.10137463361024857 -0.013088509440422058 0.004103131592273712 0 0 0 0
2676178544 0.14363057911396027 -0.11437226831912994 -0.012264983728528023 0.006397083401679993 0 0 0 0
2679900628 0.1491466909646988 -0.1278381198644638 -0.010879495181143284 0.00851642806082964 0 0 0 0
2683622712 0.14972873032093048 -0.14124193787574768 -0.00889082346111536 0.01041348371654749 0 0 0 0
2687344796 0.1450382024049759 -0.1559927612543106 -0.0063875168561935425 0.011614297516644001 0 0 0 0
2691066880 0.1412683129310608 -0.16817565262317657 -0.003988182172179222 0.012266481295228004 0 0 0 0
2694788964 0.13663038611412048 -0.1770484447479248 -0.0018221614882349968 0.012563280761241913 0 0 0 0
2698511048 0.12460775673389435 -0.188362255692482 0.000667923130095005 0.012391474097967148 0 0 0 0
2702233132 0.11439491808414459 -0.1958407163619995 0.002894044853746891 0.01163338404148817 0 0 0 0
2705955216 0.10245546698570251 -0.2016160488128662 0.00458167027682066 0.010862714610993862 0 0 0 0
2709677300 0.08588781952857971 -0.20646589994430542 0.006290898658335209 0.010162399150431156 0 0 0 0
2713399384 0.07406632602214813 -0.2067943662405014 0.008578889071941376 0.00877692922949791 0 0 0 0
2717121468 0.06020009517669678 -0.2050447016954422 0.010031395591795444 0.006559864617884159 0 0 0 0
2720843552 0.045056648552417755 -0.2016208916902542 0.010749259032309055 0.004400207661092281 0 0 0 0
2724565636 0.030025605112314224 -0.19552376866340637 0.011167249642312527 0.0024200081825256348 0 0 0 0
2728287720 0.015359774231910706 -0.18475767970085144 0.011549670249223709 0.0005179550498723984 0 0 0 0
2732009804 0.0036427751183509827 -0.1711599975824356 0.011838998645544052 -0.0016259299591183662 0 0 0 0
2735731888 -0.0022983774542808533 -0.15671905875205994 0.011775970458984375 -0.003969669342041016 0 0 0 0
2739453972 -0.009513020515441895 -0.1408628672361374 0.010862545110285282 -0.0067973267287015915 0 0 0 0
2743176056 -0.012725066393613815 -0.12403755635023117 0.009136379696428776 -0.009001117199659348 0 0 0 0
2746898140 -0.01502092182636261 -0.1066700741648674 0.006976107135415077 -0.010798394680023193 0 0 0 0
2750620224 -0.013069900684058666 -0.08871234208345413 0.0046679191291332245 -0.011952867731451988 0 0 0 0
2754342308 -0.00794309750199318 -0.06963072717189789 0.002179967239499092 -0.012715494260191917 0 0 0 0
2758064392 -0.00011143740266561508 -0.05170771852135658 -0.0006062490865588188 -0.012734576128423214 0 0 0 0
2761786476 0.01112167164683342 -0.03551909700036049 -0.0031070969998836517 -0.011985343880951405 0 0 0 0
2765508560 0.02549717389047146 -0.021890342235565186 -0.005232774652540684 -0.010874941013753414 0 0 0 0
2769230644 0.04137161001563072 -0.010793962515890598 -0.0069724200293421745 -0.009495552629232407 0 0 0 0
2772952728 0.058394066989421844 -0.0020112432539463043 -0.00838582031428814 -0.008003400638699532 0 0 0 0
2776674812 0.07724922895431519 0.004123263992369175 -0.009641790762543678 -0.006395728327333927 0 0 0 0
2780396896 0.09632076323032379 0.0064781345427036285 -0.010700661689043045 -0.004362714476883411 0 0 0 0
2784118980 0.11627960205078125 0.007912904024124146 -0.011226817965507507 -0.001970001496374607 0 0 0 0
2787841064 0.1366603672504425 0.007583968341350555 -0.011305375024676323 0.0003833845257759094 0 0 0 0
2791563148 0.15745022892951965 0.0028898976743221283 -0.010614394210278988 0.0027426760643720627 0 0 0 0
2795285232 0.17869234085083008 -0.005949385464191437 -0.009326986968517303 0.004771714098751545 0 0 0 0
2799007316 0.1978282481431961 -0.018826700747013092 -0.0076562827453017235 0.006222376599907875 0 0 0 0
2802729400 0.21457837522029877 -0.034478433430194855 -0.005953019484877586 0.0073364246636629105 0 0 0 0
2806451484 0.22925499081611633 -0.05345876142382622 -0.004046907648444176 0.007963724434375763 0 0 0 0
2810173568 0.24003958702087402 -0.07096216082572937 -0.002216467633843422 0.008074958808720112 0 0 0 0
2813895652 0.24830922484397888 -0.09410540759563446 -0.0005753207951784134 0.007880819961428642 0 0 0 0
2817617736 0.25278788805007935 -0.11835350096225739 0.0006996802985668182 0.007508007809519768 0 0 0 0
2821339820 0.25410521030426025 -0.1402171403169632 0.002034923993051052 0.006906920112669468 0 0 0 0
2825061904 0.25109541416168213 -0.1637541949748993 0.003144785761833191 0.006255626678466797 0 0 0 0
2828783988 0.24438482522964478 -0.1857510805130005 0.00428426917642355 0.005330044776201248 0 0 0 0
2832506072 0.2380787581205368 -0.20519602298736572 0.005106344819068909 0.004118454642593861 0 0 0 0
2836228156 0.22383694350719452 -0.22712375223636627 0.0055642686784267426 0.0027727456763386726 0 0 0 0
2839950240 0.21351584792137146 -0.24371542036533356 0.00557135883718729 0.0017536552622914314 0 0 0 0
2843672324 0.19947127997875214 -0.25772401690483093 0.005377833731472492 0.0009570131078362465 0 0 0 0
2847394408 0.1825711578130722 -0.2735198140144348 0.005372960120439529 0.0003499062731862068 0 0 0 0
2851116492 0.16416193544864655 -0.28386935591697693 0.005591720342636108 -0.0003737993538379669 0 0 0 0
2854838576 0.13984528183937073 -0.2959528863430023 0.005760222673416138 -0.001284988597035408 0 0 0 0
2858560660 0.1250581294298172 -0.3030053675174713 0.005828677676618099 -0.0026870090514421463 0 0 0 0
2862282744 0.10167693346738815 -0.3082135319709778 0.005289928987622261 -0.003939447924494743 0 0 0 0
2866004828 0.0851726159453392 -0.3076150417327881 0.004565364681184292 -0.004821415990591049 0 0 0 0
2869726912 0.05675777047872543 -0.31023040413856506 0.003508429042994976 -0.005570173263549805 0 0 0 0
2873448996 0.03512266278266907 -0.3070143163204193 0.002439499832689762 -0.0060621993616223335 0 0 0 0
2877171080 0.013128034770488739 -0.3025197684764862 0.0012382157146930695 -0.006285335868597031 0 0 0 0
2880893164 -0.009596221148967743 -0.295197457075119 5.766283720731735e-05 -0.006255354732275009 0 0 0 0
2884615248 -0.028824254870414734 -0.28177958726882935 -0.0009625134989619255 -0.005885474383831024 0 0 0 0
2888337332 -0.046394772827625275 -0.2674868106842041 -0.0017136083915829659 -0.005438750609755516 0 0 0 0
2892059416 -0.06666500866413116 -0.2508131265640259 -0.00256167259067297 -0.004856790415942669 0 0 0 0
2895781500 -0.08109981566667557 -0.23136259615421295 -0.003273642621934414 -0.0041283369064331055 0 0 0 0
2899503584 -0.09638788551092148 -0.2087172120809555 -0.003786470741033554 -0.0032489458099007607 0 0 0 0
2903225668 -0.10592717677354813 -0.18570035696029663 -0.003988332115113735 -0.002227102406322956 0 0 0 0
2906947752 -0.11063451319932938 -0.16242636740207672 -0.003816370852291584 -0.0012589553371071815 0 0 0 0
2910669836 -0.11554107069969177 -0.1369551718235016 -0.003535456955432892 -0.00047212932258844376 0 0 0 0
2914391920 -0.11591038852930069 -0.11049601435661316 -0.0030719079077243805 0.0001143384724855423 0 0 0 0
2918114004 -0.11197929084300995 -0.08629564940929413 -0.002517404966056347 0.0004460131749510765 0 0 0 0
2921836088 -0.10549332946538925 -0.061077412217855453 -0.002419710159301758 0.00047336239367723465 0 0 0 0
2925558172 -0.09549283981323242 -0.03880608081817627 -0.0021597305312752724 0.0006513660773634911 0 0 0 0
2929280256 -0.0840596854686737 -0.017073459923267365 -0.002130783163011074 0.0010492000728845596 0 0 0 0
2933002340 -0.06932990998029709 0.0024327486753463745 -0.0019294880330562592 0.0014934204518795013 0 0 0 0
2936724424 -0.051884837448596954 0.020500781014561653 -0.0015383688732981682 0.001797342672944069 0 0 0 0
2940446508 -0.03285663574934006 0.03515198081731796 -0.0012503759935498238 0.002037729136645794 0 0 0 0
2944168592 -0.012180606834590435 0.04805859923362732 -0.0008520092815160751 0.002438538707792759 0 0 0 0
2947890676 0.010027582757174969 0.05837123841047287 -8.302275091409683e-05 0.002708825282752514 0 0 0 0
2951612760 0.032347142696380615 0.06595189869403839 0.0007073832675814629 0.0027673151344060898 0 0 0 0
2955334844 0.05572114139795303 0.0706711933016777 0.0015818607062101364 0.002545631490647793 0 0 0 0
2959056928 0.07975633442401886 0.07338230311870575 0.0019371788948774338 0.002015083096921444 0 0 0 0
2962779012 0.10459399223327637 0.07274819910526276 0.0024731075391173363 0.0016401195898652077 0 0 0 0
2966501096 0.12875238060951233 0.06917327642440796 0.0026877550408244133 0.001125250943005085 0 0 0 0
2970223180 0.15426170825958252 0.06206095963716507 0.0028275521472096443 0.0006637796759605408 0 0 0 0
2973945264 0.1794314980506897 0.050976574420928955 0.003092383034527302 0.0003395630046725273 0 0 0 0
2977667348 0.2018924355506897 0.03551706671714783 0.003522878512740135 -6.88089057803154e-05 0 0 0 0
2981389432 0.22178862988948822 0.019257619976997375 0.0037306202575564384 -0.0008209319785237312 0 0 0 0
2985111516 0.2378597855567932 -0.003359571099281311 0.0035180943086743355 -0.0016947081312537193 0 0 0 0
2988833600 0.2505004405975342 -0.027264557778835297 0.003133016638457775 -0.0025454238057136536 0 0 0 0
2992555684 0.25971367955207825 -0.05100550502538681 0.0025900667533278465 -0.0033403784036636353 0 0 0 0
2996277768 0.26411911845207214 -0.07668702304363251 0.0016332324594259262 -0.003627319820225239 0 0 0 0
2999999852 0.2673482596874237 -0.10084212571382523 0.0005499189719557762 -0.003635181114077568 0 0 0 0
