# HZ S RI R 50
1500000000 -0.11025470495223999 -0.04017958790063858 0.036629870533943176 -0.034133411943912506 0 0 0 0
1503722084 -0.09487466514110565 -0.012701097875833511 0.028916319832205772 -0.040180500596761703 0 0 0 0
1507444168 -0.07348422706127167 0.010938940569758415 0.02032565325498581 -0.043848808854818344 0 0 0 0
1511166252 -0.048269566148519516 0.031184840947389603 0.01105700433254242 -0.045391522347927094 0 0 0 0
1514888336 -0.02026353031396866 0.04861851781606674 0.0025727935135364532 -0.04483930394053459 0 0 0 0
1518610420 0.011991400271654129 0.06310424953699112 -0.004863143898546696 -0.042673736810684204 0 0 0 0
1522332504 0.04866036772727966 0.07294156402349472 -0.011495733633637428 -0.03964228555560112 0 0 0 0
1526054588 0.0891827791929245 0.07732794433832169 -0.017171427607536316 -0.0357801616191864 0 0 0 0
1529776672 0.1323682963848114 0.07393623143434525 -0.02216976135969162 -0.03098122775554657 0 0 0 0
1533498756 0.17651167511940002 0.061154380440711975 -0.025902990251779556 -0.025339558720588684 0 0 0 0
1537220840 0.21915608644485474 0.0417013019323349 -0.027621548622846603 -0.019441837444901466 0 0 0 0
1540942924 0.2588103711605072 0.013043291866779327 -0.027948182076215744 -0.014288806356489658 0 0 0 0
1544665008 0.292900413274765 -0.021744409576058388 -0.027933549135923386 -0.010425371117889881 0 0 0 0
1548387092 0.32122737169265747 -0.06551072746515274 -0.02829461172223091 -0.006251453422009945 0 0 0 0
1552109176 0.34461188316345215 -0.10796112567186356 -0.028092913329601288 -0.002209368161857128 0 0 0 0
1555831260 0.3610828220844269 -0.15808884799480438 -0.027055149897933006 0.0020092930644750595 0 0 0 0
1559553344 0.3687129616737366 -0.21313916146755219 -0.02500537596642971 0.005653577856719494 0 0 0 0
1563275428 0.3680300712585449 -0.26685503125190735 -0.02285047620534897 0.008451034314930439 0 0 0 0
1566997512 0.3570460081100464 -0.3261900246143341 -0.020656343549489975 0.0110499057918787 0 0 0 0
1570719596 0.3396708071231842 -0.37963616847991943 -0.018107188865542412 0.013073275797069073 0 0 0 0
1574441680 0.3106021285057068 -0.43342435359954834 -0.015356134623289108 0.014669754542410374 0 0 0 0
1578163764 0.27580538392066956 -0.48033958673477173 -0.013028584420681 0.015509004704654217 0 0 0 0
1581885848 0.2275581806898117 -0.5214248895645142 -0.010512578301131725 0.016332224011421204 0 0 0 0
1585607932 0.17587070167064667 -0.556194007396698 -0.008240321651101112 0.01680998131632805 0 0 0 0
1589330016 0.1212737113237381 -0.5814287066459656 -0.006253959611058235 0.016876207664608955 0 0 0 0
1593052100 0.059347037225961685 -0.5994167923927307 -0.004248663783073425 0.016987618058919907 0 0 0 0
1596774184 -0.006249099969863892 -0.6080014705657959 -0.0024480950087308884 0.017332538962364197 0 0 0 0
1600496268 -0.06784325838088989 -0.6067686676979065 -0.00043645501136779785 0.017615092918276787 0 0 0 0
1604218352 -0.12953147292137146 -0.5976684093475342 0.0019506793469190598 0.017671314999461174 0 0 0 0
1607940436 -0.19439148902893066 -0.5746059417724609 0.004310958087444305 0.017160575836896896 0 0 0 0
1611662520 -0.25336000323295593 -0.5456115007400513 0.0066105397418141365 0.016364680603146553 0 0 0 0
1615384604 -0.3098181188106537 -0.506275475025177 0.008570404723286629 0.015357530675828457 0 0 0 0
1619106688 -0.3589971959590912 -0.45970550179481506 0.010736160911619663 0.014293085783720016 0 0 0 0
1622828772 -0.4008941054344177 -0.40414541959762573 0.012941555120050907 0.01306498609483242 0 0 0 0
1626550856 -0.4359056353569031 -0.34313860535621643 0.015083757229149342 0.011240176856517792 0 0 0 0
1630272940 -0.46191564202308655 -0.27518022060394287 0.017215268686413765 0.008931001648306847 0 0 0 0
1633995024 -0.4780396819114685 -0.2048419862985611 0.019133342429995537 0.006233716383576393 0 0 0 0
1637717108 -0.48420244455337524 -0.13163194060325623 0.02067689038813114 0.0025592083111405373 0 0 0 0
1641439192 -0.4786524772644043 -0.05910325050354004 0.02114179916679859 -0.001656142994761467 0 0 0 0
1645161276 -0.46192410588264465 0.015606876462697983 0.02027665078639984 -0.005833933129906654 0 0 0 0
1648883360 -0.43425431847572327 0.08955492824316025 0.018849890679121017 -0.009359604679048061 0 0 0 0
1652605444 -0.3937797546386719 0.1582079529762268 0.016426319256424904 -0.012857306748628616 0 0 0 0
1656327528 -0.3416569232940674 0.2216631919145584 0.013591333292424679 -0.015768956393003464 0 0 0 0
1660049612 -0.2810523211956024 0.27536821365356445 0.01000895444303751 -0.018045280128717422 0 0 0 0
1663771696 -0.21202722191810608 0.3175833523273468 0.006058430299162865 -0.019113287329673767 0 0 0 0
1667493780 -0.13463377952575684 0.3511633276939392 0.0021190056577324867 -0.019417116418480873 0 0 0 0
1671215864 -0.054093245416879654 0.37258151173591614 -0.0015903683379292488 -0.018888408318161964 0 0 0 0
1674937948 0.029025107622146606 0.3802199065685272 -0.005061994306743145 -0.017535334452986717 0 0 0 0
1678660032 0.11270551383495331 0.37555280327796936 -0.00773035641759634 -0.015736514702439308 0 0 0 0
1682382116 0.19571933150291443 0.35575732588768005 -0.010190853849053383 -0.013611450791358948 0 0 0 0
1686104200 0.2762073576450348 0.32454466819763184 -0.012038212269544601 -0.011251300573348999 0 0 0 0
1689826284 0.34866878390312195 0.2779868245124817 -0.013533225283026695 -0.008294275961816311 0 0 0 0
1693548368 0.41276562213897705 0.22338563203811646 -0.01415315456688404 -0.005532777868211269 0 0 0 0
1697270452 0.46671488881111145 0.15912772715091705 -0.014248151332139969 -0.0026622572913765907 0 0 0 0
1700992536 0.509331226348877 0.0882154107093811 -0.013923290185630322 -0.0002616392448544502 0 0 0 0
1704714620 0.5401431322097778 0.008784785866737366 -0.013308634981513023 0.0023628966882824898 0 0 0 0
1708436704 0.5586328506469727 -0.06754912436008453 -0.012197631411254406 0.00478658452630043 0 0 0 0
1712158788 0.5645161271095276 -0.14929132163524628 -0.01032679807394743 0.0069658467546105385 0 0 0 0
1715880872 0.5576902627944946 -0.22753150761127472 -0.008161078207194805 0.008393391966819763 0 0 0 0
1719602956 0.5397762060165405 -0.3068791627883911 -0.005640002898871899 0.009275202639400959 0 0 0 0
1723325040 0.5087992548942566 -0.3796972334384918 -0.003009912557899952 0.009299904108047485 0 0 0 0
1727047124 0.46784698963165283 -0.4472440481185913 -0.0008889958262443542 0.008599527180194855 0 0 0 0
1730769208 0.4184240698814392 -0.5033345818519592 0.0006172601133584976 0.0075243087485432625 0 0 0 0
1734491292 0.35848891735076904 -0.5538498163223267 0.0016333358362317085 0.006235969252884388 0 0 0 0
1738213376 0.2963670492172241 -0.5933372974395752 0.002382460981607437 0.00496187899261713 0 0 0 0
1741935460 0.22862523794174194 -0.6204654574394226 0.002605690620839596 0.003564762882888317 0 0 0 0
1745657544 0.1583300232887268 -0.6383503675460815 0.002198847010731697 0.002467484213411808 0 0 0 0
1749379628 0.0851302295923233 -0.6445600986480713 0.001565694808959961 0.0020152395591139793 0 0 0 0
1753101712 0.01580062508583069 -0.639430046081543 0.0011002961546182632 0.001990518532693386 0 0 0 0
1756823796 -0.05434785783290863 -0.6238508820533752 0.001229654997587204 0.0020203767344355583 0 0 0 0
1760545880 -0.11586318165063858 -0.5988484025001526 0.0012078909203410149 0.0019158758223056793 0 0 0 0
1764267964 -0.17188803851604462 -0.5661677718162537 0.0012527229264378548 0.0017071934416890144 0 0 0 0
1767990048 -0.22354643046855927 -0.5248507261276245 0.0011310335248708725 0.0013863807544112206 0 0 0 0
1771712132 -0.2657683193683624 -0.4793289303779602 0.0010645613074302673 0.0012007420882582664 0 0 0 0
1775434216 -0.30235785245895386 -0.42617931962013245 0.0006715822964906693 0.001045246608555317 0 0 0 0
1779156300 -0.3293594419956207 -0.37131816148757935 6.597861647605896e-05 0.0012206630781292915 0 0 0 0
1782878384 -0.3471810817718506 -0.31527015566825867 -0.00017223600298166275 0.001664353534579277 0 0 0 0
1786600468 -0.35847216844558716 -0.25522512197494507 -0.00013901479542255402 0.0021572625264525414 0 0 0 0
1790322552 -0.36063629388809204 -0.1970316767692566 -2.971850335597992e-05 0.0023915069177746773 0 0 0 0
1794044636 -0.3550286889076233 -0.13860401511192322 -0.00012382864952087402 0.002616726793348789 0 0 0 0
1797766720 -0.3418833613395691 -0.0810774490237236 -0.000650099478662014 0.0034061092883348465 0 0 0 0
1801488804 -0.3203064203262329 -0.027909837663173676 -0.0004988154396414757 0.005010455846786499 0 0 0 0
1805210888 -0.29138100147247314 0.021011993288993835 0.000698980875313282 0.006954568438231945 0 0 0 0
1808932972 -0.2553755044937134 0.06730194389820099 0.0033202627673745155 0.008184434846043587 0 0 0 0
1812655056 -0.21071432530879974 0.10841253399848938 0.006309058517217636 0.008075932040810585 0 0 0 0
1816377140 -0.16017064452171326 0.1390254944562912 0.009199034422636032 0.00693718995898962 0 0 0 0
1820099224 -0.10421713441610336 0.16112838685512543 0.011865491047501564 0.004818657413125038 0 0 0 0
1823821308 -0.04916809871792793 0.17133310437202454 0.01378674153238535 0.001468447968363762 0 0 0 0
1827543392 0.006493374705314636 0.17312368750572205 0.013974063098430634 -0.002299749292433262 0 0 0 0
1831265476 0.059596121311187744 0.16606512665748596 0.013190153986215591 -0.005502969957888126 0 0 0 0
1834987560 0.1104801744222641 0.15015114843845367 0.011581679806113243 -0.008381551131606102 0 0 0 0
1838709644 0.15553683042526245 0.1283484697341919 0.009466683492064476 -0.010587230324745178 0 0 0 0
1842431728 0.19550375640392303 0.10183815658092499 0.007080273702740669 -0.012119857594370842 0 0 0 0
1846153812 0.230500265955925 0.06837274134159088 0.004263453185558319 -0.012729360722005367 0 0 0 0
1849875896 0.2592006027698517 0.030888326466083527 0.0019043637439608574 -0.012508806772530079 0 0 0 0
1853597980 0.28116434812545776 -0.010231196880340576 0.0004024636000394821 -0.012045505456626415 0 0 0 0
1857320064 0.29583123326301575 -0.05009981989860535 -0.00041976198554039 -0.011959442868828773 0 0 0 0
1861042148 0.3029511272907257 -0.0928729996085167 -0.0016348622739315033 -0.012674588710069656 0 0 0 0
1864764232 0.3028032183647156 -0.13609753549098969 -0.003931389190256596 -0.01294948160648346 0 0 0 0
1868486316 0.29627394676208496 -0.17654746770858765 -0.006219807080924511 -0.012702280655503273 0 0 0 0
1872208400 0.28604525327682495 -0.21293753385543823 -0.008321098051965237 -0.01193000003695488 0 0 0 0
1875930484 0.27137160301208496 -0.24909508228302002 -0.010189433582127094 -0.010649217292666435 0 0 0 0
1879652568 0.24684035778045654 -0.28208181262016296 -0.011529272422194481 -0.009278946556150913 0 0 0 0
1883374652 0.22004660964012146 -0.3089579939842224 -0.013121997937560081 -0.008851362392306328 0 0 0 0
1887096736 0.18753483891487122 -0.33103421330451965 -0.016139540821313858 -0.007868558168411255 0 0 0 0
1890818820 0.1525978147983551 -0.3449343740940094 -0.019378015771508217 -0.005167687311768532 0 0 0 0
1894540904 0.11561858654022217 -0.3524554669857025 -0.02187463454902172 -0.0005519725382328033 0 0 0 0
1898262988 0.08418680727481842 -0.35213834047317505 -0.02239379659295082 0.004720060154795647 0 0 0 0
1901985072 0.04965180903673172 -0.3482443690299988 -0.020909681916236877 0.009792199358344078 0 0 0 0
1905707156 0.018305081874132156 -0.33821356296539307 -0.018620194867253304 0.013671765103936195 0 0 0 0
1909429240 -0.00929301604628563 -0.32396334409713745 -0.015774818137288094 0.01731419563293457 0 0 0 0
1913151324 -0.03376341611146927 -0.30594760179519653 -0.01260929275304079 0.020554451271891594 0 0 0 0
1916873408 -0.05483589693903923 -0.2831992208957672 -0.008349087089300156 0.023312829434871674 0 0 0 0
1920595492 -0.0723976418375969 -0.25744542479515076 -0.0030544549226760864 0.02521614544093609 0 0 0 0
1924317576 -0.08446916937828064 -0.22878244519233704 0.0026770848780870438 0.025279691442847252 0 0 0 0
1928039660 -0.08880531787872314 -0.20079612731933594 0.008092292584478855 0.023818615823984146 0 0 0 0
1931761744 -0.09120053052902222 -0.17237861454486847 0.01305270567536354 0.020496373996138573 0 0 0 0
1935483828 -0.08598797023296356 -0.14552703499794006 0.016260147094726562 0.016307301819324493 0 0 0 0
1939205912 -0.07902663946151733 -0.11884422600269318 0.017634712159633636 0.0119475107640028 0 0 0 0
1942927996 -0.0674152821302414 -0.09279102832078934 0.017767945304512978 0.008194021880626678 0 0 0 0
1946650080 -0.05086451768875122 -0.07082319259643555 0.017531558871269226 0.006024365313351154 0 0 0 0
1950372164 -0.0312417633831501 -0.05168381333351135 0.017843250185251236 0.0040375906974077225 0 0 0 0
1954094248 -0.008980641141533852 -0.03599748760461807 0.018584925681352615 0.0022321604192256927 0 0 0 0
1957816332 0.01588129997253418 -0.02359158918261528 0.019419491291046143 -0.0007449891418218613 0 0 0 0
1961538416 0.042776335030794144 -0.01532979216426611 0.019432498142123222 -0.004088628105819225 0 0 0 0
1965260500 0.0724167674779892 -0.0124808419495821 0.019107982516288757 -0.007111585699021816 0 0 0 0
1968982584 0.10277755558490753 -0.015539372339844704 0.018470343202352524 -0.010214224457740784 0 0 0 0
1972704668 0.13125720620155334 -0.025295693427324295 0.01746251992881298 -0.014175035990774632 0 0 0 0
1976426752 0.15712204575538635 -0.04044343903660774 0.014975517056882381 -0.01842583157122135 0 0 0 0
1980148836 0.1787865161895752 -0.060738399624824524 0.011318279430270195 -0.021804817020893097 0 0 0 0
1983870920 0.19581180810928345 -0.08431978523731232 0.006199996918439865 -0.024376362562179565 0 0 0 0
1987593004 0.20845790207386017 -0.10889843106269836 0.0006431760266423225 -0.025320470333099365 0 0 0 0
1991315088 0.21600393950939178 -0.13691017031669617 -0.004622413776814938 -0.02469829097390175 0 0 0 0
1995037172 0.21923287212848663 -0.1655593365430832 -0.009543655440211296 -0.02295548841357231 0 0 0 0
1998759256 0.215304434299469 -0.19470158219337463 -0.013382984325289726 -0.020277805626392365 0 0 0 0
2002481340 0.20849592983722687 -0.21979615092277527 -0.016161207109689713 -0.01770283840596676 0 0 0 0
2006203424 0.19461549818515778 -0.2453758865594864 -0.019092043861746788 -0.015019943006336689 0 0 0 0
2009925508 0.17814168334007263 -0.26686370372772217 -0.021778836846351624 -0.011621957644820213 0 0 0 0
2013647592 0.15837374329566956 -0.28504014015197754 -0.023844625800848007 -0.007878698408603668 0 0 0 0
2017369676 0.13470345735549927 -0.3011995553970337 -0.025758182629942894 -0.0037629259750247 0 0 0 0
2021091760 0.10999782383441925 -0.3105701208114624 -0.026912355795502663 0.0009944280609488487 0 0 0 0
2024813844 0.08245992660522461 -0.31539005041122437 -0.02698681503534317 0.006465284153819084 0 0 0 0
2028535928 0.05095571279525757 -0.3165040612220764 -0.02542746625840664 0.012366430833935738 0 0 0 0
2032258012 0.024050209671258926 -0.31086844205856323 -0.022479740902781487 0.01708124950528145 0 0 0 0
2035980096 0.00038551539182662964 -0.3028228282928467 -0.01900411769747734 0.021097326651215553 0 0 0 0
2039702180 -0.024630136787891388 -0.29007449746131897 -0.014131172560155392 0.02475603297352791 0 0 0 0
2043424264 -0.04507477954030037 -0.2743498384952545 -0.009357720613479614 0.026798075065016747 0 0 0 0
2047146348 -0.0647328644990921 -0.2548360526561737 -0.0038776900619268417 0.02765585668385029 0 0 0 0
2050868432 -0.0810362920165062 -0.233963280916214 0.0010736314579844475 0.027390725910663605 0 0 0 0
2054590516 -0.09282374382019043 -0.21098162233829498 0.005736779421567917 0.026781458407640457 0 0 0 0
2058312600 -0.10579834878444672 -0.18212038278579712 0.010451757349073887 0.024794762954115868 0 0 0 0
2062034684 -0.11157522350549698 -0.15421952307224274 0.014318572357296944 0.02235581912100315 0 0 0 0
2065756768 -0.1141350120306015 -0.12346445024013519 0.017982803285121918 0.01895812340080738 0 0 0 0
2069478852 -0.1120772659778595 -0.09173489362001419 0.020788077265024185 0.015458771958947182 0 0 0 0
2073200936 -0.1046300083398819 -0.05890332907438278 0.02255161851644516 0.011476395651698112 0 0 0 0
2076923020 -0.09070988744497299 -0.026717567816376686 0.023698505014181137 0.0069438135251402855 0 0 0 0
2080645104 -0.07125686854124069 0.003300335258245468 0.02381092682480812 0.002557135187089443 0 0 0 0
2084367188 -0.04628477245569229 0.0292486734688282 0.023385614156723022 -0.00079343281686306 0 0 0 0
2088089272 -0.016106367111206055 0.051754191517829895 0.02251507341861725 -0.004053002223372459 0 0 0 0
2091811356 0.018108561635017395 0.06787548959255219 0.02181622013449669 -0.00708629097789526 0 0 0 0
2095533440 0.0540737584233284 0.0783192440867424 0.021355358883738518 -0.010616859421133995 0 0 0 0
2099255524 0.09295545518398285 0.0811183750629425 0.01952359825372696 -0.014849599450826645 0 0 0 0
2102977608 0.13065919280052185 0.07843631505966187 0.016268290579319 -0.0187776330858469 0 0 0 0
2106699692 0.1670592576265335 0.07063619047403336 0.012213165871798992 -0.021881839260458946 0 0 0 0
2110421776 0.20351652801036835 0.05485878512263298 0.007282779552042484 -0.023701947182416916 0 0 0 0
2114143860 0.23621073365211487 0.03402847796678543 0.002620285376906395 -0.02418186329305172 0 0 0 0
2117865944 0.26418501138687134 0.005826178006827831 -0.0020345058292150497 -0.023680254817008972 0 0 0 0
2121588028 0.2853485345840454 -0.025802135467529297 -0.0059535205364227295 -0.02267308533191681 0 0 0 0
2125310112 0.30015960335731506 -0.05986710637807846 -0.010286671109497547 -0.02095961570739746 0 0 0 0
2129032196 0.30940699577331543 -0.09472940862178802 -0.014314851723611355 -0.01813689060509205 0 0 0 0
2132754280 0.3146268129348755 -0.12678298354148865 -0.01750805228948593 -0.01468249037861824 0 0 0 0
2136476364 0.3133339285850525 -0.1628924310207367 -0.01952747255563736 -0.010000044479966164 0 0 0 0
2140198448 0.3081974983215332 -0.1979120969772339 -0.019966065883636475 -0.00548956822603941 0 0 0 0
2143920532 0.2975415885448456 -0.22939027845859528 -0.019111348316073418 -0.0019297804683446884 0 0 0 0
2147642616 0.2810242176055908 -0.2611483931541443 -0.018162894994020462 0.0008953828364610672 0 0 0 0
2151364700 0.25822317600250244 -0.28897765278816223 -0.017196159809827805 0.0032841144129633904 0 0 0 0
2155086784 0.23313874006271362 -0.31185853481292725 -0.016023915261030197 0.005620162934064865 0 0 0 0
2158808868 0.2050580084323883 -0.32803985476493835 -0.014550382271409035 0.007593125104904175 0 0 0 0
2162530952 0.17439521849155426 -0.3426820635795593 -0.01306774839758873 0.009208316914737225 0 0 0 0
2166253036 0.14211489260196686 -0.34965577721595764 -0.01200858037918806 0.01075178012251854 0 0 0 0
2169975120 0.1110256016254425 -0.3510788679122925 -0.010373910889029503 0.012508719228208065 0 0 0 0
2173697204 0.07775373756885529 -0.3486534357070923 -0.007880683057010174 0.014270560815930367 0 0 0 0
2177419288 0.0483582466840744 -0.3418438732624054 -0.0051199812442064285 0.015112852677702904 0 0 0 0
2181141372 0.01782931573688984 -0.3314194679260254 -0.0026946021243929863 0.01518696267157793 0 0 0 0
2184863456 -0.010157965123653412 -0.3155439794063568 -0.0006678570061922073 0.015118198469281197 0 0 0 0
2188585540 -0.03323917090892792 -0.294647753238678 0.0015066079795360565 0.015177961438894272 0 0 0 0
2192307624 -0.05633676052093506 -0.26978716254234314 0.0039026523008942604 0.01486609224230051 0 0 0 0
2196029708 -0.07199233770370483 -0.24102424085140228 0.006448596715927124 0.014202266931533813 0 0 0 0
2199751792 -0.08284398913383484 -0.20927852392196655 0.008920945227146149 0.012552357278764248 0 0 0 0
2203473876 -0.08846255391836166 -0.17764639854431152 0.010934291407465935 0.010425186716020107 0 0 0 0
2207195960 -0.08607876300811768 -0.1476019024848938 0.012124677188694477 0.008616521023213863 0 0 0 0
2210918044 -0.08344250172376633 -0.11607429385185242 0.013207406736910343 0.006548631004989147 0 0 0 0
2214640128 -0.07231126725673676 -0.08847755938768387 0.014479557052254677 0.004277383908629417 0 0 0 0
2218362212 -0.059644248336553574 -0.061360981315374374 0.014966276474297047 0.0016295472159981728 0 0 0 0
2222084296 -0.04179304093122482 -0.0361909493803978 0.015076350420713425 -0.0012085698544979095 0 0 0 0
2225806380 -0.019371218979358673 -0.014085766859352589 0.014726954512298107 -0.003976921550929546 0 0 0 0
2229528464 0.006961495615541935 0.004144429229199886 0.013836784288287163 -0.00723170954734087 0 0 0 0
2233250548 0.03658120334148407 0.015033054165542126 0.011899920180439949 -0.010181129910051823 0 0 0 0
2236972632 0.06658954173326492 0.02262498438358307 0.00924677960574627 -0.012580658309161663 0 0 0 0
2240694716 0.09783177822828293 0.021167507395148277 0.005833622068166733 -0.01414161454886198 0 0 0 0
2244416800 0.1278001219034195 0.015052060596644878 0.0023392047733068466 -0.014848710969090462 0 0 0 0
2248138884 0.15436477959156036 0.006217815913259983 -0.0012207608669996262 -0.014172669500112534 0 0 0 0
2251860968 0.17974577844142914 -0.011004950851202011 -0.0048004500567913055 -0.01277407631278038 0 0 0 0
2255583052 0.20089128613471985 -0.026098452508449554 -0.006836812011897564 -0.01071152463555336 0 0 0 0
2259305136 0.21615910530090332 -0.05435749143362045 -0.008028990589082241 -0.008465038612484932 0 0 0 0
2263027220 0.22744019329547882 -0.07755813002586365 -0.008973222225904465 -0.006344669498503208 0 0 0 0
2266749304 0.23633258044719696 -0.09807603806257248 -0.009270353242754936 -0.004162055440247059 0 0 0 0
2270471388 0.23732219636440277 -0.12708473205566406 -0.008841723203659058 -0.002214919775724411 0 0 0 0
2274193472 0.23885060846805573 -0.1471852958202362 -0.008020341396331787 -0.0008925460278987885 0 0 0 0
2277915556 0.2345631867647171 -0.1708603948354721 -0.007168578915297985 -0.0001849224790930748 0 0 0 0
2281637640 0.21960940957069397 -0.2000228613615036 -0.006611315533518791 5.0576403737068176e-05 0 0 0 0
2285359724 0.21007736027240753 -0.21623495221138 -0.006464471109211445 0.00019369646906852722 0 0 0 0
2289081808 0.1911732405424118 -0.2328767478466034 -0.006377005018293858 0.0008280277252197266 0 0 0 0
2292803892 0.17015549540519714 -0.2465399205684662 -0.006374631077051163 0.0012437514960765839 0 0 0 0
2296525976 0.1526087075471878 -0.2522689998149872 -0.006216154433786869 0.0017260387539863586 0 0 0 0
2300248060 0.13143905997276306 -0.2584112286567688 -0.006208124570548534 0.002254284918308258 0 0 0 0
2303970144 0.10863280296325684 -0.2653428018093109 -0.006244600750505924 0.0031039072200655937 0 0 0 0
2307692228 0.08998002856969833 -0.2618565261363983 -0.005912895314395428 0.00424476433545351 0 0 0 0
2311414312 0.06190887838602066 -0.26003193855285645 -0.004775990732014179 0.005181628279387951 0 0 0 0
2315136396 0.04376552253961563 -0.25177425146102905 -0.0032742032781243324 0.00543203204870224 0 0 0 0
2318858480 0.021586954593658447 -0.24186362326145172 -0.0022162944078445435 0.00502054113894701 0 0 0 0
2322580564 0.002327077090740204 -0.22454355657100677 -0.0017593856900930405 0.004305480979382992 0 0 0 0
2326302648 -0.014121875166893005 -0.20420871675014496 -0.001818179152905941 0.003751239739358425 0 0 0 0
2330024732 -0.02229788899421692 -0.1824595332145691 -0.0019473331049084663 0.0034642834216356277 0 0 0 0
2333746816 -0.03494563326239586 -0.15674829483032227 -0.002268582582473755 0.0034951101988554 0 0 0 0
2337468900 -0.034658778458833694 -0.1314520537853241 -0.002499091438949108 0.003945293836295605 0 0 0 0
2341190984 -0.033387191593647 -0.10496509820222855 -0.0024178214371204376 0.004313248209655285 0 0 0 0
2344913068 -0.028808172792196274 -0.07816242426633835 -0.0021703066304326057 0.00463478360325098 0 0 0 0
2348635152 -0.016318533569574356 -0.05360797047615051 -0.002012607641518116 0.005179513245820999 0 0 0 0
2352357236 6.965920329093933e-05 -0.0324312262237072 -0.0016868151724338531 0.005649838596582413 0 0 0 0
2356079320 0.019579997286200523 -0.013689431361854076 -0.0007183318957686424 0.006105493754148483 0 0 0 0
2359801404 0.04108070954680443 0.0006931256502866745 0.00034957192838191986 0.006129514425992966 0 0 0 0
2363523488 0.06469778716564178 0.012176243588328362 0.0011067632585763931 0.005815496668219566 0 0 0 0
2367245572 0.08937747031450272 0.020292628556489944 0.0013597290962934494 0.005435893312096596 0 0 0 0
2370967656 0.11633481830358505 0.02350190281867981 0.001724526286125183 0.005052658729255199 0 0 0 0
2374689740 0.1447378247976303 0.022721175104379654 0.0023324573412537575 0.004749685525894165 0 0 0 0
2378411824 0.171402245759964 0.015891212970018387 0.002619899809360504 0.004453360103070736 0 0 0 0
2382133908 0.19674289226531982 0.006871894933283329 0.0027739834040403366 0.004161598160862923 0 0 0 0
2385855992 0.2214527726173401 -0.006935618817806244 0.0031388280913233757 0.003813769668340683 0 0 0 0
2389578076 0.24254322052001953 -0.027384977787733078 0.0029752347618341446 0.0035881567746400833 0 0 0 0
2393300160 0.26051250100135803 -0.0493026003241539 0.002961181104183197 0.0039408402517437935 0 0 0 0
2397022244 0.2733150124549866 -0.0740717425942421 0.00338799599558115 0.0044358475133776665 0 0 0 0
2400744328 0.2824791371822357 -0.10360270738601685 0.004737989045679569 0.004496235400438309 0 0 0 0
2404466412 0.2851129472255707 -0.12997519969940186 0.006095600314438343 0.0038417186588048935 0 0 0 0
2408188496 0.28634849190711975 -0.15381160378456116 0.006973168812692165 0.002984297461807728 0 0 0 0
2411910580 0.28286105394363403 -0.18054300546646118 0.007658583112061024 0.0017714593559503555 0 0 0 0
2415632664 0.27420106530189514 -0.20714405179023743 0.008234847337007523 0.00036870595067739487 0 0 0 0
2419354748 0.2640494108200073 -0.2287668138742447 0.008821694180369377 -0.0008277669548988342 0 0 0 0
2423076832 0.2507113516330719 -0.2517260015010834 0.009158974513411522 -0.002803525887429714 0 0 0 0
2426798916 0.2303343415260315 -0.27344632148742676 0.008769952692091465 -0.005058258771896362 0 0 0 0
2430521000 0.21091553568840027 -0.2891453504562378 0.007327111437916756 -0.007099812850356102 0 0 0 0
2434243084 0.18947705626487732 -0.3039698600769043 0.005562878213822842 -0.008396852761507034 0 0 0 0
2437965168 0.1644575148820877 -0.3147937059402466 0.0034528132528066635 -0.00878574326634407 0 0 0 0
2441687252 0.13931739330291748 -0.32227823138237 0.002014756202697754 -0.008647169917821884 0 0 0 0
2445409336 0.11114449054002762 -0.326783686876297 0.0012066671624779701 -0.008461009711027145 0 0 0 0
2449131420 0.08506179600954056 -0.3260357081890106 0.0004825666546821594 -0.0088279377669096 0 0 0 0
2452853504 0.054834723472595215 -0.3226122260093689 -0.0005028462037444115 -0.009253202937543392 0 0 0 0
2456575588 0.028473295271396637 -0.31264728307724 -0.0015482157468795776 -0.009778384119272232 0 0 0 0
2460297672 0.0026504844427108765 -0.2981753647327423 -0.0033217836171388626 -0.01015219371765852 0 0 0 0
2464019756 -0.02170712500810623 -0.2809152901172638 -0.005321001634001732 -0.010166816413402557 0 0 0 0
2467741840 -0.043294794857501984 -0.25932031869888306 -0.007340532727539539 -0.009594260714948177 0 0 0 0
2471463924 -0.058336563408374786 -0.23530299961566925 -0.00913398340344429 -0.008484439924359322 0 0 0 0
2475186008 -0.07259288430213928 -0.20740766823291779 -0.01076420582830906 -0.0072242580354213715 0 0 0 0
2478908092 -0.07984212040901184 -0.17961305379867554 -0.012144369073212147 -0.005484886467456818 0 0 0 0
2482630176 -0.08363591879606247 -0.15112482011318207 -0.013466856442391872 -0.0035469215363264084 0 0 0 0
2486352260 -0.0826234370470047 -0.12318853288888931 -0.014211385510861874 -0.001439935527741909 0 0 0 0
2490074344 -0.07790838181972504 -0.09584018588066101 -0.014760772697627544 0.000964856706559658 0 0 0 0
2493796428 -0.06923776119947433 -0.06775250285863876 -0.014757676050066948 0.0037666363641619682 0 0 0 0
2497518512 -0.057044681161642075 -0.04205513373017311 -0.013768616132438183 0.006529456004500389 0 0 0 0
2501240596 -0.04086793214082718 -0.018777355551719666 -0.012502654455602169 0.00871504656970501 0 0 0 0
2504962680 -0.0211662445217371 0.0012064510956406593 -0.011072867549955845 0.010580305941402912 0 0 0 0
2508684764 0.0013887668028473854 0.01857476495206356 -0.009262160398066044 0.012630512937903404 0 0 0 0
2512406848 0.025569967925548553 0.0324593186378479 -0.007076106034219265 0.014598261564970016 0 0 0 0
2516128932 0.05178007856011391 0.04221778362989426 -0.003918765112757683 0.01576397940516472 0 0 0 0
2519851016 0.07972390949726105 0.04789555445313454 -0.00040720589458942413 0.01600402034819126 0 0 0 0
2523573100 0.1071452647447586 0.049927324056625366 0.0023876670747995377 0.015357859432697296 0 0 0 0
2527295184 0.13556203246116638 0.045814644545316696 0.005220731720328331 0.01435504388064146 0 0 0 0
2531017268 0.16221220791339874 0.03751232102513313 0.007659588009119034 0.012744409032166004 0 0 0 0
2534739352 0.18678921461105347 0.02594826929271221 0.009946906007826328 0.010574457235634327 0 0 0 0
2538461436 0.20877967774868011 0.00827433168888092 0.011176805943250656 0.008090712130069733 0 0 0 0
2542183520 0.2269735485315323 -0.00783432275056839 0.011912773363292217 0.0055758161470294 0 0 0 0
2545905604 0.24172146618366241 -0.03060072287917137 0.012243014760315418 0.003230907954275608 0 0 0 0
2549627688 0.25258395075798035 -0.05023563653230667 0.012376113794744015 0.0009162919595837593 0 0 0 0
2553349772 0.26100558042526245 -0.07318497449159622 0.012071078643202782 -0.001632395200431347 0 0 0 0
2557071856 0.26723232865333557 -0.09935257583856583 0.010836719535291195 -0.003982934169471264 0 0 0 0
2560793940 0.26851943135261536 -0.12032802402973175 0.009038839489221573 -0.005603546276688576 0 0 0 0
2564516024 0.26352229714393616 -0.1451481431722641 0.007474775426089764 -0.006429420784115791 0 0 0 0
2568238108 0.25999683141708374 -0.16387075185775757 0.005734806880354881 -0.007108780555427074 0 0 0 0
2571960192 0.24796974658966064 -0.1869303584098816 0.00431523472070694 -0.007139118388295174 0 0 0 0
2575682276 0.23728236556053162 -0.2029307782649994 0.0032866038382053375 -0.0069130789488554 0 0 0 0
2579404360 0.22431272268295288 -0.2190895527601242 0.0028441492468118668 -0.007097600027918816 0 0 0 0
2583126444 0.20942118763923645 -0.2313765287399292 0.0025206441059708595 -0.007571058347821236 0 0 0 0
2586848528 0.1941855549812317 -0.24143606424331665 0.001305130310356617 -0.008324962109327316 0 0 0 0
2590570612 0.17690441012382507 -0.250184029340744 -0.00022549740970134735 -0.00859711691737175 0 0 0 0
2594292696 0.15803572535514832 -0.25702762603759766 -0.0018502594903111458 -0.008439199067652225 0 0 0 0
2598014780 0.14271599054336548 -0.2612585723400116 -0.003449534997344017 -0.007919052615761757 0 0 0 0
2601736864 0.12374933809041977 -0.2619195580482483 -0.004568025469779968 -0.006948534399271011 0 0 0 0
2605458948 0.10710787028074265 -0.25998830795288086 -0.005435602739453316 -0.005783556029200554 0 0 0 0
2609181032 0.08968088775873184 -0.25710925459861755 -0.005760199390351772 -0.004538310691714287 0 0 0 0
2612903116 0.07056213170289993 -0.25117066502571106 -0.006171168759465218 -0.003761664032936096 0 0 0 0
2616625200 0.05379228666424751 -0.24162523448467255 -0.006337455473840237 -0.0026737358421087265 0 0 0 0
2620347284 0.04007275402545929 -0.22938093543052673 -0.006245845928788185 -0.0016499999910593033 0 0 0 0
2624069368 0.028685525059700012 -0.2149561047554016 -0.005794712342321873 -0.0010160105302929878 0 0 0 0
2627791452 0.018526367843151093 -0.19964422285556793 -0.005468493327498436 -0.0008370392024517059 0 0 0 0
2631513536 0.01368848979473114 -0.18284493684768677 -0.005751424469053745 -0.0002488400787115097 0 0 0 0
2635235620 0.010904036462306976 -0.16493573784828186 -0.005882110446691513 0.00047410279512405396 0 0 0 0
2638957704 0.01177629642188549 -0.1493358612060547 -0.005734730511903763 0.0011086845770478249 0 0 0 0
2642679788 0.016087491065263748 -0.13141672313213348 -0.0055342549458146095 0.0019098902121186256 0 0 0 0
2646401872 0.023570220917463303 -0.1176510751247406 -0.004956345073878765 0.002612292766571045 0 0 0 0
2650123956 0.03347080200910568 -0.10524013638496399 -0.004553269594907761 0.003356408327817917 0 0 0 0
2653846040 0.04265296459197998 -0.0956185907125473 -0.003643268719315529 0.004040643572807312 0 0 0 0
2657568124 0.055790744721889496 -0.08703049272298813 -0.002683240920305252 0.004079321399331093 0 0 0 0
2661290208 0.0706811249256134 -0.08178544044494629 -0.0019871825352311134 0.004086609929800034 0 0 0 0
2665012292 0.08434296399354935 -0.08047068864107132 -0.0014179777354001999 0.004279002547264099 0 0 0 0
2668734376 0.09761309623718262 -0.08311835676431656 -0.0004691584035754204 0.004239613190293312 0 0 0 0
2672456460 0.11130256950855255 -0.08720385283231735 0.0003121141344308853 0.00382135808467865 0 0 0 0
2676178544 0.1219412237405777 -0.0949828028678894 0.0009676096960902214 0.003123888745903969 0 0 0 0
2679900628 0.13157179951667786 -0.1044800654053688 0.0013313749805092812 0.002662300132215023 0 0 0 0
2683622712 0.1382548213005066 -0.11451209336519241 0.0014819549396634102 0.002221032977104187 0 0 0 0
2687344796 0.14297422766685486 -0.12632779777050018 0.0017059389501810074 0.001630767248570919 0 0 0 0
2691066880 0.14379894733428955 -0.13981512188911438 0.0016241064295172691 0.0010544918477535248 0 0 0 0
2694788964 0.14129814505577087 -0.15408828854560852 0.0014462405815720558 0.0007495852187275887 0 0 0 0
2698511048 0.1386173814535141 -0.1635604202747345 0.0012777205556631088 0.0007669320330023766 0 0 0 0
2702233132 0.13055174052715302 -0.17755341529846191 0.0015552118420600891 0.0008066203445196152 0 0 0 0
2705955216 0.12183868885040283 -0.1865019053220749 0.0017920872196555138 0.0004075169563293457 0 0 0 0
2709677300 0.11175558716058731 -0.19493305683135986 0.0019688913598656654 -0.00012462586164474487 0 0 0 0
2713399384 0.09604181349277496 -0.20250162482261658 0.001721154898405075 -0.0005699768662452698 0 0 0 0
2717121468 0.08086442947387695 -0.20456495881080627 0.0013996679335832596 -0.000904228538274765 0 0 0 0
2720843552 0.064693383872509 -0.20565541088581085 0.0011281529441475868 -0.001180047169327736 0 0 0 0
2724565636 0.04889467731118202 -0.20232263207435608 0.0009777946397662163 -0.0015132119879126549 0 0 0 0
2728287720 0.03519535809755325 -0.19531242549419403 0.00040672626346349716 -0.0015830537304282188 0 0 0 0
2732009804 0.021487029269337654 -0.1870143711566925 8.21426510810852e-06 -0.0014876574277877808 0 0 0 0
2735731888 0.009401664137840271 -0.17458602786064148 -0.0002968432381749153 -0.0011298125609755516 0 0 0 0
2739453972 -0.00017612427473068237 -0.1620129644870758 -0.00040557608008384705 -0.0008780462667346001 0 0 0 0
2743176056 -0.010410100221633911 -0.14609955251216888 -0.00033323653042316437 -0.0007154373452067375 0 0 0 0
2746898140 -0.015970449894666672 -0.12760652601718903 -0.00013827253133058548 -0.0004980582743883133 0 0 0 0
2750620224 -0.01775764301419258 -0.10832726955413818 0.0001018056645989418 -0.0004633879289031029 0 0 0 0
2754342308 -0.016392607241868973 -0.08865659683942795 0.0004774089902639389 -0.0005572820082306862 0 0 0 0
2758064392 -0.011116556823253632 -0.06977387517690659 0.0004617217928171158 -0.0009250110015273094 0 0 0 0
2761786476 -0.0032800324261188507 -0.05168325453996658 0.0004997318610548973 -0.0012057442218065262 0 0 0 0
2765508560 0.00654997956007719 -0.03434694558382034 0.00031091272830963135 -0.001568772830069065 0 0 0 0
2769230644 0.020215487107634544 -0.01836085505783558 -9.666662663221359e-05 -0.0017615538090467453 0 0 0 0
2772952728 0.03689129278063774 -0.004374080337584019 -0.0006147278472781181 -0.001855120062828064 0 0 0 0
2776674812 0.05643916875123978 0.007004927843809128 -0.0010468997061252594 -0.0015784762799739838 0 0 0 0
2780396896 0.07840226590633392 0.015163084492087364 -0.0013023493811488152 -0.0009636739268898964 0 0 0 0
2784118980 0.10158512741327286 0.018681898713111877 -0.0012166304513812065 -0.0004223110154271126 0 0 0 0
2787841064 0.12521182000637054 0.018205132335424423 -0.0007755504921078682 -3.605429083108902e-05 0 0 0 0
2791563148 0.14869186282157898 0.014521191827952862 -0.00014964397996664047 -0.00011566467583179474 0 0 0 0
2795285232 0.17101378738880157 0.008744487538933754 0.00015914998948574066 -0.0005501378327608109 0 0 0 0
2799007316 0.1929050236940384 -0.004026144742965698 0.00011000502854585648 -0.0011585429310798645 0 0 0 0
2802729400 0.21337063610553741 -0.01736633852124214 -0.00014570727944374084 -0.0015002032741904259 0 0 0 0
2806451484 0.22999268770217896 -0.03694434091448784 -0.0007716957479715347 -0.00163292046636343 0 0 0 0
2810173568 0.24436034262180328 -0.056102000176906586 -0.0011734003201127052 -0.0013711107894778252 0 0 0 0
2813895652 0.25603187084198 -0.08033998310565948 -0.0014840327203273773 -0.0010683350265026093 0 0 0 0
2817617736 0.26424339413642883 -0.10597299039363861 -0.0016564056277275085 -0.0006110295653343201 0 0 0 0
2821339820 0.2672770917415619 -0.1323065161705017 -0.0017135627567768097 -0.00022521615028381348 0 0 0 0
2825061904 0.26655083894729614 -0.1592622995376587 -0.0016209175810217857 0.0001658918336033821 0 0 0 0
2828783988 0.25998252630233765 -0.18709924817085266 -0.0012485403567552567 0.0007635708898305893 0 0 0 0
2832506072 0.2551301121711731 -0.2067527323961258 -0.0007640840485692024 0.0010123886168003082 0 0 0 0
2836228156 0.239719420671463 -0.2308049499988556 -0.0003470005467534065 0.0010972414165735245 0 0 0 0
2839950240 0.22442777454853058 -0.2539428770542145 0.0003621084615588188 0.001008603721857071 0 0 0 0
2843672324 0.2093028575181961 -0.2689875066280365 0.0008657602593302727 0.0005486682057380676 0 0 0 0
2847394408 0.19035707414150238 -0.28534233570098877 0.000972784124314785 0.00014946889132261276 0 0 0 0
2851116492 0.16922715306282043 -0.2986515760421753 0.0009705405682325363 -0.00036200135946273804 0 0 0 0
2854838576 0.14608877897262573 -0.3089241683483124 0.0008707046508789062 -0.0008006887510418892 0 0 0 0
2858560660 0.12788596749305725 -0.3172881305217743 0.0007541831582784653 -0.001452568918466568 0 0 0 0
2862282744 0.09529087692499161 -0.32174384593963623 0.0003234865143895149 -0.0017715217545628548 0 0 0 0
2866004828 0.0715392529964447 -0.3236267864704132 -6.205122917890549e-05 -0.0016529541462659836 0 0 0 0
2869726912 0.04676255211234093 -0.3203432559967041 -0.000311962328851223 -0.0014741402119398117 0 0 0 0
2873448996 0.0260055772960186 -0.3149082362651825 -0.0004903990775346756 -0.0014424584805965424 0 0 0 0
2877171080 0.0035046637058258057 -0.3065764904022217 -0.0006471341475844383 -0.0012499243021011353 0 0 0 0
2880893164 -0.020783349871635437 -0.295457124710083 -0.0008291006088256836 -0.0009679747745394707 0 0 0 0
2884615248 -0.04171972721815109 -0.2810840308666229 -0.0007849596440792084 -0.0007047057151794434 0 0 0 0
2888337332 -0.06004825234413147 -0.2648521661758423 -0.0008322997018694878 -0.0005068480968475342 0 0 0 0
2892059416 -0.07609960436820984 -0.2480131983757019 -0.0007461849600076675 -0.0002830410376191139 0 0 0 0
2895781500 -0.08952334523200989 -0.22773875296115875 -0.0006555933505296707 -0.00030685868114233017 0 0 0 0
2899503584 -0.10163742303848267 -0.20558878779411316 -0.0006318828091025352 -0.00016852840781211853 0 0 0 0
2903225668 -0.1134519875049591 -0.18181967735290527 -0.00048411544412374496 -2.9039569199085236e-05 0 0 0 0
2906947752 -0.11932361125946045 -0.15721116960048676 -0.0004716869443655014 1.601502299308777e-05 0 0 0 0
2910669836 -0.1228908896446228 -0.1314610093832016 -0.0002747373655438423 0.0002665827050805092 0 0 0 0
2914391920 -0.12272152304649353 -0.1035374253988266 -0.0002849968150258064 0.00040670018643140793 0 0 0 0
2918114004 -0.11764150857925415 -0.07713841646909714 -4.7869980335235596e-05 0.000696798786520958 0 0 0 0
2921836088 -0.1090807244181633 -0.052187494933605194 0.0003099655732512474 0.00051888357847929 0 0 0 0
2925558172 -0.09792862832546234 -0.028228770941495895 0.0005780234932899475 0.00036383792757987976 0 0 0 0
2929280256 -0.08416881412267685 -0.007814716547727585 0.0004927152767777443 0.00014683231711387634 0 0 0 0
2933002340 -0.06850462406873703 0.01238466426730156 0.00032461434602737427 0.00013944879174232483 0 0 0 0
2936724424 -0.05024920776486397 0.029789071530103683 0.0003160778433084488 0.00043223705142736435 0 0 0 0
2940446508 -0.030583703890442848 0.04454053193330765 0.00041019078344106674 0.0005871197208762169 0 0 0 0
2944168592 -0.008619938045740128 0.057640619575977325 0.0007415032014250755 0.0006891889497637749 0 0 0 0
2947890676 0.01450015977025032 0.06796551495790482 0.0008660154417157173 0.0007897624745965004 0 0 0 0
2951612760 0.03875095397233963 0.07581979781389236 0.0011150427162647247 0.000941774807870388 0 0 0 0
2955334844 0.06465763598680496 0.08016369491815567 0.00155593641102314 0.0008043311536312103 0 0 0 0
2959056928 0.09163986891508102 0.08075375854969025 0.0020298557355999947 0.0007265079766511917 0 0 0 0
2962779012 0.11787199974060059 0.07848768681287766 0.002529926598072052 0.0005405815318226814 0 0 0 0
2966501096 0.14522409439086914 0.06971436738967896 0.0028746994212269783 5.9839338064193726e-05 0 0 0 0
2970223180 0.16907086968421936 0.060957346111536026 0.0032005561515688896 -0.0006831837818026543 0 0 0 0
2973945264 0.19277161359786987 0.04596930742263794 0.0028344476595520973 -0.001298380084335804 0 0 0 0
2977667348 0.2135821133852005 0.02825910598039627 0.002717464230954647 -0.0018033720552921295 0 0 0 0
2981389432 0.2314293384552002 0.010618641972541809 0.0024602944031357765 -0.00228019617497921 0 0 0 0
2985111516 0.2462991178035736 -0.012368932366371155 0.001994970254600048 -0.0027274945750832558 0 0 0 0
2988833600 0.25746598839759827 -0.03583577275276184 0.0012976732105016708 -0.0028875917196273804 0 0 0 0
2992555684 0.2668207287788391 -0.056596577167510986 0.0007510082796216011 -0.0029770592227578163 0 0 0 0
2996277768 0.26970359683036804 -0.08385331183671951 0.00043524522334337234 -0.002767113968729973 0 0 0 0
2999999852 0.2711232006549835 -0.11095991730690002 -1.130811870098114e-05 -0.0025696074590086937 0 0 0 0
