# HZ S RI R 50
1500000000 -0.11297453939914703 -0.038086190819740295 0.03705703467130661 -0.03614259883761406 0 0 0 0
1503722084 -0.09756067395210266 -0.010528594255447388 0.029180463403463364 -0.042622484266757965 0 0 0 0
1507444168 -0.07603137195110321 0.015157276764512062 0.019309263676404953 -0.04720747470855713 0 0 0 0
1511166252 -0.04884542524814606 0.03739333152770996 0.009311018511652946 -0.04884710535407066 0 0 0 0
1514888336 -0.01698899269104004 0.05484859645366669 -0.0015178937464952469 -0.04769430309534073 0 0 0 0
1518610420 0.016789156943559647 0.06694753468036652 -0.009788782335817814 -0.0440836027264595 0 0 0 0
1522332504 0.054269738495349884 0.07445190846920013 -0.01667816750705242 -0.03898099064826965 0 0 0 0
1526054588 0.09429139643907547 0.07687975466251373 -0.021952835842967033 -0.03322181478142738 0 0 0 0
1529776672 0.1366865038871765 0.07170245051383972 -0.02544887736439705 -0.027343230322003365 0 0 0 0
1533498756 0.1798650324344635 0.05889993533492088 -0.027693813666701317 -0.02121099829673767 0 0 0 0
1537220840 0.22181588411331177 0.039225801825523376 -0.028492387384176254 -0.015564306639134884 0 0 0 0
1540942924 0.2612351179122925 0.011205010116100311 -0.028194677084684372 -0.010385759174823761 0 0 0 0
1544665008 0.2956411838531494 -0.024165932089090347 -0.02711492031812668 -0.006390209309756756 0 0 0 0
1548387092 0.3248048722743988 -0.06713882833719254 -0.02632175013422966 -0.0032104989513754845 0 0 0 0
1552109176 0.3472740352153778 -0.11277537792921066 -0.025539271533489227 0.0001297183334827423 0 0 0 0
1555831260 0.36242973804473877 -0.1628594845533371 -0.024268757551908493 0.003521585837006569 0 0 0 0
1559553344 0.36933815479278564 -0.21853142976760864 -0.022557690739631653 0.006444057449698448 0 0 0 0
1563275428 0.3669393062591553 -0.27386608719825745 -0.020701110363006592 0.009002087637782097 0 0 0 0
1566997512 0.3560466468334198 -0.3313779830932617 -0.018462764099240303 0.01130200270563364 0 0 0 0
1570719596 0.3357342481613159 -0.38704410195350647 -0.01580185815691948 0.013035740703344345 0 0 0 0
1574441680 0.30592161417007446 -0.4385327994823456 -0.013270772993564606 0.014012923464179039 0 0 0 0
1578163764 0.2692050337791443 -0.4838331937789917 -0.011229118332266808 0.014742495492100716 0 0 0 0
1581885848 0.22366540133953094 -0.5242993831634521 -0.009277773089706898 0.015187515877187252 0 0 0 0
1585607932 0.1667293906211853 -0.5569087862968445 -0.0070673562586307526 0.015690630301833153 0 0 0 0
1589330016 0.11148640513420105 -0.5825862884521484 -0.005202829837799072 0.015967892482876778 0 0 0 0
1593052100 0.05017341673374176 -0.5977051854133606 -0.0035062720999121666 0.016053995117545128 0 0 0 0
1596774184 -0.009164534509181976 -0.6066401600837708 -0.0018856478855013847 0.016468698158860207 0 0 0 0
1600496268 -0.07487908005714417 -0.6031883358955383 0.0003352556377649307 0.016749167814850807 0 0 0 0
1604218352 -0.13751943409442902 -0.5911465883255005 0.002634730190038681 0.016655683517456055 0 0 0 0
1607940436 -0.19995537400245667 -0.568732738494873 0.004938368685543537 0.016106288880109787 0 0 0 0
1611662520 -0.2575802505016327 -0.5384620428085327 0.007170087657868862 0.015057304874062538 0 0 0 0
1615384604 -0.312536358833313 -0.4997172951698303 0.009102771058678627 0.01401621662080288 0 0 0 0
1619106688 -0.36100804805755615 -0.4523915946483612 0.010854050517082214 0.01276316586881876 0 0 0 0
1622828772 -0.4033256471157074 -0.39559492468833923 0.012865451164543629 0.011497382074594498 0 0 0 0
1626550856 -0.436224102973938 -0.33652615547180176 0.015030947513878345 0.009784993715584278 0 0 0 0
1630272940 -0.46142643690109253 -0.26848679780960083 0.01691759191453457 0.007117069326341152 0 0 0 0
1633995024 -0.47816887497901917 -0.19594478607177734 0.018316932022571564 0.004183139652013779 0 0 0 0
1637717108 -0.4820971190929413 -0.126008540391922 0.019002048298716545 0.0007840348407626152 0 0 0 0
1641439192 -0.4770827293395996 -0.05055290460586548 0.019080065190792084 -0.002602207474410534 0 0 0 0
1645161276 -0.4587019681930542 0.027372077107429504 0.018531443551182747 -0.0060730380937457085 0 0 0 0
1648883360 -0.4285310208797455 0.09750333428382874 0.017440814524888992 -0.009645762853324413 0 0 0 0
1652605444 -0.3852901756763458 0.16641102731227875 0.015526628121733665 -0.01322254166007042 0 0 0 0
1656327528 -0.33529847860336304 0.22565630078315735 0.012422150000929832 -0.016502991318702698 0 0 0 0
1660049612 -0.27093085646629333 0.2799720764160156 0.008258599787950516 -0.01859048381447792 0 0 0 0
1663771696 -0.19986683130264282 0.3220837712287903 0.004009557887911797 -0.01939360424876213 0 0 0 0
1667493780 -0.12398441135883331 0.35187041759490967 -2.4151988327503204e-05 -0.019189966842532158 0 0 0 0
1671215864 -0.0430164635181427 0.37058767676353455 -0.003878447227180004 -0.01821364089846611 0 0 0 0
1674937948 0.040076494216918945 0.3764057159423828 -0.007349887862801552 -0.016452208161354065 0 0 0 0
1678660032 0.12450021505355835 0.36810067296028137 -0.010188044980168343 -0.014061533845961094 0 0 0 0
1682382116 0.20322313904762268 0.3489556908607483 -0.012148881331086159 -0.011186853051185608 0 0 0 0
1686104200 0.281812846660614 0.3134371042251587 -0.013565575703978539 -0.00793038122355938 0 0 0 0
1689826284 0.3494154214859009 0.27244487404823303 -0.013832928612828255 -0.004828758537769318 0 0 0 0
1693548368 0.4154454171657562 0.21069157123565674 -0.013709173537790775 -0.0018426794558763504 0 0 0 0
1697270452 0.4657385051250458 0.15145385265350342 -0.012816764414310455 0.0007452666759490967 0 0 0 0
1700992536 0.50836580991745 0.08106935769319534 -0.011545795015990734 0.0029396824538707733 0 0 0 0
1704714620 0.5383282899856567 0.005301415920257568 -0.00998535007238388 0.004372213967144489 0 0 0 0
1708436704 0.5551705360412598 -0.07733175158500671 -0.008503103628754616 0.005678975954651833 0 0 0 0
1712158788 0.560036301612854 -0.15766018629074097 -0.006868578493595123 0.0066458070650696754 0 0 0 0
1715880872 0.5531222224235535 -0.23808073997497559 -0.0050010886043310165 0.007347858510911465 0 0 0 0
1719602956 0.5288375616073608 -0.3165445923805237 -0.0029171211645007133 0.007301820442080498 0 0 0 0
1723325040 0.5000033378601074 -0.3865252733230591 -0.0013922210782766342 0.006683945655822754 0 0 0 0
1727047124 0.4615258574485779 -0.4486690163612366 -0.0004292028024792671 0.005609175190329552 0 0 0 0
1730769208 0.4078541696071625 -0.5078418850898743 7.914938032627106e-05 0.004865893162786961 0 0 0 0
1734491292 0.3463065028190613 -0.5580645203590393 0.00037270039319992065 0.004409991204738617 0 0 0 0
1738213376 0.2826545238494873 -0.5940034985542297 0.0007143011316657066 0.003844986669719219 0 0 0 0
1741935460 0.21335354447364807 -0.621669590473175 0.0007906993851065636 0.003428598865866661 0 0 0 0
1745657544 0.14286959171295166 -0.6371334791183472 0.0006089778617024422 0.0029117753729224205 0 0 0 0
1749379628 0.07324013113975525 -0.6401292085647583 0.0006543640047311783 0.0030136723071336746 0 0 0 0
1753101712 0.003837376832962036 -0.6319111585617065 0.0006724502891302109 0.0032655401155352592 0 0 0 0
1756823796 -0.06433682143688202 -0.614771842956543 0.0011523431167006493 0.0036084139719605446 0 0 0 0
1760545880 -0.12188854813575745 -0.5883550643920898 0.0019259564578533173 0.0036393720656633377 0 0 0 0
1764267964 -0.1776995062828064 -0.553483784198761 0.0028801849111914635 0.0030566751956939697 0 0 0 0
1767990048 -0.22603729367256165 -0.510028600692749 0.0037041325122117996 0.002134529873728752 0 0 0 0
1771712132 -0.26701620221138 -0.465329647064209 0.0037896865978837013 0.0005267662927508354 0 0 0 0
1775434216 -0.3006841540336609 -0.41219812631607056 0.0031834114342927933 -0.0005370713770389557 0 0 0 0
1779156300 -0.32457345724105835 -0.35890185832977295 0.0020439065992832184 -0.0013022655621170998 0 0 0 0
1782878384 -0.34272506833076477 -0.30102017521858215 0.0008906582370400429 -0.001479349099099636 0 0 0 0
1786600468 -0.3519234359264374 -0.24366220831871033 -0.00021471641957759857 -0.0012027984485030174 0 0 0 0
1790322552 -0.3516080975532532 -0.1874743402004242 -0.0011725332587957382 -0.00045000016689300537 0 0 0 0
1794044636 -0.3436073064804077 -0.13109974563121796 -0.0016900068148970604 0.0003962842747569084 0 0 0 0
1797766720 -0.3288896381855011 -0.07638569176197052 -0.00211434718221426 0.0015128301456570625 0 0 0 0
1801488804 -0.3060947060585022 -0.025204353034496307 -0.0021681450307369232 0.00320436991751194 0 0 0 0
1805210888 -0.27775144577026367 0.021157726645469666 -0.001207185909152031 0.0050602322444319725 0 0 0 0
1808932972 -0.24228818714618683 0.06299711018800735 0.0005562743172049522 0.00643906369805336 0 0 0 0
1812655056 -0.19834643602371216 0.10119777172803879 0.0028772391378879547 0.007077204994857311 0 0 0 0
1816377140 -0.1514359712600708 0.12929102778434753 0.005648420192301273 0.007337301038205624 0 0 0 0
1820099224 -0.09964849054813385 0.14989466965198517 0.009067749604582787 0.006284643895924091 0 0 0 0
1823821308 -0.045337576419115067 0.16174907982349396 0.011805742047727108 0.0031911227852106094 0 0 0 0
1827543392 0.008354857563972473 0.16382935643196106 0.013061098754405975 -0.0006371485069394112 0 0 0 0
1831265476 0.06016339734196663 0.1566636711359024 0.012794699519872665 -0.0041196709498763084 0 0 0 0
1834987560 0.109135203063488 0.14187650382518768 0.01176621112972498 -0.007653103210031986 0 0 0 0
1838709644 0.15290717780590057 0.11980466544628143 0.009385589510202408 -0.01072416640818119 0 0 0 0
1842431728 0.19164878129959106 0.09335900843143463 0.0063194651156663895 -0.012357234954833984 0 0 0 0
1846153812 0.2251477986574173 0.06193115562200546 0.003593267872929573 -0.01269308291375637 0 0 0 0
1849875896 0.2518991529941559 0.02648032456636429 0.002042503096163273 -0.01246939692646265 0 0 0 0
1853597980 0.2734587788581848 -0.011481598019599915 0.000853411853313446 -0.012651382014155388 0 0 0 0
1857320064 0.2889339327812195 -0.05118098482489586 -0.0005113603547215462 -0.013482647016644478 0 0 0 0
1861042148 0.29779303073883057 -0.09325836598873138 -0.002405378967523575 -0.01445004716515541 0 0 0 0
1864764232 0.30001384019851685 -0.13156758248806 -0.005216874182224274 -0.014979147352278233 0 0 0 0
1868486316 0.2932237684726715 -0.17448055744171143 -0.008639444597065449 -0.014391490258276463 0 0 0 0
1872208400 0.2827172577381134 -0.21186301112174988 -0.011550086550414562 -0.012602970004081726 0 0 0 0
1875930484 0.2724193334579468 -0.24496451020240784 -0.006190046668052673 -0.011532356962561607 0 0 0 0
1879652568 0.25010767579078674 -0.2773577570915222 -0.007142770104110241 -0.010935596190392971 0 0 0 0
1883374652 0.22016136348247528 -0.30786004662513733 -0.008690455928444862 -0.011073014698922634 0 0 0 0
1887096736 0.1900874674320221 -0.32906538248062134 -0.011673960834741592 -0.011041550897061825 0 0 0 0
1890818820 0.15305867791175842 -0.3460056781768799 -0.01573384366929531 -0.009426061064004898 0 0 0 0
1894540904 0.11763006448745728 -0.35299861431121826 -0.019486665725708008 -0.0056854188442230225 0 0 0 0
1898262988 0.0830657109618187 -0.35336869955062866 -0.021465083584189415 -0.0002097785472869873 0 0 0 0
1901985072 0.050935834646224976 -0.34755873680114746 -0.02108629234135151 0.005414958111941814 0 0 0 0
1905707156 0.01953686773777008 -0.33604010939598083 -0.019207898527383804 0.010261639021337032 0 0 0 0
1909429240 -0.0074857622385025024 -0.32247868180274963 -0.016777532175183296 0.014528045430779457 0 0 0 0
1913151324 -0.033936455845832825 -0.30435192584991455 -0.013262652792036533 0.018603980541229248 0 0 0 0
1916873408 -0.05407879129052162 -0.28249892592430115 -0.00839322805404663 0.021648580208420753 0 0 0 0
1920595492 -0.07236243784427643 -0.25640395283699036 -0.0028899433091282845 0.023116234689950943 0 0 0 0
1924317576 -0.081721730530262 -0.22901849448680878 0.002566339448094368 0.023063143715262413 0 0 0 0
1928039660 -0.08731594681739807 -0.20030581951141357 0.00757296197116375 0.021588269621133804 0 0 0 0
1931761744 -0.08819490671157837 -0.17200082540512085 0.01220408733934164 0.0187202300876379 0 0 0 0
1935483828 -0.08331693708896637 -0.14571790397167206 0.015092669986188412 0.014751791954040527 0 0 0 0
1939205912 -0.0769369900226593 -0.11943142116069794 0.016354098916053772 0.010952566750347614 0 0 0 0
1942927996 -0.06439101696014404 -0.0964864119887352 0.016666315495967865 0.008385572582483292 0 0 0 0
1946650080 -0.04986113682389259 -0.07400421053171158 0.01748250238597393 0.006385062821209431 0 0 0 0
1950372164 -0.030756711959838867 -0.054274074733257294 0.018927738070487976 0.004381596110761166 0 0 0 0
1954094248 -0.008243191987276077 -0.038178302347660065 0.0203201025724411 0.0013182219117879868 0 0 0 0
1957816332 0.01663852296769619 -0.026057036593556404 0.0211641825735569 -0.002374633215367794 0 0 0 0
1961538416 0.04402543231844902 -0.018353333696722984 0.02075067348778248 -0.006870070472359657 0 0 0 0
1965260500 0.07310356199741364 -0.01540558785200119 0.019457556307315826 -0.010164733044803143 0 0 0 0
1968982584 0.10302551835775375 -0.020580513402819633 0.017604412510991096 -0.01336199976503849 0 0 0 0
1972704668 0.13122643530368805 -0.029408594593405724 0.01596580259501934 -0.017012441530823708 0 0 0 0
1976426752 0.1562129557132721 -0.04343345761299133 0.013062642887234688 -0.020620405673980713 0 0 0 0
1980148836 0.17698097229003906 -0.06572785973548889 0.00829402543604374 -0.02348938398063183 0 0 0 0
1983870920 0.19341029226779938 -0.08832739293575287 0.0031532105058431625 -0.025036446750164032 0 0 0 0
1987593004 0.20451679825782776 -0.11315938830375671 -0.002195301465690136 -0.025267496705055237 0 0 0 0
1991315088 0.2117828130722046 -0.13988369703292847 -0.007255297154188156 -0.02424459718167782 0 0 0 0
1995037172 0.21369041502475739 -0.16725558042526245 -0.0121189896017313 -0.021478576585650444 0 0 0 0
1998759256 0.2109028846025467 -0.19345644116401672 -0.01560430508106947 -0.018196219578385353 0 0 0 0
2002481340 0.20320181548595428 -0.21917593479156494 -0.01764237880706787 -0.014575179666280746 0 0 0 0
2006203424 0.19326907396316528 -0.24187970161437988 -0.019231310114264488 -0.011732610873878002 0 0 0 0
2009925508 0.17679686844348907 -0.2649248242378235 -0.021203190088272095 -0.008846025913953781 0 0 0 0
2013647592 0.16088731586933136 -0.283413290977478 -0.02282145246863365 -0.005439494736492634 0 0 0 0
2017369676 0.138202965259552 -0.29995813965797424 -0.023888254538178444 -0.0018182825297117233 0 0 0 0
2021091760 0.10887417942285538 -0.3142664134502411 -0.024630174040794373 0.002723589539527893 0 0 0 0
2024813844 0.08210194110870361 -0.3201066255569458 -0.023959077894687653 0.00757993757724762 0 0 0 0
2028535928 0.054499343037605286 -0.3200085461139679 -0.022109244018793106 0.012405149638652802 0 0 0 0
2032258012 0.02460712194442749 -0.31823572516441345 -0.01943797990679741 0.016321929171681404 0 0 0 0
2035980096 -0.0016605965793132782 -0.3093709945678711 -0.0157760139554739 0.01934696175158024 0 0 0 0
2039702180 -0.029433883726596832 -0.2969723343849182 -0.011715054512023926 0.02137146145105362 0 0 0 0
2043424264 -0.05217929929494858 -0.27902692556381226 -0.007955658249557018 0.022479156032204628 0 0 0 0
2047146348 -0.07173597812652588 -0.25944018363952637 -0.004488496109843254 0.023353012278676033 0 0 0 0
2050868432 -0.0894789844751358 -0.236759215593338 -0.0006877435371279716 0.023646079003810883 0 0 0 0
2054590516 -0.10394622385501862 -0.2105238437652588 0.0027155596762895584 0.02331029810011387 0 0 0 0
2058312600 -0.11643420159816742 -0.1814763844013214 0.006641080603003502 0.023104701191186905 0 0 0 0
2062034684 -0.12057898938655853 -0.15161320567131042 0.010839400812983513 0.02173680067062378 0 0 0 0
2065756768 -0.12384799122810364 -0.11901772767305374 0.014859954826533794 0.019326888024806976 0 0 0 0
2069478852 -0.1203487366437912 -0.08536256849765778 0.017742762342095375 0.016010697931051254 0 0 0 0
2073200936 -0.11248420178890228 -0.05144785717129707 0.01991143263876438 0.012273520231246948 0 0 0 0
2076923020 -0.09644097089767456 -0.01763157546520233 0.021310731768608093 0.008109530434012413 0 0 0 0
2080645104 -0.0750306025147438 0.01278027892112732 0.021629121154546738 0.004193433560431004 0 0 0 0
2084367188 -0.04785226285457611 0.03947555273771286 0.02103601023554802 0.0009739426895976067 0 0 0 0
2088089272 -0.016047649085521698 0.0617079883813858 0.02042054757475853 -0.0016827909275889397 0 0 0 0
2091811356 0.020482350140810013 0.0782790258526802 0.020542677491903305 -0.004092641174793243 0 0 0 0
2095533440 0.05822846293449402 0.08750876784324646 0.020182834938168526 -0.007339484989643097 0 0 0 0
2099255524 0.0976472795009613 0.09045024961233139 0.019464779645204544 -0.010964853689074516 0 0 0 0
2102977608 0.1381324827671051 0.08638568222522736 0.017841946333646774 -0.01509167905896902 0 0 0 0
2106699692 0.17716403305530548 0.07490935176610947 0.014283696189522743 -0.018864937126636505 0 0 0 0
2110421776 0.21343418955802917 0.05675015226006508 0.009828373789787292 -0.021291466429829597 0 0 0 0
2114143860 0.24644137918949127 0.03130652382969856 0.005650512874126434 -0.022035928443074226 0 0 0 0
2117865944 0.2721082270145416 0.001083657145500183 0.0018598539754748344 -0.02255905792117119 0 0 0 0
2121588028 0.2922194302082062 -0.030559809878468513 -0.002191152423620224 -0.023164207115769386 0 0 0 0
2125310112 0.30613937973976135 -0.06618864834308624 -0.007086466066539288 -0.022855356335639954 0 0 0 0
2129032196 0.31231075525283813 -0.10405653715133667 -0.012302238494157791 -0.021012520417571068 0 0 0 0
2132754280 0.31535279750823975 -0.13571497797966003 -0.01675374247133732 -0.017183024436235428 0 0 0 0
2136476364 0.3123486042022705 -0.17059428989887238 -0.01910519227385521 -0.01202594954520464 0 0 0 0
2140198448 0.3047749996185303 -0.20357617735862732 -0.019513942301273346 -0.007099841721355915 0 0 0 0
2143920532 0.29214245080947876 -0.23547548055648804 -0.0187749732285738 -0.0034983986988663673 0 0 0 0
2147642616 0.2734792232513428 -0.26388341188430786 -0.0179908350110054 -0.0007083965465426445 0 0 0 0
2151364700 0.25063979625701904 -0.29013916850090027 -0.01703031174838543 0.0019223261624574661 0 0 0 0
2155086784 0.22524961829185486 -0.30871713161468506 -0.015833323821425438 0.00417732447385788 0 0 0 0
2158808868 0.19624000787734985 -0.32585033774375916 -0.014436287805438042 0.006124483421444893 0 0 0 0
2162530952 0.16758814454078674 -0.3361791968345642 -0.012983034364879131 0.007554603740572929 0 0 0 0
2166253036 0.13779209554195404 -0.34169697761535645 -0.011611709371209145 0.009026761166751385 0 0 0 0
2169975120 0.10841921716928482 -0.34291723370552063 -0.010015231557190418 0.01047591120004654 0 0 0 0
2173697204 0.08050275593996048 -0.34066733717918396 -0.008015654981136322 0.011499624699354172 0 0 0 0
2177419288 0.05181829631328583 -0.3348790407180786 -0.005766243673861027 0.011806605383753777 0 0 0 0
2181141372 0.02660416066646576 -0.3252607583999634 -0.004235639236867428 0.011680088005959988 0 0 0 0
2184863456 -0.001431390643119812 -0.31290143728256226 -0.0026845429092645645 0.011888912878930569 0 0 0 0
2188585540 -0.025812163949012756 -0.29516467452049255 -0.0009692618623375893 0.01243012584745884 0 0 0 0
2192307624 -0.047705695033073425 -0.2718055248260498 0.0010148612782359123 0.01271362230181694 0 0 0 0
2196029708 -0.06489872932434082 -0.2460445612668991 0.003789941780269146 0.012513736262917519 0 0 0 0
2199751792 -0.07666824758052826 -0.21537554264068604 0.006388395093381405 0.01116451807320118 0 0 0 0
2203473876 -0.08624085038900375 -0.1832953691482544 0.008721929974853992 0.009213808923959732 0 0 0 0
2207195960 -0.08591992408037186 -0.1532040536403656 0.010052809491753578 0.006674771197140217 0 0 0 0
2210918044 -0.08054275810718536 -0.12399640679359436 0.010451183654367924 0.003949413076043129 0 0 0 0
2214640128 -0.07268347591161728 -0.0949382558465004 0.01014053262770176 0.0015995698049664497 0 0 0 0
2218362212 -0.06096574664115906 -0.0682331770658493 0.009644484147429466 -0.00016984716057777405 0 0 0 0
2222084296 -0.044346027076244354 -0.04314860329031944 0.009269917383790016 -0.0013429401442408562 0 0 0 0
2225806380 -0.024499230086803436 -0.020351722836494446 0.009066746570169926 -0.002913103438913822 0 0 0 0
2229528464 -2.2695399820804596e-05 -0.002013235352933407 0.008736333809792995 -0.005105013959109783 0 0 0 0
2233250548 0.028168050572276115 0.012218546122312546 0.00744000356644392 -0.007528818212449551 0 0 0 0
2236972632 0.058542098850011826 0.020640864968299866 0.005361104384064674 -0.009291584603488445 0 0 0 0
2240694716 0.09004372358322144 0.024105384945869446 0.002495686523616314 -0.010064227506518364 0 0 0 0
2244416800 0.12241630256175995 0.020554829388856888 0.0001569800078868866 -0.00998934730887413 0 0 0 0
2248138884 0.15258190035820007 0.00906466692686081 -0.001742820255458355 -0.009490217082202435 0 0 0 0
2251860968 0.17372889816761017 -0.007254809141159058 -0.004043098539113998 -0.009054096415638924 0 0 0 0
2255583052 0.1954687535762787 -0.02359481155872345 -0.005169736221432686 -0.0077302465215325356 0 0 0 0
2259305136 0.21249079704284668 -0.047128308564424515 -0.005997094325721264 -0.006445702165365219 0 0 0 0
2263027220 0.22679466009140015 -0.06698910146951675 -0.006893044337630272 -0.0051048556342720985 0 0 0 0
2266749304 0.2348199337720871 -0.0934785008430481 -0.007158096879720688 -0.0036075618118047714 0 0 0 0
2270471388 0.23861917853355408 -0.11987535655498505 -0.0070293014869093895 -0.0022355420514941216 0 0 0 0
2274193472 0.23940151929855347 -0.1434764564037323 -0.006350284442305565 -0.001353750005364418 0 0 0 0
2277915556 0.23344770073890686 -0.17104899883270264 -0.005856525152921677 -0.0006906948983669281 0 0 0 0
2281637640 0.22492758929729462 -0.19419856369495392 -0.005217708647251129 -0.0004033166915178299 0 0 0 0
2285359724 0.21318122744560242 -0.2131129801273346 -0.00474002119153738 -0.0002776244655251503 0 0 0 0
2289081808 0.19425424933433533 -0.23127979040145874 -0.0047408416867256165 -0.0006063701584935188 0 0 0 0
2292803892 0.17472457885742188 -0.2466205507516861 -0.005246561020612717 -0.0005543818697333336 0 0 0 0
2296525976 0.15397539734840393 -0.2550726532936096 -0.005960934795439243 -0.0002145981416106224 0 0 0 0
2300248060 0.1273195594549179 -0.2633834183216095 -0.006905055604875088 0.0006245756521821022 0 0 0 0
2303970144 0.11049215495586395 -0.2663283944129944 -0.0070373741909861565 0.0021585626527667046 0 0 0 0
2307692228 0.08540917932987213 -0.2642197608947754 -0.006521455943584442 0.003436989150941372 0 0 0 0
2311414312 0.06519974768161774 -0.2606915831565857 -0.005247035995125771 0.004424962215125561 0 0 0 0
2315136396 0.04405759274959564 -0.25302842259407043 -0.0037920279428362846 0.00487687811255455 0 0 0 0
2318858480 0.026234552264213562 -0.2413037121295929 -0.0027154162526130676 0.004631658084690571 0 0 0 0
2322580564 0.005275610834360123 -0.22584852576255798 -0.002060549333691597 0.004068903625011444 0 0 0 0
2326302648 -0.01183716207742691 -0.20718196034431458 -0.0019893627613782883 0.003628223203122616 0 0 0 0
2330024732 -0.020831510424613953 -0.1844719499349594 -0.0020803017541766167 0.0035984599962830544 0 0 0 0
2333746816 -0.033793479204177856 -0.15947246551513672 -0.002027815207839012 0.0036347443237900734 0 0 0 0
2337468900 -0.03579026833176613 -0.1352880895137787 -0.001850905828177929 0.003544827923178673 0 0 0 0
2341190984 -0.035922370851039886 -0.10822545737028122 -0.001863068901002407 0.0033602239564061165 0 0 0 0
2344913068 -0.029845278710126877 -0.08142292499542236 -0.002239612862467766 0.0035529015585780144 0 0 0 0
2348635152 -0.017541907727718353 -0.057002078741788864 -0.0022557079792022705 0.004199395887553692 0 0 0 0
2352357236 -0.0037333043292164803 -0.03527349233627319 -0.0018415236845612526 0.00464588962495327 0 0 0 0
2356079320 0.014468098059296608 -0.016168413683772087 -0.0011319462209939957 0.004992468282580376 0 0 0 0
2359801404 0.03546500205993652 0.0004293471574783325 -0.0005295900627970695 0.005132640711963177 0 0 0 0
2363523488 0.0586494542658329 0.013475966639816761 -0.00032919179648160934 0.005034246481955051 0 0 0 0
2367245572 0.08485409617424011 0.0228426456451416 5.9242360293865204e-05 0.005114748142659664 0 0 0 0
2370967656 0.11427558213472366 0.026672638952732086 0.0002638204023241997 0.005013040266931057 0 0 0 0
2374689740 0.1428314745426178 0.024269212037324905 0.000890764407813549 0.005016664043068886 0 0 0 0
2378411824 0.16995340585708618 0.01697511039674282 0.0011725099757313728 0.004875733517110348 0 0 0 0
2382133908 0.19538937509059906 0.005908843129873276 0.0013807592913508415 0.004873145371675491 0 0 0 0
2385855992 0.21986939013004303 -0.009099707007408142 0.001703314483165741 0.004818824119865894 0 0 0 0
2389578076 0.2402774542570114 -0.026395149528980255 0.0019991016015410423 0.005186018534004688 0 0 0 0
2393300160 0.25665411353111267 -0.05011426657438278 0.0023655034601688385 0.005595550872385502 0 0 0 0
2397022244 0.26843148469924927 -0.07173586636781693 0.0033710170537233353 0.006374507211148739 0 0 0 0
2400744328 0.27769386768341064 -0.09894709289073944 0.0050153061747550964 0.00657961331307888 0 0 0 0
2404466412 0.2837202847003937 -0.12089646607637405 0.00693487748503685 0.005793849006295204 0 0 0 0
2408188496 0.2854500412940979 -0.14948782324790955 0.008121068589389324 0.004621162079274654 0 0 0 0
2411910580 0.28578445315361023 -0.17219236493110657 0.009020507335662842 0.0031870249658823013 0 0 0 0
2415632664 0.27892303466796875 -0.2009231150150299 0.009697120636701584 0.001595756970345974 0 0 0 0
2419354748 0.2674107849597931 -0.227809876203537 0.01035733800381422 -0.00015390384942293167 0 0 0 0
2423076832 0.25328218936920166 -0.25151345133781433 0.008595597930252552 -0.002832849510014057 0 0 0 0
2426798916 0.23672348260879517 -0.2710297107696533 0.010389121249318123 -0.004857354797422886 0 0 0 0
2430521000 0.21197201311588287 -0.2893892526626587 0.008827757090330124 -0.006931250914931297 0 0 0 0
2434243084 0.18647313117980957 -0.30572760105133057 0.006583690643310547 -0.00833768118172884 0 0 0 0
2437965168 0.16593146324157715 -0.3137851059436798 0.005099009722471237 -0.009022139012813568 0 0 0 0
2441687252 0.13817107677459717 -0.3222026228904724 0.003673016093671322 -0.009720755741000175 0 0 0 0
2445409336 0.10938075184822083 -0.3272761404514313 0.0022548818960785866 -0.010067319497466087 0 0 0 0
2449131420 0.0812487006187439 -0.32458609342575073 0.0009177271276712418 -0.010565382428467274 0 0 0 0
2452853504 0.05435187369585037 -0.31955161690711975 -0.00038367602974176407 -0.01078842207789421 0 0 0 0
2456575588 0.025571152567863464 -0.309090256690979 -0.0018818732351064682 -0.011159786954522133 0 0 0 0
2460297672 0.0026655402034521103 -0.29444620013237 -0.003622138872742653 -0.01134840864688158 0 0 0 0
2464019756 -0.019053632393479347 -0.27745670080184937 -0.005463484674692154 -0.01147529948502779 0 0 0 0
2467741840 -0.04079069197177887 -0.2570928633213043 -0.007487501949071884 -0.010731130838394165 0 0 0 0
2471463924 -0.056106239557266235 -0.2337534874677658 -0.009484815411269665 -0.009964252822101116 0 0 0 0
2475186008 -0.06963121145963669 -0.20786505937576294 -0.011588184162974358 -0.008587224408984184 0 0 0 0
2478908092 -0.075701043009758 -0.1818775087594986 -0.013376891613006592 -0.006958811543881893 0 0 0 0
2482630176 -0.08123856037855148 -0.15402214229106903 -0.014749950729310513 -0.004740837030112743 0 0 0 0
2486352260 -0.08164074271917343 -0.1264285296201706 -0.01605832204222679 -0.0023928480222821236 0 0 0 0
2490074344 -0.07785254716873169 -0.09739011526107788 -0.016772469505667686 0.0005293311551213264 0 0 0 0
2493796428 -0.06984534859657288 -0.06815771758556366 -0.016336824744939804 0.004353445954620838 0 0 0 0
2497518512 -0.056858181953430176 -0.0419633612036705 -0.015470481477677822 0.0073510343208909035 0 0 0 0
2501240596 -0.04061834514141083 -0.018790114670991898 -0.01388625055551529 0.010038718581199646 0 0 0 0
2504962680 -0.020379461348056793 0.0013361899182200432 -0.011994036845862865 0.012092692777514458 0 0 0 0
2508684764 0.0023081405088305473 0.01835065335035324 -0.009965203702449799 0.013976744376122952 0 0 0 0
2512406848 0.025574367493391037 0.030766354873776436 -0.007869389839470387 0.015739191323518753 0 0 0 0
2516128932 0.052301593124866486 0.03985051065683365 -0.004584101028740406 0.017155518755316734 0 0 0 0
2519851016 0.08013363927602768 0.04607632756233215 -0.0006139790639281273 0.017611781135201454 0 0 0 0
2523573100 0.10707075148820877 0.0456547886133194 0.0030346233397722244 0.01682629995048046 0 0 0 0
2527295184 0.13486406207084656 0.04018688201904297 0.006185207515954971 0.015538729727268219 0 0 0 0
2531017268 0.16048823297023773 0.03284842520952225 0.008901465684175491 0.013448087498545647 0 0 0 0
2534739352 0.18336039781570435 0.020257920026779175 0.010886009782552719 0.010761099867522717 0 0 0 0
2538461436 0.20417997241020203 0.007125295698642731 0.012103918008506298 0.007969612255692482 0 0 0 0
2542183520 0.2209922820329666 -0.012138165533542633 0.013105292804539204 0.0051423534750938416 0 0 0 0
2545905604 0.23615843057632446 -0.030357472598552704 0.01333099789917469 0.0025058500468730927 0 0 0 0
2549627688 0.2475324422121048 -0.053292129188776016 0.013255308382213116 -0.00036209356039762497 0 0 0 0
2553349772 0.2565825879573822 -0.07217522710561752 0.012388121336698532 -0.002880232408642769 0 0 0 0
2557071856 0.26101773977279663 -0.09527035057544708 0.010765794664621353 -0.005037694238126278 0 0 0 0
2560793940 0.2616378962993622 -0.11827456951141357 0.008629965595901012 -0.006525188684463501 0 0 0 0
2564516024 0.25966954231262207 -0.14156503975391388 0.006922837346792221 -0.007087492384016514 0 0 0 0
2568238108 0.2529524266719818 -0.16152895987033844 0.005474727600812912 -0.007210058160126209 0 0 0 0
2571960192 0.24573580920696259 -0.1789635866880417 0.004384283907711506 -0.0072113629430532455 0 0 0 0
2575682276 0.23625214397907257 -0.19625034928321838 0.003511921502649784 -0.007178029045462608 0 0 0 0
2579404360 0.22598797082901 -0.2101510465145111 0.0027950936928391457 -0.007674265652894974 0 0 0 0
2583126444 0.2109730839729309 -0.22481870651245117 0.0018396256491541862 -0.00809708796441555 0 0 0 0
2586848528 0.19592292606830597 -0.23723368346691132 0.0005182158201932907 -0.00845749769359827 0 0 0 0
2590570612 0.18100765347480774 -0.24541692435741425 -0.0010253721848130226 -0.00848609022796154 0 0 0 0
2594292696 0.1644270420074463 -0.25199878215789795 -0.0022912360727787018 -0.007970832288265228 0 0 0 0
2598014780 0.1465938836336136 -0.2589201033115387 -0.003752000629901886 -0.007315035909414291 0 0 0 0
2601736864 0.13082298636436462 -0.2598232328891754 -0.004865927621722221 -0.00632628146559 0 0 0 0
2605458948 0.11103728413581848 -0.2608531415462494 -0.005369695834815502 -0.005049646832048893 0 0 0 0
2609181032 0.09243832528591156 -0.2578711211681366 -0.0055605825036764145 -0.003956827335059643 0 0 0 0
2612903116 0.07307768613100052 -0.25167837738990784 -0.005471870303153992 -0.0031666792929172516 0 0 0 0
2616625200 0.05777697265148163 -0.24262675642967224 -0.005478755570948124 -0.002398096024990082 0 0 0 0
2620347284 0.04323301464319229 -0.23054629564285278 -0.005516421049833298 -0.0018405644223093987 0 0 0 0
2624069368 0.0300137996673584 -0.21779954433441162 -0.005664716474711895 -0.0012039253488183022 0 0 0 0
2627791452 0.02020346373319626 -0.20308193564414978 -0.005573171190917492 -0.0008796891197562218 0 0 0 0
2631513536 0.014280103147029877 -0.1868252158164978 -0.005591852590441704 -0.0005795974284410477 0 0 0 0
2635235620 0.010312061756849289 -0.16912353038787842 -0.005711410194635391 -4.0475279092788696e-05 0 0 0 0
2638957704 0.011323675513267517 -0.15080079436302185 -0.005845621228218079 0.0006587579846382141 0 0 0 0
2642679788 0.014154949225485325 -0.13574273884296417 -0.005868107080459595 0.0016421014443039894 0 0 0 0
2646401872 0.020772665739059448 -0.12042378634214401 -0.005365533754229546 0.0025619957596063614 0 0 0 0
2650123956 0.028684034943580627 -0.10756662487983704 -0.004640218801796436 0.0034416988492012024 0 0 0 0
2653846040 0.03941582143306732 -0.09608244895935059 -0.0036357631906867027 0.004138176329433918 0 0 0 0
2657568124 0.051321517676115036 -0.08747026324272156 -0.002580573782324791 0.004148952662944794 0 0 0 0
2661290208 0.06537670642137527 -0.0818166434764862 -0.0018902057781815529 0.0040365783497691154 0 0 0 0
2665012292 0.08116654306650162 -0.07890783995389938 -0.0013137999922037125 0.0038886936381459236 0 0 0 0
2668734376 0.09419188648462296 -0.08076684921979904 -0.0007103020325303078 0.003771260380744934 0 0 0 0
2672456460 0.1095663532614708 -0.0829453393816948 -0.00024461839348077774 0.003613654524087906 0 0 0 0
2676178544 0.1224084421992302 -0.09153740108013153 0.00020193587988615036 0.003536858595907688 0 0 0 0
2679900628 0.13158150017261505 -0.1023971438407898 0.0007936619222164154 0.0033441493287682533 0 0 0 0
2683622712 0.13965462148189545 -0.11349555850028992 0.0014243051409721375 0.003220530226826668 0 0 0 0
2687344796 0.14281955361366272 -0.12652617692947388 0.0020569488406181335 0.002588958479464054 0 0 0 0
2691066880 0.14364512264728546 -0.14022648334503174 0.0022370293736457825 0.0016564922407269478 0 0 0 0
2694788964 0.14275994896888733 -0.15244868397712708 0.002043825574219227 0.0010497421026229858 0 0 0 0
2698511048 0.13738763332366943 -0.1645112931728363 0.0021102149039506912 0.0006728032603859901 0 0 0 0
2702233132 0.1308206021785736 -0.17589449882507324 0.00199204683303833 0.00026002805680036545 0 0 0 0
2705955216 0.12098092585802078 -0.18553869426250458 0.0018520168960094452 -0.00024503376334905624 0 0 0 0
2709677300 0.11008775979280472 -0.19492745399475098 0.0014785388484597206 -0.000454610213637352 0 0 0 0
2713399384 0.09792488813400269 -0.20039920508861542 0.001165805384516716 -0.0005847355350852013 0 0 0 0
2717121468 0.08218300342559814 -0.20311811566352844 0.0009707082062959671 -0.00050339475274086 0 0 0 0
2720843552 0.06807857006788254 -0.2040793001651764 0.0010385625064373016 -0.0005294391885399818 0 0 0 0
2724565636 0.05270959436893463 -0.20111657679080963 0.0010119834914803505 -0.0006396882236003876 0 0 0 0
2728287720 0.03609493374824524 -0.19543756544589996 0.0008641593158245087 -0.000891316682100296 0 0 0 0
2732009804 0.02180665358901024 -0.18577364087104797 0.0006525851786136627 -0.00087765883654356 0 0 0 0
2735731888 0.010747909545898438 -0.17347966134548187 0.00041431840509176254 -0.0007540034130215645 0 0 0 0
2739453972 0.0005271285772323608 -0.16119131445884705 0.000603996217250824 -0.0005575995892286301 0 0 0 0
2743176056 -0.009542807005345821 -0.14410865306854248 0.000846371054649353 -0.00036116503179073334 0 0 0 0
2746898140 -0.014108959585428238 -0.12600500881671906 0.001452515833079815 -0.0005571981891989708 0 0 0 0
2750620224 -0.016367807984352112 -0.10612239688634872 0.00197785347700119 -0.0012523718178272247 0 0 0 0
2754342308 -0.014391923323273659 -0.08693735301494598 0.0017235707491636276 -0.002247435972094536 0 0 0 0
2758064392 -0.008494216948747635 -0.06791941076517105 0.0012689223513007164 -0.0032021617516875267 0 0 0 0
2761786476 0.0004166392609477043 -0.05092514678835869 0.00014752335846424103 -0.003699132241308689 0 0 0 0
2765508560 0.011379553005099297 -0.03484458476305008 -0.0009919842705130577 -0.0035704243928194046 0 0 0 0
2769230644 0.02457263134419918 -0.020288649946451187 -0.0019374089315533638 -0.002862430177628994 0 0 0 0
2772952728 0.041011132299900055 -0.006882848218083382 -0.0024187806993722916 -0.0021275393664836884 0 0 0 0
2776674812 0.05969328433275223 0.003465387038886547 -0.0025116754695773125 -0.0011372752487659454 0 0 0 0
2780396896 0.08103299885988235 0.010665545240044594 -0.0022705476731061935 -0.0004452057182788849 0 0 0 0
2784118980 0.10284171998500824 0.013559982180595398 -0.0017273472622036934 3.920402377843857e-05 0 0 0 0
2787841064 0.1253393292427063 0.013165129348635674 -0.0010921722277998924 0.0002866024151444435 0 0 0 0
2791563148 0.1470699906349182 0.009157352149486542 -0.0005182819440960884 9.953230619430542e-05 0 0 0 0
2795285232 0.16899365186691284 0.0031403303146362305 -0.00021675508469343185 -0.00029771216213703156 0 0 0 0
2799007316 0.1905897557735443 -0.007714945822954178 -0.0002343030646443367 -0.0007890146225690842 0 0 0 0
2802729400 0.20966015756130219 -0.024364612996578217 -0.0005013821646571159 -0.0011814767494797707 0 0 0 0
2806451484 0.22621221840381622 -0.04265211895108223 -0.0009803837165236473 -0.00135065708309412 0 0 0 0
2810173568 0.2395378053188324 -0.06157692149281502 -0.0016080019995570183 -0.001076219603419304 0 0 0 0
2813895652 0.2517818808555603 -0.08239282667636871 -0.0017666192725300789 -0.0005915937945246696 0 0 0 0
2817617736 0.2582922875881195 -0.1074054166674614 -0.0018649902194738388 -2.0324252545833588e-05 0 0 0 0
2821339820 0.261979341506958 -0.13131436705589294 -0.0018795905634760857 0.00042213965207338333 0 0 0 0
2825061904 0.2598927319049835 -0.15728342533111572 -0.001659744419157505 0.0009787995368242264 0 0 0 0
2828783988 0.2570575773715973 -0.1808885782957077 -0.0012140162289142609 0.001463322900235653 0 0 0 0
2832506072 0.2507342994213104 -0.20257893204689026 -0.000464526005089283 0.0017405897378921509 0 0 0 0
2836228156 0.23636126518249512 -0.22689001262187958 0.0004224628210067749 0.0016738846898078918 0 0 0 0
2839950240 0.22163447737693787 -0.24787813425064087 0.0009852368384599686 0.001344381831586361 0 0 0 0
2843672324 0.20633938908576965 -0.26389986276626587 0.0014457637444138527 0.0007585883140563965 0 0 0 0
2847394408 0.18657183647155762 -0.2798559069633484 0.0017541153356432915 5.0282105803489685e-05 0 0 0 0
2851116492 0.16729308664798737 -0.29225942492485046 0.0016509899869561195 -0.0005375370383262634 0 0 0 0
2854838576 0.147207111120224 -0.30248376727104187 0.0015087323263287544 -0.00116635300219059 0 0 0 0
2858560660 0.1284964382648468 -0.3100091814994812 0.001228424720466137 -0.0018948251381516457 0 0 0 0
2862282744 0.10188661515712738 -0.31677812337875366 0.00045051611959934235 -0.002240224741399288 0 0 0 0
2866004828 0.08195649087429047 -0.3172991871833801 9.157229214906693e-05 -0.002093047834932804 0 0 0 0
2869726912 0.0591314360499382 -0.317727655172348 -0.00013210810720920563 -0.0019437838345766068 0 0 0 0
2873448996 0.03325027972459793 -0.3142324686050415 -0.00041459500789642334 -0.0017626890912652016 0 0 0 0
2877171080 0.008788853883743286 -0.3072032034397125 -0.0006157224997878075 -0.0017160307615995407 0 0 0 0
2880893164 -0.015417501330375671 -0.29739654064178467 -0.0007887678220868111 -0.0015590470284223557 0 0 0 0
2884615248 -0.03712769225239754 -0.2848098874092102 -0.0009511839598417282 -0.0013967659324407578 0 0 0 0
2888337332 -0.05590680241584778 -0.26996856927871704 -0.0010795434936881065 -0.0010908907279372215 0 0 0 0
2892059416 -0.07648134231567383 -0.2508659362792969 -0.0012256940826773643 -0.0007733618840575218 0 0 0 0
2895781500 -0.09015436470508575 -0.2319360226392746 -0.001071203500032425 -0.0005595143884420395 0 0 0 0
2899503584 -0.10172776132822037 -0.20909413695335388 -0.000981542281806469 -0.00034396350383758545 0 0 0 0
2903225668 -0.11369997262954712 -0.18448098003864288 -0.0008724955841898918 -0.000287896953523159 0 0 0 0
2906947752 -0.12068448960781097 -0.15875855088233948 -0.0009299013763666153 -0.0001864936202764511 0 0 0 0
2910669836 -0.12460777163505554 -0.13122883439064026 -0.0009700721129775047 -2.4869106709957123e-05 0 0 0 0
2914391920 -0.12282668054103851 -0.10431744158267975 -0.0010138312354683876 0.00024271197617053986 0 0 0 0
2918114004 -0.11847667396068573 -0.07785206288099289 -0.0008263308554887772 0.00048740673810243607 0 0 0 0
2921836088 -0.1103125661611557 -0.05251369997859001 -0.0006973026320338249 0.000669560395181179 0 0 0 0
2925558172 -0.09897822141647339 -0.029842691496014595 -0.0004970896989107132 0.000782383605837822 0 0 0 0
2929280256 -0.0857132077217102 -0.007378089241683483 -0.0003921091556549072 0.0008936449885368347 0 0 0 0
2933002340 -0.06932971626520157 0.013064553029835224 -0.00038987863808870316 0.0012194029986858368 0 0 0 0
2936724424 -0.05087503790855408 0.030586745589971542 -0.0002782018855214119 0.0015731379389762878 0 0 0 0
2940446508 -0.030054252594709396 0.04584597423672676 5.618389695882797e-05 0.0017435969784855843 0 0 0 0
2944168592 -0.007701285183429718 0.058407120406627655 0.0005063796415925026 0.0019164560362696648 0 0 0 0
2947890676 0.01490691863000393 0.06918380409479141 0.0009347489103674889 0.002275567501783371 0 0 0 0
2951612760 0.03998304530978203 0.07661208510398865 0.0016086921095848083 0.002442633733153343 0 0 0 0
2955334844 0.06702926754951477 0.08002690225839615 0.0024516815319657326 0.0023795850574970245 0 0 0 0
2959056928 0.09288270771503448 0.08075100183486938 0.003325561061501503 0.001937846653163433 0 0 0 0
2962779012 0.11973988264799118 0.07629416137933731 0.004118853248655796 0.0013307323679327965 0 0 0 0
2966501096 0.14552348852157593 0.06677454710006714 0.004553178325295448 0.00039334874600172043 0 0 0 0
2970223180 0.16951459646224976 0.05575930327177048 0.0046803588047623634 -0.0006948905065655708 0 0 0 0
2973945264 0.19078980386257172 0.043165627866983414 0.004452488385140896 -0.00165458582341671 0 0 0 0
2977667348 0.21148651838302612 0.02726692706346512 0.004186208359897137 -0.002415519207715988 0 0 0 0
2981389432 0.2298395335674286 0.007715821266174316 0.003620712086558342 -0.0032704416662454605 0 0 0 0
2985111516 0.24452605843544006 -0.013483002781867981 0.002839908003807068 -0.0038824686780571938 0 0 0 0
2988833600 0.25640949606895447 -0.03721822053194046 0.002069377340376377 -0.004249952733516693 0 0 0 0
2992555684 0.2646390199661255 -0.06093484163284302 0.0010335007682442665 -0.004377374425530434 0 0 0 0
2996277768 0.26870468258857727 -0.08438616991043091 0.00018806196749210358 -0.004242958500981331 0 0 0 0
2999999852 0.2705240249633789 -0.11129629611968994 -0.0005392124876379967 -0.0038315635174512863 0 0 0 0
