# HZ S RI R 50
1500000000 -0.018551338464021683 -0.04373227059841156 0.03757140040397644 -0.02525051310658455 0 0 0 0
1503722084 -0.008771900087594986 -0.03626982122659683 0.0319356694817543 -0.030462706461548805 0 0 0 0
1507444168 0.0029849382117390633 -0.028445754200220108 0.026810411363840103 -0.034084923565387726 0 0 0 0
1511166252 0.017319902777671814 -0.019613396376371384 0.02156585454940796 -0.037473566830158234 0 0 0 0
1514888336 0.0364045724272728 -0.012356963008642197 0.015622938983142376 -0.04078255966305733 0 0 0 0
1518610420 0.05735963582992554 -0.00954435020685196 0.007623477838933468 -0.043158501386642456 0 0 0 0
1522332504 0.07781406491994858 -0.009806198999285698 -0.0005155634135007858 -0.042964719235897064 0 0 0 0
1526054588 0.09941259026527405 -0.010869123041629791 -0.007847202941775322 -0.04058562219142914 0 0 0 0
1529776672 0.1220259815454483 -0.013228116557002068 -0.013286123052239418 -0.037273209542036057 0 0 0 0
1533498756 0.14702023565769196 -0.019753705710172653 -0.018732011318206787 -0.0340142659842968 0 0 0 0
1537220840 0.17366290092468262 -0.028936319053173065 -0.0235365629196167 -0.030125226825475693 0 0 0 0
1540942924 0.20239129662513733 -0.044110625982284546 -0.02761203981935978 -0.025442497804760933 0 0 0 0
1544665008 0.2293100357055664 -0.06648191809654236 -0.030846063047647476 -0.01942061074078083 0 0 0 0
1548387092 0.25179409980773926 -0.09473121166229248 -0.03246121108531952 -0.012890059500932693 0 0 0 0
1552109176 0.2710464596748352 -0.1256721466779709 -0.03233154118061066 -0.00666783656924963 0 0 0 0
1555831260 0.28342902660369873 -0.16420793533325195 -0.030709512531757355 -0.001145053654909134 0 0 0 0
1559553344 0.2944313585758209 -0.20142249763011932 -0.02864276058971882 0.003268609754741192 0 0 0 0
1563275428 0.29484105110168457 -0.24473288655281067 -0.026554467156529427 0.006862932816147804 0 0 0 0
1566997512 0.2891702651977539 -0.28553783893585205 -0.023896219208836555 0.010215378366410732 0 0 0 0
1570719596 0.2789011597633362 -0.3265044093132019 -0.020694803446531296 0.01275496743619442 0 0 0 0
1574441680 0.26252394914627075 -0.36725062131881714 -0.01747269183397293 0.014238073490560055 0 0 0 0
1578163764 0.24381938576698303 -0.40662530064582825 -0.01480037346482277 0.014799666590988636 0 0 0 0
1581885848 0.21528764069080353 -0.4458003640174866 -0.012443185783922672 0.015144618228077888 0 0 0 0
1585607932 0.17785672843456268 -0.48166608810424805 -0.010597391985356808 0.01547369547188282 0 0 0 0
1589330016 0.13635149598121643 -0.5117687582969666 -0.008879209868609905 0.016034256666898727 0 0 0 0
1593052100 0.08595304191112518 -0.5342637896537781 -0.006859644316136837 0.016648584976792336 0 0 0 0
1596774184 0.035197868943214417 -0.5485433340072632 -0.004630017094314098 0.017102664336562157 0 0 0 0
1600496268 -0.018776386976242065 -0.5549230575561523 -0.0025389017537236214 0.01723041757941246 0 0 0 0
1604218352 -0.07111091911792755 -0.5546025633811951 -0.0008771652355790138 0.017397012561559677 0 0 0 0
1607940436 -0.12383304536342621 -0.5490039587020874 0.0008457191288471222 0.017499055713415146 0 0 0 0
1611662520 -0.1843448281288147 -0.533789336681366 0.0028216810896992683 0.01780652441084385 0 0 0 0
1615384604 -0.23793397843837738 -0.5090301036834717 0.005082243122160435 0.01774313859641552 0 0 0 0
1619106688 -0.2900961637496948 -0.4761422872543335 0.007623900659382343 0.016692135483026505 0 0 0 0
1622828772 -0.34079134464263916 -0.4334356188774109 0.009782373905181885 0.015212316066026688 0 0 0 0
1626550856 -0.3836015462875366 -0.38300174474716187 0.011694740504026413 0.013714674860239029 0 0 0 0
1630272940 -0.41832250356674194 -0.3251117467880249 0.013667616993188858 0.012312907725572586 0 0 0 0
1633995024 -0.44669151306152344 -0.25857895612716675 0.01599552482366562 0.010441303253173828 0 0 0 0
1637717108 -0.4632623791694641 -0.19079451262950897 0.018117669969797134 0.00797977577894926 0 0 0 0
1641439192 -0.47028204798698425 -0.12089494615793228 0.019939877092838287 0.004619100131094456 0 0 0 0
1645161276 -0.46562460064888 -0.04167616367340088 0.020730648189783096 0.00054221972823143 0 0 0 0
1648883360 -0.4488203823566437 0.032356150448322296 0.019838891923427582 -0.0035956427454948425 0 0 0 0
1652605444 -0.418695867061615 0.1068967804312706 0.01818162202835083 -0.0066720061004161835 0 0 0 0
1656327528 -0.3771947920322418 0.17400044202804565 0.01616801880300045 -0.008859606459736824 0 0 0 0
1660049612 -0.322826623916626 0.236388698220253 0.014231378212571144 -0.010862881317734718 0 0 0 0
1663771696 -0.25661709904670715 0.2895160913467407 0.01238815113902092 -0.012744585052132607 0 0 0 0
1667493780 -0.18211933970451355 0.332332968711853 0.010083219967782497 -0.014680841937661171 0 0 0 0
1671215864 -0.10369989275932312 0.36237388849258423 0.007377331145107746 -0.01601635105907917 0 0 0 0
1674937948 -0.018658844754099846 0.3774045705795288 0.0040664998814463615 -0.017125841230154037 0 0 0 0
1678660032 0.06559008359909058 0.38019993901252747 0.00046555232256650925 -0.01725783199071884 0 0 0 0
1682382116 0.1516152024269104 0.3669355511665344 -0.0030064787715673447 -0.0157797709107399 0 0 0 0
1686104200 0.2326762080192566 0.3414681553840637 -0.005282232537865639 -0.013610314577817917 0 0 0 0
1689826284 0.309043288230896 0.30271080136299133 -0.0065206438302993774 -0.011410841718316078 0 0 0 0
1693548368 0.3772427439689636 0.25382447242736816 -0.0072159357368946075 -0.009682152420282364 0 0 0 0
1697270452 0.43533074855804443 0.19385994970798492 -0.007486933842301369 -0.007965567521750927 0 0 0 0
1700992536 0.4847162067890167 0.13046935200691223 -0.007427733391523361 -0.006752862595021725 0 0 0 0
1704714620 0.5232051014900208 0.05198001489043236 -0.007387745194137096 -0.005950574763119221 0 0 0 0
1708436704 0.548484206199646 -0.022648483514785767 -0.0076492223888635635 -0.005731526762247086 0 0 0 0
1712158788 0.5627829432487488 -0.10258164256811142 -0.008367291651666164 -0.004992651753127575 0 0 0 0
1715880872 0.5628842115402222 -0.1819644570350647 -0.008948339149355888 -0.003921244293451309 0 0 0 0
1719602956 0.5507863759994507 -0.26097339391708374 -0.009244313463568687 -0.002619137056171894 0 0 0 0
1723325040 0.5275689959526062 -0.33765169978141785 -0.009127890691161156 -0.0013110954314470291 0 0 0 0
1727047124 0.4950752258300781 -0.40633296966552734 -0.00878670159727335 -0.0003328602761030197 0 0 0 0
1730769208 0.45210519433021545 -0.46930694580078125 -0.008413169533014297 0.00020917784422636032 0 0 0 0
1734491292 0.3954694867134094 -0.5272595286369324 -0.008274131454527378 0.0007553193718194962 0 0 0 0
1738213376 0.339621901512146 -0.572628378868103 -0.008150944486260414 0.0012932252138853073 0 0 0 0
1741935460 0.27550002932548523 -0.6084349155426025 -0.00805913470685482 0.0018290374428033829 0 0 0 0
1745657544 0.20601549744606018 -0.6347489356994629 -0.008290222845971584 0.002308395691215992 0 0 0 0
1749379628 0.1296922117471695 -0.6517699956893921 -0.008566094562411308 0.0030990829691290855 0 0 0 0
1753101712 0.06020154058933258 -0.6545917391777039 -0.008768332190811634 0.00395918358117342 0 0 0 0
1756823796 -0.014745563268661499 -0.6468454599380493 -0.008844227530062199 0.005262188613414764 0 0 0 0
1760545880 -0.07709662616252899 -0.6292226314544678 -0.008787542581558228 0.006814227439463139 0 0 0 0
1764267964 -0.14287449419498444 -0.6014053821563721 -0.008403811603784561 0.008879169821739197 0 0 0 0
1767990048 -0.2025211900472641 -0.5625168681144714 -0.007108673453330994 0.01109548844397068 0 0 0 0
1771712132 -0.2522437572479248 -0.518463134765625 -0.004625142551958561 0.012375910766422749 0 0 0 0
1775434216 -0.2965381145477295 -0.46948105096817017 -0.0027518868446350098 0.012679621577262878 0 0 0 0
1779156300 -0.328612357378006 -0.4143660366535187 -0.001507558859884739 0.01279323361814022 0 0 0 0
1782878384 -0.35454079508781433 -0.35676631331443787 -0.0005533229559659958 0.01314016617834568 0 0 0 0
1786600468 -0.372308611869812 -0.2948668599128723 0.0008846158161759377 0.013848126865923405 0 0 0 0
1790322552 -0.38143792748451233 -0.22905327379703522 0.002883301116526127 0.014558274298906326 0 0 0 0
1794044636 -0.37929394841194153 -0.16698339581489563 0.004951324313879013 0.014910770580172539 0 0 0 0
1797766720 -0.36739516258239746 -0.10651025176048279 0.007326076738536358 0.015264594927430153 0 0 0 0
1801488804 -0.3477172255516052 -0.04757640138268471 0.010652914643287659 0.015197000466287136 0 0 0 0
1805210888 -0.3207697868347168 0.008260667324066162 0.014038008637726307 0.014109674841165543 0 0 0 0
1808932972 -0.2854473292827606 0.0571451410651207 0.017060983926057816 0.012276764959096909 0 0 0 0
1812655056 -0.24324999749660492 0.09844357520341873 0.01993250846862793 0.009954845532774925 0 0 0 0
1816377140 -0.19466714560985565 0.13505834341049194 0.0226734671741724 0.0070792920887470245 0 0 0 0
1820099224 -0.14195267856121063 0.16324475407600403 0.02514314092695713 0.002977723255753517 0 0 0 0
1823821308 -0.08495210111141205 0.18196998536586761 0.026269501075148582 -0.002482699230313301 0 0 0 0
1827543392 -0.026450645178556442 0.19094312191009521 0.025697195902466774 -0.007304659113287926 0 0 0 0
1831265476 0.029725298285484314 0.19029943645000458 0.02522391825914383 -0.011877361685037613 0 0 0 0
1834987560 0.0871524065732956 0.17906704545021057 0.023892581462860107 -0.017337054014205933 0 0 0 0
1838709644 0.13889086246490479 0.1605142056941986 0.020562652498483658 -0.02315106987953186 0 0 0 0
1842431728 0.1857723593711853 0.1361897736787796 0.015548842027783394 -0.027414174750447273 0 0 0 0
1846153812 0.22853118181228638 0.10230018943548203 0.009786034002900124 -0.02973943203687668 0 0 0 0
1849875896 0.2638813853263855 0.062268637120723724 0.004273917526006699 -0.030951987951993942 0 0 0 0
1853597980 0.29135847091674805 0.019856873899698257 -0.0010972479358315468 -0.03137414902448654 0 0 0 0
1857320064 0.3101175129413605 -0.028281599283218384 -0.006369264796376228 -0.030952978879213333 0 0 0 0
1861042148 0.32067233324050903 -0.07361693680286407 -0.011792901903390884 -0.030115855857729912 0 0 0 0
1864764232 0.32380977272987366 -0.12118062376976013 -0.017372194677591324 -0.02799607627093792 0 0 0 0
1868486316 0.3174835741519928 -0.16874155402183533 -0.022554196417331696 -0.025100603699684143 0 0 0 0
1872208400 0.3057309091091156 -0.20996086299419403 -0.027435293421149254 -0.021339857950806618 0 0 0 0
1875930484 0.28486913442611694 -0.2455345094203949 -0.03169984742999077 -0.01460852101445198 0 0 0 0
1879652568 0.2600937485694885 -0.2801673114299774 -0.03409469127655029 -0.008269870653748512 0 0 0 0
1883374652 0.23137027025222778 -0.30751660466194153 -0.03486894816160202 -0.0018734978511929512 0 0 0 0
1887096736 0.19963516294956207 -0.3300260007381439 -0.034556202590465546 0.004034470766782761 0 0 0 0
1890818820 0.16196921467781067 -0.34772539138793945 -0.03321417421102524 0.01002922561019659 0 0 0 0
1894540904 0.12684106826782227 -0.35613948106765747 -0.03140661120414734 0.015132629312574863 0 0 0 0
1898262988 0.0917406678199768 -0.35774898529052734 -0.02880111336708069 0.01981208100914955 0 0 0 0
1901985072 0.055141158401966095 -0.35330790281295776 -0.02537350356578827 0.024529213085770607 0 0 0 0
1905707156 0.023592926561832428 -0.3417530357837677 -0.02158433012664318 0.02855781838297844 0 0 0 0
1909429240 -0.0061982423067092896 -0.32697629928588867 -0.01699093170464039 0.03262055292725563 0 0 0 0
1913151324 -0.030921518802642822 -0.30748677253723145 -0.011003358289599419 0.036255527287721634 0 0 0 0
1916873408 -0.053184524178504944 -0.2843121588230133 -0.0036670230329036713 0.038661714643239975 0 0 0 0
1920595492 -0.06807442009449005 -0.2588735818862915 0.003613622859120369 0.039401404559612274 0 0 0 0
1924317576 -0.07953684031963348 -0.23113521933555603 0.011383749544620514 0.03848614543676376 0 0 0 0
1928039660 -0.08529552817344666 -0.20359636843204498 0.01900068297982216 0.03600741922855377 0 0 0 0
1931761744 -0.08762337267398834 -0.17581795156002045 0.026368992403149605 0.03125399351119995 0 0 0 0
1935483828 -0.08642254024744034 -0.14651347696781158 0.032238397747278214 0.024706050753593445 0 0 0 0
1939205912 -0.07834503054618835 -0.118792824447155 0.03542220592498779 0.016831276938319206 0 0 0 0
1942927996 -0.06583164632320404 -0.0913870707154274 0.03666044771671295 0.009137768298387527 0 0 0 0
1946650080 -0.04735220596194267 -0.06785070151090622 0.03657177835702896 0.0026390915736556053 0 0 0 0
1950372164 -0.025407295674085617 -0.048191286623477936 0.03597842901945114 -0.0037639308720827103 0 0 0 0
1954094248 0.0012664347887039185 -0.03307723626494408 0.03425569832324982 -0.009870312176644802 0 0 0 0
1957816332 0.02991684153676033 -0.02350037172436714 0.03153622895479202 -0.016129503026604652 0 0 0 0
1961538416 0.06019806116819382 -0.02075701206922531 0.027109039947390556 -0.021212313324213028 0 0 0 0
1965260500 0.0891461968421936 -0.024477902799844742 0.02195848524570465 -0.024509605020284653 0 0 0 0
1968982584 0.11594783514738083 -0.03470790386199951 0.01769784465432167 -0.026946011930704117 0 0 0 0
1972704668 0.13856911659240723 -0.04946848750114441 0.013192587532103062 -0.028871435672044754 0 0 0 0
1976426752 0.1587514579296112 -0.0660155788064003 0.008327402174472809 -0.03065584972500801 0 0 0 0
1980148836 0.17418214678764343 -0.08513374626636505 0.0030139032751321793 -0.031745754182338715 0 0 0 0
1983870920 0.1869250386953354 -0.10718604922294617 -0.002619665116071701 -0.032291390001773834 0 0 0 0
1987593004 0.19597885012626648 -0.13124088943004608 -0.00867101363837719 -0.031309790909290314 0 0 0 0
1991315088 0.1986140012741089 -0.1564675122499466 -0.013980616815388203 -0.02913307398557663 0 0 0 0
1995037172 0.19689351320266724 -0.18196210265159607 -0.018985552713274956 -0.02572460286319256 0 0 0 0
1998759256 0.1915348917245865 -0.20401473343372345 -0.022559594362974167 -0.021603671833872795 0 0 0 0
2002481340 0.18106484413146973 -0.2260178029537201 -0.025596074759960175 -0.017472870647907257 0 0 0 0
2006203424 0.17015579342842102 -0.2460821568965912 -0.02800588496029377 -0.013106543570756912 0 0 0 0
2009925508 0.15317167341709137 -0.26501521468162537 -0.02967824973165989 -0.008346881717443466 0 0 0 0
2013647592 0.13094237446784973 -0.279842346906662 -0.030906081199645996 -0.003345984034240246 0 0 0 0
2017369676 0.10967053472995758 -0.2897808253765106 -0.031308650970458984 0.0017997724935412407 0 0 0 0
2021091760 0.08547350019216537 -0.29437196254730225 -0.03136022388935089 0.007204028777778149 0 0 0 0
2024813844 0.0634731575846672 -0.2959425449371338 -0.030180878937244415 0.012758158147335052 0 0 0 0
2028535928 0.04050242900848389 -0.29511764645576477 -0.027815716341137886 0.01852889358997345 0 0 0 0
2032258012 0.015070118010044098 -0.28974252939224243 -0.023866906762123108 0.023887306451797485 0 0 0 0
2035980096 -0.006863027811050415 -0.27928978204727173 -0.018564458936452866 0.027933388948440552 0 0 0 0
2039702180 -0.027281224727630615 -0.26590844988822937 -0.012804222293198109 0.030671682208776474 0 0 0 0
2043424264 -0.04505216330289841 -0.2495541125535965 -0.006652183830738068 0.03155669569969177 0 0 0 0
2047146348 -0.06230839341878891 -0.22974613308906555 -0.0008743973448872566 0.031282924115657806 0 0 0 0
2050868432 -0.07365277409553528 -0.20801472663879395 0.004050148651003838 0.030648469924926758 0 0 0 0
2054590516 -0.08421991765499115 -0.1834626942873001 0.009101229719817638 0.029216773808002472 0 0 0 0
2058312600 -0.08824862539768219 -0.16019265353679657 0.01318267360329628 0.02765457145869732 0 0 0 0
2062034684 -0.09212523698806763 -0.1341952532529831 0.017922349274158478 0.025148402899503708 0 0 0 0
2065756768 -0.09126555174589157 -0.10716412961483002 0.02236628159880638 0.02156170830130577 0 0 0 0
2069478852 -0.08596194535493851 -0.07761913537979126 0.025909272953867912 0.016451962292194366 0 0 0 0
2073200936 -0.07436780631542206 -0.049471668899059296 0.027627911418676376 0.0108718853443861 0 0 0 0
2076923020 -0.058409035205841064 -0.023461928591132164 0.028285343199968338 0.005401404574513435 0 0 0 0
2080645104 -0.037769731134176254 -0.0013893702998757362 0.02791755273938179 0.0010481979697942734 0 0 0 0
2084367188 -0.014112451113760471 0.018266761675477028 0.027270572260022163 -0.0035274988040328026 0 0 0 0
2088089272 0.014039471745491028 0.03419492021203041 0.025903917849063873 -0.007799034006893635 0 0 0 0
2091811356 0.04391970485448837 0.04518382251262665 0.024048611521720886 -0.01154196634888649 0 0 0 0
2095533440 0.07544011622667313 0.050273049622774124 0.021401386708021164 -0.015455923974514008 0 0 0 0
2099255524 0.10795795917510986 0.04956112429499626 0.017771726474165916 -0.01812199503183365 0 0 0 0
2102977608 0.13999205827713013 0.04526825621724129 0.014796731993556023 -0.01988738588988781 0 0 0 0
2106699692 0.17048394680023193 0.033786840736866 0.012288840487599373 -0.021818645298480988 0 0 0 0
2110421776 0.1991242617368698 0.019852619618177414 0.009352976456284523 -0.024327946826815605 0 0 0 0
2114143860 0.2245226353406906 0.00014096125960350037 0.005011985078454018 -0.026489194482564926 0 0 0 0
2117865944 0.24601934850215912 -0.026058822870254517 -0.0006011342629790306 -0.027523823082447052 0 0 0 0
2121588028 0.26343029737472534 -0.05092451721429825 -0.005821165628731251 -0.027206681668758392 0 0 0 0
2125310112 0.27417996525764465 -0.08165422081947327 -0.010917413979768753 -0.0255091842263937 0 0 0 0
2129032196 0.28072109818458557 -0.11133212596178055 -0.015692496672272682 -0.02277621626853943 0 0 0 0
2132754280 0.2821258008480072 -0.1401829868555069 -0.020063722506165504 -0.019107701256871223 0 0 0 0
2136476364 0.277883917093277 -0.17015305161476135 -0.023416008800268173 -0.014103593304753304 0 0 0 0
2140198448 0.2701316475868225 -0.19597139954566956 -0.024670008569955826 -0.00858390610665083 0 0 0 0
2143920532 0.26157331466674805 -0.2186400145292282 -0.02435615286231041 -0.003619338385760784 0 0 0 0
2147642616 0.24683208763599396 -0.24354830384254456 -0.022989308461546898 0.00010553188621997833 0 0 0 0
2151364700 0.22934949398040771 -0.26502716541290283 -0.02222658321261406 0.0026858877390623093 0 0 0 0
2155086784 0.209456667304039 -0.2820347249507904 -0.021688342094421387 0.005622614175081253 0 0 0 0
2158808868 0.18584300577640533 -0.29718661308288574 -0.020883487537503242 0.008881437592208385 0 0 0 0
2162530952 0.16417361795902252 -0.306030809879303 -0.019565269351005554 0.012301409617066383 0 0 0 0
2166253036 0.14112061262130737 -0.3126409649848938 -0.01698305271565914 0.01568533666431904 0 0 0 0
2169975120 0.11530399322509766 -0.31649819016456604 -0.013491882011294365 0.018104925751686096 0 0 0 0
2173697204 0.09339280426502228 -0.315768837928772 -0.010059310123324394 0.019556405022740364 0 0 0 0
2177419288 0.06479430943727493 -0.3151448667049408 -0.006749373860657215 0.020274659618735313 0 0 0 0
2181141372 0.039874374866485596 -0.3079783320426941 -0.003582194447517395 0.020799774676561356 0 0 0 0
2184863456 0.01704416424036026 -0.29783356189727783 -0.0003538765013217926 0.020771382376551628 0 0 0 0
2188585540 -0.00700107216835022 -0.2822490930557251 0.002892257645726204 0.020417992025613785 0 0 0 0
2192307624 -0.024992018938064575 -0.2630503177642822 0.005781303159892559 0.019766297191381454 0 0 0 0
2196029708 -0.043007709085941315 -0.23985369503498077 0.008699698373675346 0.018308665603399277 0 0 0 0
2199751792 -0.05405060201883316 -0.21385812759399414 0.011371257714927197 0.016793811693787575 0 0 0 0
2203473876 -0.06157490983605385 -0.18730352818965912 0.014268235303461552 0.015144985169172287 0 0 0 0
2207195960 -0.06409085541963577 -0.16238358616828918 0.017008572816848755 0.012467021122574806 0 0 0 0
2210918044 -0.06070481613278389 -0.13718941807746887 0.018811658024787903 0.00846114568412304 0 0 0 0
2214640128 -0.05468795448541641 -0.11328830569982529 0.01923336461186409 0.0048326412215828896 0 0 0 0
2218362212 -0.048506952822208405 -0.08898498862981796 0.01869072951376438 0.0012230779975652695 0 0 0 0
2222084296 -0.03625365346670151 -0.06766356527805328 0.017934013158082962 -0.0015028594061732292 0 0 0 0
2225806380 -0.02170553430914879 -0.04518318921327591 0.016866635531187057 -0.003958091139793396 0 0 0 0
2229528464 -0.0016362015157938004 -0.02601633034646511 0.015820182859897614 -0.006208517588675022 0 0 0 0
2233250548 0.022188875824213028 -0.011181078851222992 0.014978943392634392 -0.008225581608712673 0 0 0 0
2236972632 0.047434501349925995 -0.0028695128858089447 0.013172089122235775 -0.010915271937847137 0 0 0 0
2240694716 0.0726444274187088 0.003058474510908127 0.010878466069698334 -0.012751325964927673 0 0 0 0
2244416800 0.09921996295452118 0.005233842879533768 0.008322215639054775 -0.013907980173826218 0 0 0 0
2248138884 0.12621450424194336 -0.0008154958486557007 0.006123660132288933 -0.014393001794815063 0 0 0 0
2251860968 0.1550416350364685 -0.011043280363082886 0.0014237724244594574 -0.015342921018600464 0 0 0 0
2255583052 0.17783406376838684 -0.02302255854010582 -0.00045002251863479614 -0.015521173365414143 0 0 0 0
2259305136 0.19748741388320923 -0.041392311453819275 -0.0029880646616220474 -0.015139774419367313 0 0 0 0
2263027220 0.21183234453201294 -0.06522989273071289 -0.005380484275519848 -0.014407656155526638 0 0 0 0
2266749304 0.22239838540554047 -0.08564332127571106 -0.007648821920156479 -0.013203362934291363 0 0 0 0
2270471388 0.2247362732887268 -0.11298977583646774 -0.009626145474612713 -0.011432196944952011 0 0 0 0
2274193472 0.22626842558383942 -0.13432514667510986 -0.011159775778651237 -0.009343252517282963 0 0 0 0
2277915556 0.22367605566978455 -0.15284463763237 -0.011762624606490135 -0.00740259513258934 0 0 0 0
2281637640 0.21570557355880737 -0.17588822543621063 -0.012202379293739796 -0.0058029210194945335 0 0 0 0
2285359724 0.2064352184534073 -0.19363369047641754 -0.012356060557067394 -0.003959979861974716 0 0 0 0
2289081808 0.19892136752605438 -0.20789551734924316 -0.012344801798462868 -0.0025534313172101974 0 0 0 0
2292803892 0.18383295834064484 -0.2248077094554901 -0.012171881273388863 -0.0015671011060476303 0 0 0 0
2296525976 0.16576938331127167 -0.23817512392997742 -0.012293073348701 -0.0006133606657385826 0 0 0 0
2300248060 0.14798057079315186 -0.24628442525863647 -0.01274027768522501 0.0003568371757864952 0 0 0 0
2303970144 0.12842042744159698 -0.25532352924346924 -0.013456249609589577 0.0017397943884134293 0 0 0 0
2307692228 0.10645550489425659 -0.2551063597202301 -0.013945234939455986 0.0037331916391849518 0 0 0 0
2311414312 0.08372397720813751 -0.25464195013046265 -0.013858525082468987 0.005877017043530941 0 0 0 0
2315136396 0.06231793761253357 -0.24962586164474487 -0.013179603964090347 0.008285196498036385 0 0 0 0
2318858480 0.04484858363866806 -0.24174638092517853 -0.011973840184509754 0.010598421096801758 0 0 0 0
2322580564 0.024370640516281128 -0.22822123765945435 -0.010231146588921547 0.012486397288739681 0 0 0 0
2326302648 0.004733361303806305 -0.21197040379047394 -0.007406325079500675 0.013930086977779865 0 0 0 0
2330024732 -0.0044024065136909485 -0.19348160922527313 -0.005264356732368469 0.014321718364953995 0 0 0 0
2333746816 -0.01589386910200119 -0.17241346836090088 -0.003352193161845207 0.014598144218325615 0 0 0 0
2337468900 -0.022933758795261383 -0.15019842982292175 -0.001315711997449398 0.014998740516602993 0 0 0 0
2341190984 -0.02100512757897377 -0.12702621519565582 0.0010483115911483765 0.014805549755692482 0 0 0 0
2344913068 -0.02142862230539322 -0.10255586355924606 0.0035711620002985 0.01406250149011612 0 0 0 0
2348635152 -0.014180883765220642 -0.07911444455385208 0.0055700549855828285 0.012585065327584743 0 0 0 0
2352357236 -0.004209307953715324 -0.05778554081916809 0.006973194889724255 0.010917003266513348 0 0 0 0
2356079320 0.011004249565303326 -0.03753899410367012 0.007715949788689613 0.00932583212852478 0 0 0 0
2359801404 0.029523657634854317 -0.020556863397359848 0.008369892835617065 0.007949519902467728 0 0 0 0
2363523488 0.050558753311634064 -0.007393423467874527 0.008931262418627739 0.006721179001033306 0 0 0 0
2367245572 0.07344947755336761 0.0019861413165926933 0.00949167087674141 0.005299781449139118 0 0 0 0
2370967656 0.09688430279493332 0.007825296372175217 0.010005032643675804 0.003689376637339592 0 0 0 0
2374689740 0.12143366783857346 0.009514734148979187 0.01009047869592905 0.002237631008028984 0 0 0 0
2378411824 0.1452968567609787 0.006539857015013695 0.009799045510590076 0.0005361372604966164 0 0 0 0
2382133908 0.16822166740894318 0.0009500877931714058 0.009198073297739029 -0.0008108681067824364 0 0 0 0
2385855992 0.1904696226119995 -0.007255442440509796 0.008466680534183979 -0.001734115183353424 0 0 0 0
2389578076 0.211796373128891 -0.01784519851207733 0.008027883246541023 -0.0023574410006403923 0 0 0 0
2393300160 0.23104864358901978 -0.03410135209560394 0.007715839892625809 -0.003229845315217972 0 0 0 0
2397022244 0.24801722168922424 -0.05380714684724808 0.007353668101131916 -0.004534623585641384 0 0 0 0
2400744328 0.26250872015953064 -0.07873772829771042 0.006376329809427261 -0.00594051368534565 0 0 0 0
2404466412 0.2718205749988556 -0.0999470129609108 0.005045589059591293 -0.006778816692531109 0 0 0 0
2408188496 0.27901381254196167 -0.12642766535282135 0.003692587837576866 -0.007332599721848965 0 0 0 0
2411910580 0.2823658287525177 -0.15053127706050873 0.0025485586374998093 -0.007687309756875038 0 0 0 0
2415632664 0.279172420501709 -0.17873170971870422 0.0013487441465258598 -0.007757176645100117 0 0 0 0
2419354748 0.2715325355529785 -0.20434211194515228 -0.00012102536857128143 -0.007870104163885117 0 0 0 0
2423076832 0.26125603914260864 -0.22882816195487976 -0.0013444051146507263 -0.007688193581998348 0 0 0 0
2426798916 0.24581186473369598 -0.2532604932785034 -0.0027119209989905357 -0.007473960518836975 0 0 0 0
2430521000 0.22883790731430054 -0.271289587020874 -0.004115010611712933 -0.006858485750854015 0 0 0 0
2434243084 0.20752796530723572 -0.2899091839790344 -0.0054597510024905205 -0.0058989571407437325 0 0 0 0
2437965168 0.18587879836559296 -0.30316781997680664 -0.006796711124479771 -0.004457996226847172 0 0 0 0
2441687252 0.1618868112564087 -0.31321269273757935 -0.007320771925151348 -0.0026915017515420914 0 0 0 0
2445409336 0.13532689213752747 -0.32162970304489136 -0.007540006190538406 -0.0008668210357427597 0 0 0 0
2449131420 0.11022830009460449 -0.3236766457557678 -0.006852548569440842 0.0008811242878437042 0 0 0 0
2452853504 0.08330284804105759 -0.32418522238731384 -0.005710747092962265 0.00225276593118906 0 0 0 0
2456575588 0.05324005335569382 -0.3187110722064972 -0.004436175338923931 0.0029549896717071533 0 0 0 0
2460297672 0.03046835958957672 -0.31171393394470215 -0.0034654103219509125 0.002878488041460514 0 0 0 0
2464019756 0.0020467936992645264 -0.29990828037261963 -0.0026242882013320923 0.0029695983976125717 0 0 0 0
2467741840 -0.021891936659812927 -0.2835789918899536 -0.001969883218407631 0.0028574904426932335 0 0 0 0
2471463924 -0.04485103487968445 -0.26416265964508057 -0.0012416662648320198 0.0030332887545228004 0 0 0 0
2475186008 -0.0649537742137909 -0.24055203795433044 -0.0004327632486820221 0.0028117401525378227 0 0 0 0
2478908092 -0.08054544031620026 -0.2127673178911209 0.00024155713617801666 0.002128705382347107 0 0 0 0
2482630176 -0.09013959765434265 -0.18302777409553528 0.00046031083911657333 0.0014326982200145721 0 0 0 0
2486352260 -0.09644538164138794 -0.15258365869522095 0.00035205669701099396 0.0008318806067109108 0 0 0 0
2490074344 -0.09801449626684189 -0.11894956231117249 0.0002399105578660965 0.0005936808884143829 0 0 0 0
2493796428 -0.09332592785358429 -0.08707419782876968 0.00024390779435634613 0.00023472867906093597 0 0 0 0
2497518512 -0.08457562327384949 -0.05466984584927559 0.00034862756729125977 -0.00017477385699748993 0 0 0 0
2501240596 -0.06883437186479568 -0.026440082117915154 0.000306030735373497 -0.0004933131858706474 0 0 0 0
2504962680 -0.04923873022198677 -0.0006635095924139023 1.7908401787281036e-05 -0.0011362424120306969 0 0 0 0
2508684764 -0.025660645216703415 0.022762447595596313 -0.0005930978804826736 -0.0016090208664536476 0 0 0 0
2512406848 0.0002746293321251869 0.04165039211511612 -0.0013288650661706924 -0.001718701794743538 0 0 0 0
2516128932 0.028599556535482407 0.056393325328826904 -0.0019144359976053238 -0.001704568974673748 0 0 0 0
2519851016 0.059494491666555405 0.06760621815919876 -0.0025362130254507065 -0.0015754541382193565 0 0 0 0
2523573100 0.09315783530473709 0.07132811099290848 -0.003072727471590042 -0.0011294865980744362 0 0 0 0
2527295184 0.12697243690490723 0.07085508108139038 -0.0033396342769265175 -0.0007487516850233078 0 0 0 0
2531017268 0.159420445561409 0.06318773329257965 -0.0038339849561452866 -7.727928459644318e-05 0 0 0 0
2534739352 0.18966981768608093 0.051735587418079376 -0.003934710286557674 0.0003940500319004059 0 0 0 0
2538461436 0.2172912359237671 0.033013515174388885 -0.0040379781275987625 0.0007757265120744705 0 0 0 0
2542183520 0.2412528097629547 0.012101948261260986 -0.0042220549657940865 0.0011612903326749802 0 0 0 0
2545905604 0.2598206698894501 -0.013431861996650696 -0.004563288763165474 0.001800229772925377 0 0 0 0
2549627688 0.27330726385116577 -0.04061839357018471 -0.004684636369347572 0.0028149131685495377 0 0 0 0
2553349772 0.2840479612350464 -0.06890740990638733 -0.004576428793370724 0.004320254549384117 0 0 0 0
2557071856 0.29086440801620483 -0.09562329947948456 -0.0036479178816080093 0.005651053972542286 0 0 0 0
2560793940 0.29018113017082214 -0.12296081334352493 -0.0024284692481160164 0.006219366565346718 0 0 0 0
2564516024 0.2846481204032898 -0.15161702036857605 -0.0012907367199659348 0.006771441549062729 0 0 0 0
2568238108 0.27864354848861694 -0.17554983496665955 -0.0001296158879995346 0.007012210786342621 0 0 0 0
2571960192 0.26663509011268616 -0.20038197934627533 0.0012387186288833618 0.0072139473631978035 0 0 0 0
2575682276 0.2507483959197998 -0.2214832901954651 0.0028088316321372986 0.007226081565022469 0 0 0 0
2579404360 0.2335163950920105 -0.23964613676071167 0.004343013279139996 0.006833039224147797 0 0 0 0
2583126444 0.21412643790245056 -0.25529152154922485 0.006108928471803665 0.005609508603811264 0 0 0 0
2586848528 0.1915159672498703 -0.2670193910598755 0.0072608329355716705 0.003967322409152985 0 0 0 0
2590570612 0.16957047581672668 -0.2747924029827118 0.0076231518760323524 0.0023371409624814987 0 0 0 0
2594292696 0.14422443509101868 -0.278789222240448 0.0077998461201786995 0.0009697228670120239 0 0 0 0
2598014780 0.12359371036291122 -0.27880048751831055 0.00817696563899517 -0.00038500595837831497 0 0 0 0
2601736864 0.10295512527227402 -0.27554625272750854 0.008298726752400398 -0.0020023100078105927 0 0 0 0
2605458948 0.08157984912395477 -0.26801204681396484 0.007936591282486916 -0.003753931261599064 0 0 0 0
2609181032 0.06334604322910309 -0.259077250957489 0.00694893766194582 -0.005226940847933292 0 0 0 0
2612903116 0.04372875392436981 -0.24672389030456543 0.005831094458699226 -0.006466350518167019 0 0 0 0
2616625200 0.032147571444511414 -0.23084665834903717 0.004906757734715939 -0.00723930262029171 0 0 0 0
2620347284 0.01949523575603962 -0.2148430049419403 0.003763806074857712 -0.008013029582798481 0 0 0 0
2624069368 0.010476164519786835 -0.1967034786939621 0.002301601693034172 -0.008616839535534382 0 0 0 0
2627791452 0.006761420518159866 -0.1767227053642273 0.0012692511081695557 -0.008669455535709858 0 0 0 0
2631513536 0.005542192608118057 -0.15641769766807556 0.0002453252673149109 -0.00896670762449503 0 0 0 0
2635235620 0.009569547139108181 -0.13805760443210602 -0.0006761215627193451 -0.009369620122015476 0 0 0 0
2638957704 0.015410305932164192 -0.12180519849061966 -0.0017879148945212364 -0.009927910752594471 0 0 0 0
2642679788 0.02685793861746788 -0.10569357872009277 -0.0034913793206214905 -0.010340934619307518 0 0 0 0
2646401872 0.03816533088684082 -0.09480008482933044 -0.005586016923189163 -0.010342946276068687 0 0 0 0
2650123956 0.05127992480993271 -0.08663599193096161 -0.007907088845968246 -0.009783736430108547 0 0 0 0
2653846040 0.065903440117836 -0.08025915920734406 -0.01018612552434206 -0.008502710610628128 0 0 0 0
2657568124 0.08028801530599594 -0.07727942615747452 -0.01219886913895607 -0.006639144383370876 0 0 0 0
2661290208 0.09733857214450836 -0.07726267725229263 -0.013736631721258163 -0.004163607023656368 0 0 0 0
2665012292 0.11202763020992279 -0.08212894201278687 -0.014377408660948277 -0.0013732584193348885 0 0 0 0
2668734376 0.1252075880765915 -0.09129296988248825 -0.014139629900455475 0.0018057366833090782 0 0 0 0
2672456460 0.13571837544441223 -0.10104699432849884 -0.01377613190561533 0.004271332174539566 0 0 0 0
2676178544 0.14335590600967407 -0.11411832273006439 -0.012791002169251442 0.006640331819653511 0 0 0 0
2679900628 0.14814534783363342 -0.12674733996391296 -0.011189478449523449 0.009264837950468063 0 0 0 0
2683622712 0.14923015236854553 -0.14138354361057281 -0.00897255353629589 0.011330965906381607 0 0 0 0
2687344796 0.14527185261249542 -0.15526153147220612 -0.005914461798965931 0.01250572968274355 0 0 0 0
2691066880 0.14199978113174438 -0.1667315661907196 -0.003222624771296978 0.012691553682088852 0 0 0 0
2694788964 0.13378719985485077 -0.17801347374916077 -0.0010651582852005959 0.012455918826162815 0 0 0 0
2698511048 0.12721365690231323 -0.18617460131645203 0.0008539492264389992 0.012119423598051071 0 0 0 0
2702233132 0.11525662243366241 -0.1946844607591629 0.002797854132950306 0.011500242166221142 0 0 0 0
2705955216 0.10288247466087341 -0.20181915163993835 0.0045311711728572845 0.010877339169383049 0 0 0 0
2709677300 0.08985889703035355 -0.20560617744922638 0.006433146074414253 0.010109243914484978 0 0 0 0
2713399384 0.07589012384414673 -0.20688563585281372 0.00865311548113823 0.008821709081530571 0 0 0 0
2717121468 0.05979205667972565 -0.20519070327281952 0.010218756273388863 0.006418286822736263 0 0 0 0
2720843552 0.04465850815176964 -0.20195436477661133 0.010954385623335838 0.00413677841424942 0 0 0 0
2724565636 0.029683247208595276 -0.19590677320957184 0.01121292170137167 0.001994507387280464 0 0 0 0
2728287720 0.016569219529628754 -0.18514510989189148 0.011443241499364376 0.00023342575877904892 0 0 0 0
2732009804 0.003823988139629364 -0.17166900634765625 0.011611185036599636 -0.0017622532323002815 0 0 0 0
2735731888 -0.0040542930364608765 -0.15697239339351654 0.011535857804119587 -0.0041884323582053185 0 0 0 0
2739453972 -0.009802816435694695 -0.14153121411800385 0.010660361498594284 -0.006843146868050098 0 0 0 0
2743176056 -0.014884011819958687 -0.12441287934780121 0.009023644961416721 -0.009100831113755703 0 0 0 0
2746898140 -0.015486886724829674 -0.10685469955205917 0.0068923598155379295 -0.01084759458899498 0 0 0 0
2750620224 -0.013657890260219574 -0.08863559365272522 0.004617832601070404 -0.011961882933974266 0 0 0 0
2754342308 -0.009994889609515667 -0.06990236043930054 0.0018373802304267883 -0.012724257074296474 0 0 0 0
2758064392 -0.0012037549167871475 -0.05184687674045563 -0.0009976690635085106 -0.012735681608319283 0 0 0 0
2761786476 0.010793729685246944 -0.03592353314161301 -0.003414577804505825 -0.011784378439188004 0 0 0 0
2765508560 0.02484240010380745 -0.022334661334753036 -0.005533927120268345 -0.010649643838405609 0 0 0 0
2769230644 0.040158938616514206 -0.010750692337751389 -0.00717165507376194 -0.00902505125850439 0 0 0 0
2772952728 0.05783684551715851 -0.0011579487472772598 -0.008337646722793579 -0.007438218221068382 0 0 0 0
2776674812 0.07678517699241638 0.004406601190567017 -0.009236479178071022 -0.005837146192789078 0 0 0 0
2780396896 0.0965471863746643 0.008122151717543602 -0.010092255659401417 -0.0041381241753697395 0 0 0 0
2784118980 0.11632370948791504 0.009150590747594833 -0.010860389098525047 -0.002162008546292782 0 0 0 0
2787841064 0.13752512633800507 0.007524572312831879 -0.011087017133831978 0.00014548469334840775 0 0 0 0
2791563148 0.1583421230316162 0.001919332891702652 -0.010596605949103832 0.0027799364179372787 0 0 0 0
2795285232 0.17920644581317902 -0.005758859217166901 -0.009154397062957287 0.004868648946285248 0 0 0 0
2799007316 0.19772116839885712 -0.0209185853600502 -0.007367868907749653 0.00623506773263216 0 0 0 0
2802729400 0.21518069505691528 -0.03541670739650726 -0.005695057101547718 0.007090291008353233 0 0 0 0
2806451484 0.22877967357635498 -0.053526319563388824 -0.004121696576476097 0.007697363384068012 0 0 0 0
2810173568 0.23925764858722687 -0.07049493491649628 -0.002445240505039692 0.00792938657104969 0 0 0 0
2813895652 0.24798069894313812 -0.09402132034301758 -0.0008363891392946243 0.007778076454997063 0 0 0 0
2817617736 0.25318726897239685 -0.11469703912734985 0.0006306851282715797 0.007487659342586994 0 0 0 0
2821339820 0.25264981389045715 -0.14277422428131104 0.0019498476758599281 0.006947273388504982 0 0 0 0
2825061904 0.25157296657562256 -0.16375112533569336 0.0030763819813728333 0.0062544336542487144 0 0 0 0
2828783988 0.24343746900558472 -0.18740849196910858 0.004021664150059223 0.005279568023979664 0 0 0 0
2832506072 0.23702266812324524 -0.20704568922519684 0.004818006418645382 0.004226802848279476 0 0 0 0
2836228156 0.22534799575805664 -0.22594711184501648 0.005229349248111248 0.0030724722892045975 0 0 0 0
2839950240 0.2126966118812561 -0.24337726831436157 0.005238931626081467 0.002178608439862728 0 0 0 0
2843672324 0.1991516351699829 -0.25716903805732727 0.005362627096474171 0.001401054672896862 0 0 0 0
2847394408 0.18400195240974426 -0.2709072530269623 0.005619858391582966 0.0007846271619200706 0 0 0 0
2851116492 0.16267481446266174 -0.28625252842903137 0.005682912655174732 -0.00016746390610933304 0 0 0 0
2854838576 0.14040999114513397 -0.2958589196205139 0.005783104337751865 -0.0010573044419288635 0 0 0 0
2858560660 0.1234155222773552 -0.30298691987991333 0.0057372041046619415 -0.0025487514212727547 0 0 0 0
2862282744 0.10151773691177368 -0.30791234970092773 0.0051964810118079185 -0.0035577435046434402 0 0 0 0
2866004828 0.0795741006731987 -0.3100462555885315 0.004615688696503639 -0.004428592510521412 0 0 0 0
2869726912 0.06277433782815933 -0.30944517254829407 0.0038485489785671234 -0.005121147260069847 0 0 0 0
2873448996 0.037295736372470856 -0.3070928156375885 0.002886164002120495 -0.005735461600124836 0 0 0 0
2877171080 0.013764545321464539 -0.3022553622722626 0.0017203036695718765 -0.006134970113635063 0 0 0 0
2880893164 -0.008316107094287872 -0.2947346568107605 0.0004352228716015816 -0.006206757389008999 0 0 0 0
2884615248 -0.029888585209846497 -0.28311777114868164 -0.0006239879876375198 -0.0059752073138952255 0 0 0 0
2888337332 -0.05100662261247635 -0.2668793201446533 -0.0014436254277825356 -0.005548585206270218 0 0 0 0
2892059416 -0.06945796310901642 -0.24953924119472504 -0.002305661328136921 -0.0049794577062129974 0 0 0 0
2895781500 -0.08313166350126266 -0.2309676557779312 -0.003077366389334202 -0.004282522015273571 0 0 0 0
2899503584 -0.09528618305921555 -0.20877422392368317 -0.0036637187004089355 -0.0033310819417238235 0 0 0 0
2903225668 -0.10620762407779694 -0.18590408563613892 -0.0038408609107136726 -0.0023364033550024033 0 0 0 0
2906947752 -0.11344005167484283 -0.16139835119247437 -0.0037419768050312996 -0.0013522235676646233 0 0 0 0
2910669836 -0.11586731672286987 -0.13780337572097778 -0.0034499838948249817 -0.0007584048435091972 0 0 0 0
2914391920 -0.1170467957854271 -0.1110515147447586 -0.0031959982588887215 -0.00021944288164377213 0 0 0 0
2918114004 -0.11272737383842468 -0.08546535670757294 -0.0028761420398950577 0.00023031793534755707 0 0 0 0
2921836088 -0.10521923005580902 -0.06176692992448807 -0.0027809515595436096 0.0005783289670944214 0 0 0 0
2925558172 -0.09618285298347473 -0.03784247860312462 -0.0024135559797286987 0.0008932845667004585 0 0 0 0
2929280256 -0.08362297713756561 -0.017207909375429153 -0.002132751978933811 0.0012346096336841583 0 0 0 0
2933002340 -0.0685080960392952 0.002461731433868408 -0.0018576541915535927 0.0015395889058709145 0 0 0 0
2936724424 -0.05132664740085602 0.020116182044148445 -0.001640799455344677 0.0019080815836787224 0 0 0 0
2940446508 -0.03351535648107529 0.03484297916293144 -0.0013341130688786507 0.0023417389020323753 0 0 0 0
2944168592 -0.012349473312497139 0.04805803671479225 -0.0009020427241921425 0.002903810702264309 0 0 0 0
2947890676 0.009483275935053825 0.05730701982975006 7.255654782056808e-05 0.0032580066472291946 0 0 0 0
2951612760 0.03145231679081917 0.06570160388946533 0.001051001250743866 0.0031865285709500313 0 0 0 0
2955334844 0.055533938109874725 0.07057348638772964 0.0019462322816252708 0.002515566535294056 0 0 0 0
2959056928 0.07982725650072098 0.0721285492181778 0.002308277413249016 0.0020495476201176643 0 0 0 0
2962779012 0.10392799228429794 0.07336972653865814 0.002516902983188629 0.0017042122781276703 0 0 0 0
2966501096 0.1296531707048416 0.06734147667884827 0.0028521008789539337 0.0012602638453245163 0 0 0 0
2970223180 0.154081329703331 0.0619589239358902 0.0031008590012788773 0.0008452730253338814 0 0 0 0
2973945264 0.17882134020328522 0.05033443123102188 0.0032974723726511 0.0005177091807126999 0 0 0 0
2977667348 0.20169758796691895 0.034161441028118134 0.0037778280675411224 -1.5090219676494598e-05 0 0 0 0
2981389432 0.22106005251407623 0.017634473741054535 0.00394078716635704 -0.0008696001023054123 0 0 0 0
2985111516 0.23711536824703217 -0.0037624314427375793 0.003750416450202465 -0.0016751857474446297 0 0 0 0
2988833600 0.25000160932540894 -0.026472486555576324 0.003272194415330887 -0.0024081673473119736 0 0 0 0
2992555684 0.25911617279052734 -0.048318952322006226 0.002750072628259659 -0.003104659728705883 0 0 0 0
2996277768 0.264250785112381 -0.07381300628185272 0.0022249966859817505 -0.0036893142387270927 0 0 0 0
2999999852 0.26677650213241577 -0.09857423603534698 0.0012536123394966125 -0.0037955883890390396 0 0 0 0
