# HZ S RI R 50
1500000000 -0.11807770282030106 -0.049060188233852386 0.03895857557654381 -0.03707629814743996 0 0 0 0
1503722084 -0.1046038568019867 -0.02069322019815445 0.030814016237854958 -0.04380800202488899 0 0 0 0
1507444168 -0.08500742167234421 0.0053839311003685 0.02064943127334118 -0.048703618347644806 0 0 0 0
1511166252 -0.060886893421411514 0.028658125549554825 0.00981065072119236 -0.05044596642255783 0 0 0 0
1514888336 -0.0315852165222168 0.04902130737900734 -0.0013039251789450645 -0.04885300248861313 0 0 0 0
1518610420 0.0018633399158716202 0.06546000391244888 -0.01036987267434597 -0.04463702067732811 0 0 0 0
1522332504 0.03999701514840126 0.07636748999357224 -0.01723121479153633 -0.03886757045984268 0 0 0 0
1526054588 0.08195637166500092 0.08045442402362823 -0.02245490439236164 -0.032849669456481934 0 0 0 0
1529776672 0.12454509735107422 0.07794372737407684 -0.02585987001657486 -0.02699492685496807 0 0 0 0
1533498756 0.16851836442947388 0.0671914741396904 -0.028571313247084618 -0.0204430241137743 0 0 0 0
1537220840 0.21199017763137817 0.048274002969264984 -0.029395215213298798 -0.01376272365450859 0 0 0 0
1540942924 0.2537004053592682 0.021325543522834778 -0.028152640908956528 -0.00794685073196888 0 0 0 0
1544665008 0.2903516888618469 -0.013718579895794392 -0.026076365262269974 -0.0036431439220905304 0 0 0 0
1548387092 0.32195138931274414 -0.05485149472951889 -0.02411036007106304 -0.0009457971900701523 0 0 0 0
1552109176 0.3464740216732025 -0.10038309544324875 -0.02237626537680626 0.0012978659942746162 0 0 0 0
1555831260 0.3639696538448334 -0.1525869518518448 -0.021045329049229622 0.002997574396431446 0 0 0 0
1559553344 0.3719478249549866 -0.20795953273773193 -0.020079750567674637 0.0048730578273534775 0 0 0 0
1563275428 0.37023311853408813 -0.2647518217563629 -0.019054170697927475 0.006918575614690781 0 0 0 0
1566997512 0.36185336112976074 -0.3210596442222595 -0.017572538927197456 0.008991110138595104 0 0 0 0
1570719596 0.34060075879096985 -0.3778800368309021 -0.015484536997973919 0.010753700509667397 0 0 0 0
1574441680 0.3128754496574402 -0.4302228093147278 -0.01351880095899105 0.011648688465356827 0 0 0 0
1578163764 0.27721548080444336 -0.4768262505531311 -0.011873411014676094 0.012426112778484821 0 0 0 0
1581885848 0.23289529979228973 -0.5192591547966003 -0.01028578169643879 0.013356994837522507 0 0 0 0
1585607932 0.18210165202617645 -0.5543637871742249 -0.008771928027272224 0.013903016224503517 0 0 0 0
1589330016 0.12583808600902557 -0.5815022587776184 -0.007230949588119984 0.014272107742726803 0 0 0 0
1593052100 0.06309539079666138 -0.6004044413566589 -0.006023002788424492 0.014777539297938347 0 0 0 0
1596774184 -0.0008414983749389648 -0.6102584600448608 -0.004726037383079529 0.015678873285651207 0 0 0 0
1600496268 -0.06366103887557983 -0.6085247993469238 -0.0029448121786117554 0.016584038734436035 0 0 0 0
1604218352 -0.12479934096336365 -0.5987333655357361 -0.0008389009162783623 0.017307648435235023 0 0 0 0
1607940436 -0.1916821449995041 -0.5784815549850464 0.0016861474141478539 0.017488425597548485 0 0 0 0
1611662520 -0.2507542371749878 -0.5508110523223877 0.004184153862297535 0.01729384995996952 0 0 0 0
1615384604 -0.3088933229446411 -0.5120060443878174 0.006420391611754894 0.016946928575634956 0 0 0 0
1619106688 -0.36060941219329834 -0.4650101363658905 0.009056776762008667 0.016274312511086464 0 0 0 0
1622828772 -0.4049970507621765 -0.40776997804641724 0.011787433177232742 0.015442486852407455 0 0 0 0
1626550856 -0.44029390811920166 -0.347707599401474 0.014534871093928814 0.01397697813808918 0 0 0 0
1630272940 -0.46700263023376465 -0.2772790789604187 0.017451515421271324 0.011692234314978123 0 0 0 0
1633995024 -0.48332464694976807 -0.20495083928108215 0.020091908052563667 0.00863981619477272 0 0 0 0
1637717108 -0.4882427155971527 -0.12962186336517334 0.02201242186129093 0.0044032856822013855 0 0 0 0
1641439192 -0.48226654529571533 -0.055528197437524796 0.022424805909395218 -9.538605809211731e-06 0 0 0 0
1645161276 -0.4639407992362976 0.019983410835266113 0.02197863906621933 -0.004105965606868267 0 0 0 0
1648883360 -0.4347001314163208 0.09384159743785858 0.02121472731232643 -0.008094588294625282 0 0 0 0
1652605444 -0.3932128846645355 0.1616196483373642 0.019720371812582016 -0.012237359769642353 0 0 0 0
1656327528 -0.34115204215049744 0.223415344953537 0.01718846708536148 -0.016375208273530006 0 0 0 0
1660049612 -0.2805144786834717 0.274829238653183 0.013274640776216984 -0.019867058843374252 0 0 0 0
1663771696 -0.2096201479434967 0.31871169805526733 0.008147705346345901 -0.022138824686408043 0 0 0 0
1667493780 -0.1353805810213089 0.35095536708831787 0.0030596842989325523 -0.022778697311878204 0 0 0 0
1671215864 -0.055018290877342224 0.37182605266571045 -0.0017898604273796082 -0.022171534597873688 0 0 0 0
1674937948 0.028692305088043213 0.3805205225944519 -0.0061460016295313835 -0.020637711510062218 0 0 0 0
1678660032 0.11403390765190125 0.3755090832710266 -0.010013926774263382 -0.01786850579082966 0 0 0 0
1682382116 0.19696293771266937 0.3567116856575012 -0.01290979329496622 -0.014635294675827026 0 0 0 0
1686104200 0.2770664691925049 0.3238089978694916 -0.014541028067469597 -0.011175068095326424 0 0 0 0
1689826284 0.3479154706001282 0.2801445424556732 -0.015499276109039783 -0.007772508077323437 0 0 0 0
1693548368 0.4131852686405182 0.22388365864753723 -0.01575247012078762 -0.0043760864064097404 0 0 0 0
1697270452 0.46621689200401306 0.15985165536403656 -0.015295811928808689 -0.00121370330452919 0 0 0 0
1700992536 0.5096789002418518 0.08707837760448456 -0.014318566769361496 0.0014311643317341805 0 0 0 0
1704714620 0.540396511554718 0.011045634746551514 -0.01320735178887844 0.0036798249930143356 0 0 0 0
1708436704 0.5590531826019287 -0.07079267501831055 -0.01185229979455471 0.005715087056159973 0 0 0 0
1712158788 0.5651047229766846 -0.14953884482383728 -0.009940357878804207 0.007669576443731785 0 0 0 0
1715880872 0.5582346320152283 -0.2297687977552414 -0.007413978688418865 0.008996386080980301 0 0 0 0
1719602956 0.5374317765235901 -0.30950817465782166 -0.0047677913680672646 0.009395169094204903 0 0 0 0
1723325040 0.5081504583358765 -0.3814164400100708 -0.0024820249527692795 0.009041818790137768 0 0 0 0
1727047124 0.46791690587997437 -0.44691985845565796 -0.0008104490116238594 0.008266319520771503 0 0 0 0
1730769208 0.41630980372428894 -0.5059525370597839 0.0005786921828985214 0.007339424453675747 0 0 0 0
1734491292 0.3585977554321289 -0.5560175180435181 0.0015066834166646004 0.006431896239519119 0 0 0 0
1738213376 0.29443100094795227 -0.5944094657897949 0.002418156713247299 0.005286616273224354 0 0 0 0
1741935460 0.22414624691009521 -0.6238440871238708 0.0027881301939487457 0.00397125817835331 0 0 0 0
1745657544 0.15743482112884521 -0.6390345692634583 0.002540876157581806 0.0029845722019672394 0 0 0 0
1749379628 0.0837511420249939 -0.644543468952179 0.002097906544804573 0.002427760511636734 0 0 0 0
1753101712 0.014274369925260544 -0.6398078799247742 0.002028769813477993 0.002142718993127346 0 0 0 0
1756823796 -0.0551840215921402 -0.6241170763969421 0.002154896967113018 0.0019213221967220306 0 0 0 0
1760545880 -0.11615025997161865 -0.598538875579834 0.0021905871108174324 0.0014979802072048187 0 0 0 0
1764267964 -0.17584539949893951 -0.5641494989395142 0.0019568754360079765 0.0010381955653429031 0 0 0 0
1767990048 -0.2251369208097458 -0.5234375596046448 0.0019240276888012886 0.0006451709195971489 0 0 0 0
1771712132 -0.2659275531768799 -0.47690996527671814 0.0016928231343626976 0.00010117609053850174 0 0 0 0
1775434216 -0.30231308937072754 -0.4240134358406067 0.0009225942194461823 -0.0003460356965661049 0 0 0 0
1779156300 -0.32713887095451355 -0.3689228594303131 9.373389184474945e-05 -0.000479099340736866 0 0 0 0
1782878384 -0.3450160026550293 -0.31413406133651733 -0.0008655115962028503 -0.00031166989356279373 0 0 0 0
1786600468 -0.3572276532649994 -0.2558719217777252 -0.0018450086936354637 0.0003616847097873688 0 0 0 0
1790322552 -0.3592810332775116 -0.19785955548286438 -0.002727092243731022 0.0016136039048433304 0 0 0 0
1794044636 -0.3540618121623993 -0.1404467523097992 -0.002736113965511322 0.003302258439362049 0 0 0 0
1797766720 -0.3411475419998169 -0.08271382749080658 -0.002281886525452137 0.005049809813499451 0 0 0 0
1801488804 -0.3198223114013672 -0.030367441475391388 -0.001278516836464405 0.006764864549040794 0 0 0 0
1805210888 -0.2915118932723999 0.019111772999167442 0.0005014566704630852 0.008396049030125141 0 0 0 0
1808932972 -0.25506067276000977 0.06719249486923218 0.0033550625666975975 0.009325939230620861 0 0 0 0
1812655056 -0.21146319806575775 0.10625995695590973 0.006317203864455223 0.009154909290373325 0 0 0 0
1816377140 -0.16193512082099915 0.1364351063966751 0.008863013237714767 0.008485431782901287 0 0 0 0
1820099224 -0.10542610287666321 0.15986905992031097 0.012297512032091618 0.006751068867743015 0 0 0 0
1823821308 -0.049496814608573914 0.1704557240009308 0.015086808241903782 0.003484080545604229 0 0 0 0
1827543392 0.006280034780502319 0.17196495831012726 0.01626294106245041 -0.0008058603852987289 0 0 0 0
1831265476 0.058540619909763336 0.16400425136089325 0.015907010063529015 -0.0051438212394714355 0 0 0 0
1834987560 0.10662508755922318 0.14996688067913055 0.014474386349320412 -0.008952603675425053 0 0 0 0
1838709644 0.15157313644886017 0.128881573677063 0.011976884678006172 -0.01220951322466135 0 0 0 0
1842431728 0.1928722858428955 0.1024017333984375 0.008603550493717194 -0.014336072839796543 0 0 0 0
1846153812 0.22841507196426392 0.07045024633407593 0.0051542241126298904 -0.01503171119838953 0 0 0 0
1849875896 0.25710663199424744 0.03435365855693817 0.0025664903223514557 -0.014979025349020958 0 0 0 0
1853597980 0.28022143244743347 -0.005233079195022583 0.00045265257358551025 -0.014750676229596138 0 0 0 0
1857320064 0.2970311641693115 -0.04678184539079666 -0.0012253783643245697 -0.01476961188018322 0 0 0 0
1861042148 0.3050353229045868 -0.09095475822687149 -0.003080730326473713 -0.01548291277140379 0 0 0 0
1864764232 0.30651798844337463 -0.13338984549045563 -0.006023109890520573 -0.01581835001707077 0 0 0 0
1868486316 0.30067557096481323 -0.17470625042915344 -0.009469815529882908 -0.015073375776410103 0 0 0 0
1872208400 0.2876558005809784 -0.2146388590335846 -0.012594258412718773 -0.01323002204298973 0 0 0 0
1875930484 0.2699528634548187 -0.25199007987976074 -0.01361943781375885 -0.01091597881168127 0 0 0 0
1879652568 0.2481277883052826 -0.2823554575443268 -0.015371882356703281 -0.008630451746284962 0 0 0 0
1883374652 0.21996864676475525 -0.31003886461257935 -0.016687626019120216 -0.006632152944803238 0 0 0 0
1887096736 0.1875457465648651 -0.33133161067962646 -0.018814345821738243 -0.004308595322072506 0 0 0 0
1890818820 0.1550496220588684 -0.3435328006744385 -0.020565826445817947 -0.0010561104863882065 0 0 0 0
1894540904 0.11805226653814316 -0.3513669967651367 -0.02153438702225685 0.003806871362030506 0 0 0 0
1898262988 0.08545008301734924 -0.35110801458358765 -0.02096690610051155 0.008717936463654041 0 0 0 0
1901985072 0.050470367074012756 -0.34773048758506775 -0.018400095403194427 0.013531765900552273 0 0 0 0
1905707156 0.01918719708919525 -0.3369412422180176 -0.015217871405184269 0.016632869839668274 0 0 0 0
1909429240 -0.006853938102722168 -0.32416021823883057 -0.01143588125705719 0.019437100738286972 0 0 0 0
1913151324 -0.033290088176727295 -0.30625221133232117 -0.0073781972751021385 0.021144770085811615 0 0 0 0
1916873408 -0.0535883754491806 -0.28508126735687256 -0.0028801066800951958 0.02220778726041317 0 0 0 0
1920595492 -0.07163403183221817 -0.2606762945652008 0.0013322653248906136 0.022440439090132713 0 0 0 0
1924317576 -0.08475770056247711 -0.23294004797935486 0.005890875123441219 0.02178429253399372 0 0 0 0
1928039660 -0.09105123579502106 -0.20446977019309998 0.01039109006524086 0.02002350240945816 0 0 0 0
1931761744 -0.09458333998918533 -0.17388799786567688 0.014662806876003742 0.01691124029457569 0 0 0 0
1935483828 -0.09190002828836441 -0.14505673944950104 0.017697317525744438 0.012596569024026394 0 0 0 0
1939205912 -0.08482789993286133 -0.11685256659984589 0.018818572163581848 0.0077150603756308556 0 0 0 0
1942927996 -0.07177774608135223 -0.08959487080574036 0.01838192529976368 0.0035191532224416733 0 0 0 0
1946650080 -0.05461891368031502 -0.06543153524398804 0.017334647476673126 0.0005319295451045036 0 0 0 0
1950372164 -0.03298203647136688 -0.04436589777469635 0.01652451790869236 -0.0017229840159416199 0 0 0 0
1954094248 -0.008385932072997093 -0.02822057530283928 0.01565835438668728 -0.004119532182812691 0 0 0 0
1957816332 0.019129745662212372 -0.0171949565410614 0.014891376718878746 -0.006695541553199291 0 0 0 0
1961538416 0.04853815212845802 -0.0108720064163208 0.013042468577623367 -0.00908063817769289 0 0 0 0
1965260500 0.0786462277173996 -0.0103803351521492 0.011332855559885502 -0.010649613104760647 0 0 0 0
1968982584 0.10886462032794952 -0.015107952058315277 0.009582089260220528 -0.012008030898869038 0 0 0 0
1972704668 0.13605894148349762 -0.02816115692257881 0.007876798510551453 -0.013296025805175304 0 0 0 0
1976426752 0.16054221987724304 -0.0427825003862381 0.005771299824118614 -0.01463240571320057 0 0 0 0
1980148836 0.1814647763967514 -0.06400062143802643 0.003577686846256256 -0.01583169586956501 0 0 0 0
1983870920 0.19916769862174988 -0.08818665146827698 0.0007900446653366089 -0.017113523557782173 0 0 0 0
1987593004 0.21052411198616028 -0.11462868750095367 -0.0028581256046891212 -0.017847731709480286 0 0 0 0
1991315088 0.2167942225933075 -0.1425664722919464 -0.006803800351917744 -0.01693984679877758 0 0 0 0
1995037172 0.21873080730438232 -0.17073071002960205 -0.010390158742666245 -0.015548313036561012 0 0 0 0
1998759256 0.21273373067378998 -0.19925399124622345 -0.013142675161361694 -0.013051724061369896 0 0 0 0
2002481340 0.20572683215141296 -0.22334054112434387 -0.0148292426019907 -0.01066076010465622 0 0 0 0
2006203424 0.19282816350460052 -0.2474227249622345 -0.01650095358490944 -0.008047213777899742 0 0 0 0
2009925508 0.17367969453334808 -0.26876041293144226 -0.017865946516394615 -0.005351755768060684 0 0 0 0
2013647592 0.1560993492603302 -0.28549960255622864 -0.01834465190768242 -0.0021961908787488937 0 0 0 0
2017369676 0.1320497691631317 -0.30014023184776306 -0.019062915816903114 0.0005489448085427284 0 0 0 0
2021091760 0.1078157126903534 -0.3108389973640442 -0.019411694258451462 0.004151117987930775 0 0 0 0
2024813844 0.08284276723861694 -0.3159172534942627 -0.01852530613541603 0.008127296343445778 0 0 0 0
2028535928 0.05173508822917938 -0.3177475929260254 -0.016526276245713234 0.011904661543667316 0 0 0 0
2032258012 0.024684563279151917 -0.3140510618686676 -0.013990094885230064 0.014963459223508835 0 0 0 0
2035980096 0.0018808245658874512 -0.30566200613975525 -0.010787474922835827 0.016860362142324448 0 0 0 0
2039702180 -0.027685226872563362 -0.2930944859981537 -0.00738687627017498 0.018077390268445015 0 0 0 0
2043424264 -0.04944591969251633 -0.2757710814476013 -0.003996606916189194 0.018830638378858566 0 0 0 0
2047146348 -0.0690603032708168 -0.25540655851364136 -0.0006640404462814331 0.018846338614821434 0 0 0 0
2050868432 -0.08638915419578552 -0.2322075515985489 0.0026685576885938644 0.018426479771733284 0 0 0 0
2054590516 -0.09945447742938995 -0.20605890452861786 0.005476499907672405 0.017076440155506134 0 0 0 0
2058312600 -0.10821478068828583 -0.17750516533851624 0.007719706743955612 0.015271966345608234 0 0 0 0
2062034684 -0.1142445057630539 -0.14645206928253174 0.00942905992269516 0.013787509873509407 0 0 0 0
2065756768 -0.11420950293540955 -0.11549422144889832 0.011003904044628143 0.01191485021263361 0 0 0 0
2069478852 -0.11001324653625488 -0.0841769427061081 0.012389576062560081 0.010399263352155685 0 0 0 0
2073200936 -0.09951175004243851 -0.05238103121519089 0.013300658203661442 0.008130272850394249 0 0 0 0
2076923020 -0.08374224603176117 -0.022504277527332306 0.014408173970878124 0.005778941325843334 0 0 0 0
2080645104 -0.06307089328765869 0.004858236759901047 0.0146976662799716 0.0036618271842598915 0 0 0 0
2084367188 -0.038002390414476395 0.028240922838449478 0.014399267733097076 0.0016036424785852432 0 0 0 0
2088089272 -0.009519386105239391 0.04798651859164238 0.01400688849389553 2.0128674805164337e-05 0 0 0 0
2091811356 0.022789359092712402 0.062593013048172 0.014347474090754986 -0.001169736497104168 0 0 0 0
2095533440 0.057497020810842514 0.07199656963348389 0.014997676014900208 -0.003189302049577236 0 0 0 0
2099255524 0.09426606446504593 0.07511676102876663 0.015365110710263252 -0.006399081088602543 0 0 0 0
2102977608 0.1304706335067749 0.07173463702201843 0.014313697814941406 -0.01001247763633728 0 0 0 0
2106699692 0.16593556106090546 0.06300228834152222 0.012047424912452698 -0.01334091741591692 0 0 0 0
2110421776 0.20034006237983704 0.04984252154827118 0.008800465613603592 -0.015852948650717735 0 0 0 0
2114143860 0.2321091592311859 0.028412029147148132 0.005223210901021957 -0.017311550676822662 0 0 0 0
2117865944 0.2584163248538971 0.0022908449172973633 0.0016745654866099358 -0.018178561702370644 0 0 0 0
2121588028 0.2799752652645111 -0.027470663189888 -0.0022611506283283234 -0.01811070926487446 0 0 0 0
2125310112 0.2952084243297577 -0.06004335731267929 -0.005977941676974297 -0.017023995518684387 0 0 0 0
2129032196 0.3052171766757965 -0.09152262657880783 -0.009576135315001011 -0.014574514701962471 0 0 0 0
2132754280 0.3108953833580017 -0.1254628449678421 -0.0121222622692585 -0.011429001577198505 0 0 0 0
2136476364 0.31061097979545593 -0.16101571917533875 -0.012819360941648483 -0.007771709002554417 0 0 0 0
2140198448 0.30564069747924805 -0.19383706152439117 -0.012661740183830261 -0.004671059548854828 0 0 0 0
2143920532 0.29462534189224243 -0.22635771334171295 -0.011661794036626816 -0.002641863189637661 0 0 0 0
2147642616 0.2779064178466797 -0.2558008134365082 -0.010788925923407078 -0.0014267917722463608 0 0 0 0
2151364700 0.26015156507492065 -0.2814020812511444 -0.010343401692807674 -0.0003099367022514343 0 0 0 0
2155086784 0.23507295548915863 -0.30515918135643005 -0.009797288104891777 0.00037607643753290176 0 0 0 0
2158808868 0.20684172213077545 -0.32460325956344604 -0.009516832418739796 0.0009444672614336014 0 0 0 0
2162530952 0.17921006679534912 -0.33678942918777466 -0.009565919637680054 0.0013625388965010643 0 0 0 0
2166253036 0.14635011553764343 -0.34614214301109314 -0.01013145036995411 0.00236506387591362 0 0 0 0
2169975120 0.11577924340963364 -0.35009855031967163 -0.010260894894599915 0.004017235711216927 0 0 0 0
2173697204 0.08439014852046967 -0.3487449288368225 -0.009603580459952354 0.005971894599497318 0 0 0 0
2177419288 0.05074126645922661 -0.3427588641643524 -0.008404840715229511 0.0074075134471058846 0 0 0 0
2181141372 0.021834596991539 -0.3308696448802948 -0.007248660549521446 0.008614066056907177 0 0 0 0
2184863456 -0.002779528498649597 -0.3168734908103943 -0.006197474896907806 0.009864920750260353 0 0 0 0
2188585540 -0.029894351959228516 -0.29767584800720215 -0.004948343150317669 0.011140439659357071 0 0 0 0
2192307624 -0.05187109857797623 -0.27326488494873047 -0.003070569597184658 0.012286457233130932 0 0 0 0
2196029708 -0.06891507655382156 -0.24701526761054993 -0.0010286113247275352 0.01301405020058155 0 0 0 0
2199751792 -0.08062998205423355 -0.21777254343032837 0.001310315914452076 0.012743469327688217 0 0 0 0
2203473876 -0.08957092463970184 -0.18419206142425537 0.0032210825011134148 0.012070884928107262 0 0 0 0
2207195960 -0.08987991511821747 -0.15333189070224762 0.004620585590600967 0.011355076916515827 0 0 0 0
2210918044 -0.08651083707809448 -0.12204046547412872 0.005955541506409645 0.010695851407945156 0 0 0 0
2214640128 -0.07699867337942123 -0.09286035597324371 0.00803773757070303 0.009831169620156288 0 0 0 0
2218362212 -0.06260954588651657 -0.06633208692073822 0.009952290914952755 0.008772695437073708 0 0 0 0
2222084296 -0.0460435152053833 -0.039826612919569016 0.011807206086814404 0.00666021928191185 0 0 0 0
2225806380 -0.024636803194880486 -0.01732095330953598 0.013229881413280964 0.0038123857229948044 0 0 0 0
2229528464 0.001103222370147705 0.0009367745369672775 0.013710103929042816 0.0007536793127655983 0 0 0 0
2233250548 0.029907362535595894 0.013753432780504227 0.01337534748017788 -0.001954364590346813 0 0 0 0
2236972632 0.06015590950846672 0.02056824043393135 0.01258590817451477 -0.00475670862942934 0 0 0 0
2240694716 0.09052253514528275 0.022688888013362885 0.011163448914885521 -0.0071152858436107635 0 0 0 0
2244416800 0.12012522667646408 0.0172344371676445 0.009426646865904331 -0.009211670607328415 0 0 0 0
2248138884 0.14824748039245605 0.010554391890764236 0.0069720083847641945 -0.010775279253721237 0 0 0 0
2251860968 0.1767159402370453 -0.0023946575820446014 0.004473762586712837 -0.012133465148508549 0 0 0 0
2255583052 0.19954250752925873 -0.018852971494197845 0.0020217569544911385 -0.012355094775557518 0 0 0 0
2259305136 0.21775895357131958 -0.041903674602508545 -0.00022825784981250763 -0.012091664597392082 0 0 0 0
2263027220 0.22911329567432404 -0.07168684154748917 -0.002285461872816086 -0.011229995638132095 0 0 0 0
2266749304 0.24042868614196777 -0.09108518064022064 -0.0034553781151771545 -0.010371439158916473 0 0 0 0
2270471388 0.24666783213615417 -0.11565342545509338 -0.0043839095160365105 -0.009584384970366955 0 0 0 0
2274193472 0.24473413825035095 -0.14379775524139404 -0.005518688820302486 -0.009258130565285683 0 0 0 0
2277915556 0.2444964051246643 -0.16672013700008392 -0.006999635137617588 -0.009114965796470642 0 0 0 0
2281637640 0.2316325455904007 -0.19734269380569458 -0.008968783542513847 -0.008413036353886127 0 0 0 0
2285359724 0.21841560304164886 -0.21747487783432007 -0.010788089595735073 -0.006834789179265499 0 0 0 0
2289081808 0.19739414751529694 -0.23884591460227966 -0.011910713277757168 -0.004941518418490887 0 0 0 0
2292803892 0.17633965611457825 -0.2524954080581665 -0.01269152108579874 -0.002756408415734768 0 0 0 0
2296525976 0.1475640833377838 -0.26630163192749023 -0.013102296739816666 -0.0006982646882534027 0 0 0 0
2300248060 0.13719961047172546 -0.26389655470848083 -0.01333614718168974 0.0009044669568538666 0 0 0 0
2303970144 0.10692539811134338 -0.27303698658943176 -0.013090260326862335 0.0038247201591730118 0 0 0 0
2307692228 0.08590295910835266 -0.2688252925872803 -0.012242503464221954 0.006254363805055618 0 0 0 0
2311414312 0.06395517289638519 -0.2642614245414734 -0.010344868525862694 0.008472247049212456 0 0 0 0
2315136396 0.03652079403400421 -0.2553951144218445 -0.008041934110224247 0.009656965732574463 0 0 0 0
2318858480 0.02117267996072769 -0.2434428185224533 -0.005915424786508083 0.009997453540563583 0 0 0 0
2322580564 -0.001241937279701233 -0.22667133808135986 -0.004173340275883675 0.009904096834361553 0 0 0 0
2326302648 -0.01428946852684021 -0.20686393976211548 -0.0027985600754618645 0.009506343863904476 0 0 0 0
2330024732 -0.02589728683233261 -0.18475769460201263 -0.001692350022494793 0.009316310286521912 0 0 0 0
2333746816 -0.034155331552028656 -0.16068509221076965 -0.0006730742752552032 0.009186074137687683 0 0 0 0
2337468900 -0.04106786474585533 -0.13338717818260193 0.0005326634272933006 0.008620088919997215 0 0 0 0
2341190984 -0.03595319390296936 -0.10748149454593658 0.0010876460000872612 0.007890434004366398 0 0 0 0
2344913068 -0.03185204043984413 -0.07992099970579147 0.0014495858922600746 0.007430350407958031 0 0 0 0
2348635152 -0.02088119462132454 -0.05386851355433464 0.0019830800592899323 0.007281161844730377 0 0 0 0
2352357236 -0.005550987087190151 -0.03160713613033295 0.0027727996930480003 0.006846335716545582 0 0 0 0
2356079320 0.013247563503682613 -0.011739155277609825 0.003793683834373951 0.006304833106696606 0 0 0 0
2359801404 0.03626135736703873 0.005008545704185963 0.004402675665915012 0.005577210336923599 0 0 0 0
2363523488 0.06138933449983597 0.018401075154542923 0.00493770744651556 0.004328976385295391 0 0 0 0
2367245572 0.0890950858592987 0.027378607541322708 0.004771200008690357 0.003298128955066204 0 0 0 0
2370967656 0.11930303275585175 0.029846560209989548 0.0044576553627848625 0.002793639898300171 0 0 0 0
2374689740 0.14920087158679962 0.02658785879611969 0.004450893960893154 0.0021687662228941917 0 0 0 0
2378411824 0.17683164775371552 0.01929040625691414 0.004408224485814571 0.001635645516216755 0 0 0 0
2382133908 0.20239746570587158 0.006072402000427246 0.003946686163544655 0.0011056456714868546 0 0 0 0
2385855992 0.22671549022197723 -0.007492713630199432 0.0035423897206783295 0.0007009850814938545 0 0 0 0
2389578076 0.24599634110927582 -0.030380837619304657 0.0030525242909789085 0.0006052665412425995 0 0 0 0
2393300160 0.2624970078468323 -0.05354801565408707 0.0026885131374001503 0.0009946469217538834 0 0 0 0
2397022244 0.27500519156455994 -0.07700428366661072 0.002905796281993389 0.0014697648584842682 0 0 0 0
2400744328 0.2815994918346405 -0.10784503072500229 0.0038373274728655815 0.001504765823483467 0 0 0 0
2404466412 0.2819783091545105 -0.13277949392795563 0.00465840008109808 0.0009224126115441322 0 0 0 0
2408188496 0.28241899609565735 -0.15796920657157898 0.0049010878428816795 5.940999835729599e-05 0 0 0 0
2411910580 0.2777779996395111 -0.1824086755514145 0.0048509808257222176 -0.0010512014850974083 0 0 0 0
2415632664 0.269609659910202 -0.20660056173801422 0.004785163328051567 -0.0017197933048009872 0 0 0 0
2419354748 0.2597108483314514 -0.2290273904800415 0.004501570016145706 -0.0023780018091201782 0 0 0 0
2423076832 0.2430473268032074 -0.2514551281929016 0.004218433052301407 -0.003388427197933197 0 0 0 0
2426798916 0.22486227750778198 -0.2697996199131012 0.0033508744090795517 -0.0044645341113209724 0 0 0 0
2430521000 0.20533591508865356 -0.2864657938480377 0.002044682390987873 -0.004969608969986439 0 0 0 0
2434243084 0.18598000705242157 -0.2983335256576538 0.0008939849212765694 -0.004630709998309612 0 0 0 0
2437965168 0.16289138793945312 -0.3081384301185608 6.728526204824448e-05 -0.0038117682561278343 0 0 0 0
2441687252 0.13884995877742767 -0.3146122694015503 0.00030258018523454666 -0.0031257355585694313 0 0 0 0
2445409336 0.11171649396419525 -0.319780170917511 0.0009961137548089027 -0.0030776141211390495 0 0 0 0
2449131420 0.08352494239807129 -0.3186482787132263 0.0014081746339797974 -0.0038583921268582344 0 0 0 0
2452853504 0.06027716025710106 -0.3136683404445648 0.0012321611866354942 -0.004669600166380405 0 0 0 0
2456575588 0.033509254455566406 -0.30352982878685 0.0007369294762611389 -0.005470169708132744 0 0 0 0
2460297672 0.010778069496154785 -0.2924334406852722 -0.00012308452278375626 -0.006218959577381611 0 0 0 0
2464019756 -0.009848728775978088 -0.27836644649505615 -0.0012317690998315811 -0.006872409023344517 0 0 0 0
2467741840 -0.03179003298282623 -0.2591891586780548 -0.0025653094053268433 -0.007067526690661907 0 0 0 0
2471463924 -0.04508822411298752 -0.23892821371555328 -0.0038128551095724106 -0.007258900441229343 0 0 0 0
2475186008 -0.05893212929368019 -0.21507754921913147 -0.00503544881939888 -0.0071944380179047585 0 0 0 0
2478908092 -0.07073237001895905 -0.18935702741146088 -0.006729832850396633 -0.006690145470201969 0 0 0 0
2482630176 -0.07658360153436661 -0.16345016658306122 -0.008448283188045025 -0.0056547243148088455 0 0 0 0
2486352260 -0.07957038283348083 -0.13606342673301697 -0.009500511921942234 -0.004121437668800354 0 0 0 0
2490074344 -0.07876811176538467 -0.10835272073745728 -0.010320042259991169 -0.002796504646539688 0 0 0 0
2493796428 -0.07305795699357986 -0.07940401136875153 -0.010649220086634159 -0.0010962104424834251 0 0 0 0
2497518512 -0.06354951858520508 -0.05200186371803284 -0.01107020489871502 0.00026824139058589935 0 0 0 0
2501240596 -0.04760948568582535 -0.026619143784046173 -0.011452051810920238 0.002202048897743225 0 0 0 0
2504962680 -0.028364883735775948 -0.004814435727894306 -0.011333630420267582 0.0043204426765441895 0 0 0 0
2508684764 -0.007007240317761898 0.013648497872054577 -0.010613339021801949 0.006498346105217934 0 0 0 0
2512406848 0.016407106071710587 0.02847285196185112 -0.009058626368641853 0.008499138057231903 0 0 0 0
2516128932 0.041395630687475204 0.04097208380699158 -0.0074630556628108025 0.00973475817590952 0 0 0 0
2519851016 0.0692940503358841 0.049282100051641464 -0.0056201498955488205 0.010621318593621254 0 0 0 0
2523573100 0.0984819307923317 0.052330583333969116 -0.003928950987756252 0.011092884466052055 0 0 0 0
2527295184 0.12822838127613068 0.05103400722146034 -0.0022197915241122246 0.011425240896642208 0 0 0 0
2531017268 0.15724480152130127 0.041943203657865524 -0.0003625648096203804 0.011610930785536766 0 0 0 0
2534739352 0.18197017908096313 0.03178901970386505 0.0014019133523106575 0.011534779332578182 0 0 0 0
2538461436 0.20540805160999298 0.016303710639476776 0.003249291330575943 0.010975056327879429 0 0 0 0
2542183520 0.2241632044315338 -0.0036055296659469604 0.0048960112035274506 0.010154015384614468 0 0 0 0
2545905604 0.24098290503025055 -0.021967392414808273 0.00637187622487545 0.00923929549753666 0 0 0 0
2549627688 0.2536911964416504 -0.04286413639783859 0.007601290009915829 0.008168911561369896 0 0 0 0
2553349772 0.2636001706123352 -0.06614325940608978 0.009144575335085392 0.0068024201318621635 0 0 0 0
2557071856 0.2701874375343323 -0.09264353662729263 0.010107685811817646 0.00508876983076334 0 0 0 0
2560793940 0.2711789608001709 -0.11483857780694962 0.010765692219138145 0.0032169073820114136 0 0 0 0
2564516024 0.2696395814418793 -0.1401008814573288 0.011031064204871655 0.0016925586387515068 0 0 0 0
2568238108 0.26677361130714417 -0.15951697528362274 0.011470546945929527 -5.4661184549331665e-05 0 0 0 0
2571960192 0.2550651729106903 -0.18477661907672882 0.01172151230275631 -0.002219323068857193 0 0 0 0
2575682276 0.2428993284702301 -0.2057534009218216 0.011593430303037167 -0.004347335547208786 0 0 0 0
2579404360 0.2314540147781372 -0.21905837953090668 0.010913113132119179 -0.0066229719668626785 0 0 0 0
2583126444 0.21578992903232574 -0.23328644037246704 0.009617309086024761 -0.008982286788523197 0 0 0 0
2586848528 0.200701504945755 -0.24376150965690613 0.0076678963378071785 -0.011038217693567276 0 0 0 0
2590570612 0.18147771060466766 -0.25565969944000244 0.0049348073080182076 -0.01248369924724102 0 0 0 0
2594292696 0.16600321233272552 -0.2609580159187317 0.0020482605323195457 -0.01295333169400692 0 0 0 0
2598014780 0.14547494053840637 -0.2678949236869812 -0.0004733940586447716 -0.012696516700088978 0 0 0 0
2601736864 0.12769225239753723 -0.2683677077293396 -0.0027883965522050858 -0.011949893087148666 0 0 0 0
2605458948 0.10789928585290909 -0.2693043053150177 -0.004768376238644123 -0.010588154196739197 0 0 0 0
2609181032 0.08815287053585052 -0.26631414890289307 -0.005962173454463482 -0.009219727478921413 0 0 0 0
2612903116 0.06616826355457306 -0.26091060042381287 -0.006780584342777729 -0.007812458090484142 0 0 0 0
2616625200 0.047135040163993835 -0.24984976649284363 -0.007382783107459545 -0.006675979122519493 0 0 0 0
2620347284 0.03424966707825661 -0.2367081195116043 -0.00771478284150362 -0.00546032190322876 0 0 0 0
2624069368 0.019978651776909828 -0.21973812580108643 -0.008077697828412056 -0.004377773962914944 0 0 0 0
2627791452 0.009002119302749634 -0.20123177766799927 -0.008055993355810642 -0.004226136952638626 0 0 0 0
2631513536 0.004728645086288452 -0.18139156699180603 -0.008573473431169987 -0.0037198280915617943 0 0 0 0
2635235620 0.002076217904686928 -0.1625145971775055 -0.009483249858021736 -0.0027709929272532463 0 0 0 0
2638957704 0.004934845492243767 -0.14414654672145844 -0.010245651006698608 -0.0013112034648656845 0 0 0 0
2642679788 0.009103871881961823 -0.12502197921276093 -0.010652563534677029 0.00032917410135269165 0 0 0 0
2646401872 0.018557894974946976 -0.10981705784797668 -0.01074356772005558 0.0020852582529187202 0 0 0 0
2650123956 0.029482997953891754 -0.09602063149213791 -0.010433720424771309 0.00403285026550293 0 0 0 0
2653846040 0.04429131746292114 -0.08412688225507736 -0.009503939189016819 0.005857598967850208 0 0 0 0
2657568124 0.05820566415786743 -0.07747447490692139 -0.00796195212751627 0.007412775419652462 0 0 0 0
2661290208 0.07570306211709976 -0.0739779993891716 -0.00653902068734169 0.008549648337066174 0 0 0 0
2665012292 0.09262406080961227 -0.07352987676858902 -0.004961567930877209 0.009503668174147606 0 0 0 0
2668734376 0.10653327405452728 -0.0781533271074295 -0.003202986903488636 0.010195194743573666 0 0 0 0
2672456460 0.11987694352865219 -0.08611111342906952 -0.0008805794641375542 0.010623566806316376 0 0 0 0
2676178544 0.13089747726917267 -0.0958450436592102 0.0015497775748372078 0.010390830226242542 0 0 0 0
2679900628 0.1397579312324524 -0.10720418393611908 0.003637149930000305 0.00941344816237688 0 0 0 0
2683622712 0.14465764164924622 -0.12014852464199066 0.005265990272164345 0.007760108448565006 0 0 0 0
2687344796 0.14724232256412506 -0.1339656412601471 0.006447717547416687 0.006098187528550625 0 0 0 0
2691066880 0.14542922377586365 -0.14869146049022675 0.006983204744756222 0.004430234432220459 0 0 0 0
2694788964 0.14129874110221863 -0.16052255034446716 0.007304515689611435 0.0030961893498897552 0 0 0 0
2698511048 0.13483926653862 -0.17197036743164062 0.0074774762615561485 0.0016294177621603012 0 0 0 0
2702233132 0.12709452211856842 -0.1813025027513504 0.007588816806674004 2.8328970074653625e-05 0 0 0 0
2705955216 0.11741487681865692 -0.18930071592330933 0.007365000434219837 -0.0017305435612797737 0 0 0 0
2709677300 0.10506711900234222 -0.19754564762115479 0.006360593251883984 -0.003012819215655327 0 0 0 0
2713399384 0.09302936494350433 -0.20151367783546448 0.005387076176702976 -0.003918951377272606 0 0 0 0
2717121468 0.0784575417637825 -0.20270900428295135 0.004460631869733334 -0.004592460580170155 0 0 0 0
2720843552 0.06347018480300903 -0.2014273703098297 0.0038324128836393356 -0.005207560025155544 0 0 0 0
2724565636 0.04931814968585968 -0.19746628403663635 0.002923770807683468 -0.005804222077131271 0 0 0 0
2728287720 0.03425300866365433 -0.19092659652233124 0.0017624050378799438 -0.006326303817331791 0 0 0 0
2732009804 0.021898970007896423 -0.18166324496269226 0.0002025822177529335 -0.006629990413784981 0 0 0 0
2735731888 0.010489992797374725 -0.17115384340286255 -0.0010596001520752907 -0.006320428103208542 0 0 0 0
2739453972 0.0026327017694711685 -0.15808038413524628 -0.0023412127047777176 -0.005615676753222942 0 0 0 0
2743176056 -0.0056418608874082565 -0.14296604692935944 -0.003122905269265175 -0.00481893215328455 0 0 0 0
2746898140 -0.012753619812428951 -0.12586350739002228 -0.0035009412094950676 -0.0037740617990493774 0 0 0 0
2750620224 -0.013820946216583252 -0.10756570100784302 -0.0034748921170830727 -0.0031893299892544746 0 0 0 0
2754342308 -0.012518104165792465 -0.08824833482503891 -0.003685333766043186 -0.0030087437480688095 0 0 0 0
2758064392 -0.007856081239879131 -0.0698135569691658 -0.004249873571097851 -0.0027729040011763573 0 0 0 0
2761786476 0.0005431603640317917 -0.052582696080207825 -0.005090693011879921 -0.0020963046699762344 0 0 0 0
2765508560 0.01038521807640791 -0.03589694947004318 -0.005584727972745895 -0.0010541509836912155 0 0 0 0
2769230644 0.022746536880731583 -0.02079787850379944 -0.005764400586485863 0.0005038948729634285 0 0 0 0
2772952728 0.038454897701740265 -0.006056830286979675 -0.00549814198166132 0.0017887754365801811 0 0 0 0
2776674812 0.05790184438228607 0.005329230800271034 -0.004617877304553986 0.0030587324872612953 0 0 0 0
2780396896 0.08000566810369492 0.012981854379177094 -0.0036557000130414963 0.003966563381254673 0 0 0 0
2784118980 0.10280278325080872 0.017583779990673065 -0.0023596780374646187 0.004501934163272381 0 0 0 0
2787841064 0.12619665265083313 0.01662513241171837 -0.0011901278048753738 0.004778890870511532 0 0 0 0
2791563148 0.14965006709098816 0.010761503130197525 0.00016841571778059006 0.004683122970163822 0 0 0 0
2795285232 0.17131488025188446 0.004938071593642235 0.0013574464246630669 0.004231063649058342 0 0 0 0
2799007316 0.19236359000205994 -0.007435649633407593 0.0024309195578098297 0.003558649681508541 0 0 0 0
2802729400 0.21298369765281677 -0.02228434383869171 0.003251461312174797 0.002593155950307846 0 0 0 0
2806451484 0.22864453494548798 -0.03912308067083359 0.0034401677548885345 0.0015822257846593857 0 0 0 0
2810173568 0.24302223324775696 -0.059599868953228 0.0035282643511891365 0.0006808247417211533 0 0 0 0
2813895652 0.25433433055877686 -0.08271035552024841 0.0033750729635357857 -6.882473826408386e-05 0 0 0 0
2817617736 0.26006990671157837 -0.10870800167322159 0.0033205896615982056 -0.0007156115025281906 0 0 0 0
2821339820 0.2637966573238373 -0.13270416855812073 0.0030929548665881157 -0.0013444200158119202 0 0 0 0
2825061904 0.26298075914382935 -0.15813064575195312 0.0025623468682169914 -0.0017973892390727997 0 0 0 0
2828783988 0.25622665882110596 -0.18361768126487732 0.002243424765765667 -0.0020461352542042732 0 0 0 0
2832506072 0.2496752142906189 -0.20621486008167267 0.0020027682185173035 -0.002237105742096901 0 0 0 0
2836228156 0.23697838187217712 -0.2288760542869568 0.0017115920782089233 -0.002567899413406849 0 0 0 0
2839950240 0.2230614274740219 -0.24935558438301086 0.0014115236699581146 -0.002926344983279705 0 0 0 0
2843672324 0.20494885742664337 -0.26679760217666626 0.0010584713891148567 -0.003193543292582035 0 0 0 0
2847394408 0.18777453899383545 -0.27960726618766785 0.000697069801390171 -0.00349237397313118 0 0 0 0
2851116492 0.16647697985172272 -0.29618871212005615 0.0002180086448788643 -0.003649425692856312 0 0 0 0
2854838576 0.1455913782119751 -0.3052709698677063 -0.00023190118372440338 -0.0038702748715877533 0 0 0 0
2858560660 0.12917032837867737 -0.31274932622909546 -0.0008200490847229958 -0.004511559382081032 0 0 0 0
2862282744 0.09592321515083313 -0.31943008303642273 -0.0018937410786747932 -0.0043183183297514915 0 0 0 0
2866004828 0.07935181260108948 -0.31875327229499817 -0.0028115417808294296 -0.00386988278478384 0 0 0 0
2869726912 0.05664009228348732 -0.31768617033958435 -0.0033146636560559273 -0.0032770326361060143 0 0 0 0
2873448996 0.029448553919792175 -0.31401532888412476 -0.0038446253165602684 -0.0023428453132510185 0 0 0 0
2877171080 0.004199370741844177 -0.3062191307544708 -0.003948059864342213 -0.001545572653412819 0 0 0 0
2880893164 -0.01302628219127655 -0.29771193861961365 -0.0039525581523776054 -0.000824199989438057 0 0 0 0
2884615248 -0.03871024399995804 -0.28260424733161926 -0.003927207551896572 -8.723698556423187e-05 0 0 0 0
2888337332 -0.05956064909696579 -0.26718786358833313 -0.003673730418086052 0.0005028955638408661 0 0 0 0
2892059416 -0.0740741640329361 -0.2495582401752472 -0.0035402346402406693 0.001286557875573635 0 0 0 0
2895781500 -0.09122289717197418 -0.2288009524345398 -0.0031244466081261635 0.0019185664132237434 0 0 0 0
2899503584 -0.10118339210748672 -0.2074122428894043 -0.0025801220908761024 0.0023856833577156067 0 0 0 0
2903225668 -0.1142461746931076 -0.18149660527706146 -0.0020250873640179634 0.002917843870818615 0 0 0 0
2906947752 -0.11831893771886826 -0.1581781506538391 -0.0013799713924527168 0.003258037380874157 0 0 0 0
2910669836 -0.12291933596134186 -0.13070467114448547 -0.0007025990635156631 0.003329669125378132 0 0 0 0
2914391920 -0.12244442105293274 -0.10316823422908783 -6.500445306301117e-05 0.003432348370552063 0 0 0 0
2918114004 -0.11684499680995941 -0.07672933489084244 0.0004446273669600487 0.00363111961632967 0 0 0 0
2921836088 -0.10794901102781296 -0.05279494449496269 0.0011538052931427956 0.003636300563812256 0 0 0 0
2925558172 -0.09768404066562653 -0.028927497565746307 0.0020333947613835335 0.0034121591597795486 0 0 0 0
2929280256 -0.08424346894025803 -0.007588833570480347 0.002794899046421051 0.002933991141617298 0 0 0 0
2933002340 -0.0683421790599823 0.012364692986011505 0.0033514993265271187 0.0024865278974175453 0 0 0 0
2936724424 -0.050115782767534256 0.030844300985336304 0.0036830175668001175 0.0018647043034434319 0 0 0 0
2940446508 -0.029014382511377335 0.04599639028310776 0.004082094877958298 0.0013101361691951752 0 0 0 0
2944168592 -0.0069157034158706665 0.05822553113102913 0.004152816720306873 0.0006016818806529045 0 0 0 0
2947890676 0.016853079199790955 0.06831302493810654 0.00431938748806715 0.00010919477790594101 0 0 0 0
2951612760 0.041722238063812256 0.07547614723443985 0.004233332350850105 -0.0003351746127009392 0 0 0 0
2955334844 0.06750167906284332 0.07921474426984787 0.004392670467495918 -0.0010165385901927948 0 0 0 0
2959056928 0.09395734965801239 0.07946087419986725 0.004422459751367569 -0.0015970692038536072 0 0 0 0
2962779012 0.12093404680490494 0.07516992837190628 0.004410991445183754 -0.0023474330082535744 0 0 0 0
2966501096 0.14645057916641235 0.07018665969371796 0.004049035720527172 -0.0027972180396318436 0 0 0 0
2970223180 0.17148271203041077 0.05797451734542847 0.0036763567477464676 -0.0036345431581139565 0 0 0 0
2973945264 0.19374984502792358 0.042965419590473175 0.00306125171482563 -0.004211303777992725 0 0 0 0
2977667348 0.2142917662858963 0.026702620089054108 0.0025124410167336464 -0.004653102718293667 0 0 0 0
2981389432 0.2322741001844406 0.005622953176498413 0.0016843341290950775 -0.00508476234972477 0 0 0 0
2985111516 0.24549302458763123 -0.016680113971233368 0.000778472051024437 -0.005230246111750603 0 0 0 0
2988833600 0.2562659680843353 -0.03888415917754173 -0.00016029458492994308 -0.0054186005145311356 0 0 0 0
2992555684 0.26379483938217163 -0.06432552635669708 -0.001277419738471508 -0.005176634527742863 0 0 0 0
2996277768 0.2668325901031494 -0.08697034418582916 -0.002190948463976383 -0.004843863658607006 0 0 0 0
2999999852 0.2679806649684906 -0.11026008427143097 -0.00282999686896801 -0.0039813462644815445 0 0 0 0
