# HZ S RI R 50
1500000000 -0.01790836825966835 -0.04418926313519478 0.03183261677622795 -0.02268894948065281 0 0 0 0
1503722084 -0.007153889164328575 -0.034840069711208344 0.027594957500696182 -0.027667568996548653 0 0 0 0
1507444168 0.006747506558895111 -0.02688927948474884 0.022817252203822136 -0.031168341636657715 0 0 0 0
1511166252 0.022267550230026245 -0.020091421902179718 0.018440868705511093 -0.03413994982838631 0 0 0 0
1514888336 0.04086718708276749 -0.014422658830881119 0.01346983015537262 -0.03764515742659569 0 0 0 0
1518610420 0.060770150274038315 -0.012328499928116798 0.006374545395374298 -0.040511149913072586 0 0 0 0
1522332504 0.08095140010118484 -0.01220426894724369 -0.0016886601224541664 -0.041126690804958344 0 0 0 0
1526054588 0.10267177224159241 -0.012415938079357147 -0.009255948476493359 -0.03934326022863388 0 0 0 0
1529776672 0.12625300884246826 -0.01713646575808525 -0.015792351216077805 -0.035498566925525665 0 0 0 0
1533498756 0.1515505462884903 -0.02475753426551819 -0.02083132416009903 -0.03148845583200455 0 0 0 0
1537220840 0.17653250694274902 -0.03565691411495209 -0.02494344674050808 -0.02691691927611828 0 0 0 0
1540942924 0.20321239531040192 -0.05231599509716034 -0.028349507600069046 -0.02156231366097927 0 0 0 0
1544665008 0.22817516326904297 -0.07440069317817688 -0.030573101714253426 -0.016146812587976456 0 0 0 0
1548387092 0.24967510998249054 -0.10354683548212051 -0.03208601102232933 -0.010468223132193089 0 0 0 0
1552109176 0.26685991883277893 -0.1357608437538147 -0.0321982316672802 -0.004625460132956505 0 0 0 0
1555831260 0.27977246046066284 -0.17089010775089264 -0.03120952844619751 0.0009675165638327599 0 0 0 0
1559553344 0.2857365012168884 -0.21012242138385773 -0.029253266751766205 0.005918283946812153 0 0 0 0
1563275428 0.2850536108016968 -0.250400185585022 -0.026515671983361244 0.009952652268111706 0 0 0 0
1566997512 0.28058308362960815 -0.289631724357605 -0.023342814296483994 0.013458959758281708 0 0 0 0
1570719596 0.269570529460907 -0.3278537690639496 -0.019780945032835007 0.016155211254954338 0 0 0 0
1574441680 0.2536355257034302 -0.3653753101825714 -0.01599154621362686 0.01788184978067875 0 0 0 0
1578163764 0.2337975800037384 -0.40205565094947815 -0.012252530083060265 0.018644172698259354 0 0 0 0
1581885848 0.20465460419654846 -0.4402352273464203 -0.00875770766288042 0.01882319338619709 0 0 0 0
1585607932 0.17306628823280334 -0.47339335083961487 -0.006033031269907951 0.01849531941115856 0 0 0 0
1589330016 0.13346236944198608 -0.5021472573280334 -0.0036832625046372414 0.01783602498471737 0 0 0 0
1593052100 0.08410131931304932 -0.5255402326583862 -0.0016044629737734795 0.01702824793756008 0 0 0 0
1596774184 0.035400137305259705 -0.5403790473937988 -8.071772754192352e-05 0.016549620777368546 0 0 0 0
1600496268 -0.016650617122650146 -0.54659503698349 0.0014889826998114586 0.016216741874814034 0 0 0 0
1604218352 -0.06721358001232147 -0.5480904579162598 0.003240283578634262 0.016159512102603912 0 0 0 0
1607940436 -0.12252601981163025 -0.5406253933906555 0.005339480936527252 0.015566946938633919 0 0 0 0
1611662520 -0.17920514941215515 -0.5270906090736389 0.0075686415657401085 0.014872105792164803 0 0 0 0
1615384604 -0.2330733835697174 -0.5036750435829163 0.009635276161134243 0.013560138642787933 0 0 0 0
1619106688 -0.28634124994277954 -0.47202372550964355 0.01174478605389595 0.011952020227909088 0 0 0 0
1622828772 -0.33399680256843567 -0.4302978217601776 0.01336754858493805 0.009914850816130638 0 0 0 0
1626550856 -0.3755210041999817 -0.3841022253036499 0.014739716425538063 0.007544307038187981 0 0 0 0
1630272940 -0.4124797582626343 -0.3238217532634735 0.015563398599624634 0.004922519437968731 0 0 0 0
1633995024 -0.4399424195289612 -0.2611578404903412 0.015910176560282707 0.0022837212309241295 0 0 0 0
1637717108 -0.45693716406822205 -0.19509229063987732 0.015902668237686157 -0.0002586040645837784 0 0 0 0
1641439192 -0.46471792459487915 -0.12167118489742279 0.01550484448671341 -0.002982155419886112 0 0 0 0
1645161276 -0.460518479347229 -0.04893855005502701 0.014507443644106388 -0.005940049886703491 0 0 0 0
1648883360 -0.44485512375831604 0.027104690670967102 0.012462246231734753 -0.008340219967067242 0 0 0 0
1652605444 -0.4151315689086914 0.1021096333861351 0.01015398558229208 -0.009739842265844345 0 0 0 0
1656327528 -0.3739505112171173 0.17066195607185364 0.007884382270276546 -0.010393751785159111 0 0 0 0
1660049612 -0.32075995206832886 0.2308414876461029 0.006370466202497482 -0.010590337216854095 0 0 0 0
1663771696 -0.25516754388809204 0.28355953097343445 0.00498653668910265 -0.01136098988354206 0 0 0 0
1667493780 -0.18478161096572876 0.3243030905723572 0.002917768433690071 -0.012039910070598125 0 0 0 0
1671215864 -0.10685694217681885 0.35435011982917786 0.0010032467544078827 -0.011808270588517189 0 0 0 0
1674937948 -0.02328544855117798 0.3724081814289093 -0.000848451629281044 -0.011584687978029251 0 0 0 0
1678660032 0.06210343539714813 0.37618306279182434 -0.003004283644258976 -0.01108255423605442 0 0 0 0
1682382116 0.1459517627954483 0.36588773131370544 -0.004784088581800461 -0.00974961742758751 0 0 0 0
1686104200 0.22785833477973938 0.3406899571418762 -0.005991576239466667 -0.008159447461366653 0 0 0 0
1689826284 0.3048624098300934 0.30298787355422974 -0.006607556715607643 -0.006514403037726879 0 0 0 0
1693548368 0.373990923166275 0.2537641227245331 -0.0069761741906404495 -0.0049063703045248985 0 0 0 0
1697270452 0.432399719953537 0.19494663178920746 -0.0069305747747421265 -0.003339223563671112 0 0 0 0
1700992536 0.4831222891807556 0.12802577018737793 -0.006445576436817646 -0.002174943685531616 0 0 0 0
1704714620 0.5201789140701294 0.05470892786979675 -0.005754844285547733 -0.0011266907677054405 0 0 0 0
1708436704 0.5467128753662109 -0.021852076053619385 -0.004931038245558739 -0.0007953112944960594 0 0 0 0
1712158788 0.5605745315551758 -0.10287180542945862 -0.004356252029538155 -0.0010638749226927757 0 0 0 0
1715880872 0.5618523359298706 -0.1820744276046753 -0.004323982633650303 -0.00116655882447958 0 0 0 0
1719602956 0.5485063791275024 -0.2610679864883423 -0.004554535262286663 -0.0011138124391436577 0 0 0 0
1723325040 0.5242626070976257 -0.33954763412475586 -0.004826577380299568 -0.0010087871924042702 0 0 0 0
1727047124 0.4958348572254181 -0.40335530042648315 -0.005087144672870636 -0.0008104238659143448 0 0 0 0
1730769208 0.4496479034423828 -0.4692613482475281 -0.005273990333080292 -0.00038685742765665054 0 0 0 0
1734491292 0.3979324698448181 -0.5245530605316162 -0.005667243152856827 0.00021351315081119537 0 0 0 0
1738213376 0.33746349811553955 -0.5716453194618225 -0.005552167072892189 0.00087784044444561 0 0 0 0
1741935460 0.27177098393440247 -0.6090744137763977 -0.005557345226407051 0.0011414429172873497 0 0 0 0
1745657544 0.20457473397254944 -0.6353248953819275 -0.005874577909708023 0.0014225561171770096 0 0 0 0
1749379628 0.13213545083999634 -0.6484782695770264 -0.006277315318584442 0.0021496908739209175 0 0 0 0
1753101712 0.06111526116728783 -0.6515318155288696 -0.006478113122284412 0.0028453972190618515 0 0 0 0
1756823796 -0.01147402822971344 -0.6443930864334106 -0.006839355453848839 0.003825741820037365 0 0 0 0
1760545880 -0.07965253293514252 -0.6264598369598389 -0.006867985241115093 0.0053343391045928 0 0 0 0
1764267964 -0.1414092779159546 -0.5972760915756226 -0.006532700732350349 0.0071280337870121 0 0 0 0
1767990048 -0.20189763605594635 -0.559756338596344 -0.005218504928052425 0.008990856818854809 0 0 0 0
1771712132 -0.2511262595653534 -0.5162169337272644 -0.003268715925514698 0.00992918387055397 0 0 0 0
1775434216 -0.29403752088546753 -0.4650307297706604 -0.0016377344727516174 0.010223747231066227 0 0 0 0
1779156300 -0.3258187472820282 -0.41107285022735596 -0.00023038778454065323 0.010262565687298775 0 0 0 0
1782878384 -0.3517477512359619 -0.3518035411834717 0.0008261306211352348 0.010226358659565449 0 0 0 0
1786600468 -0.3676028549671173 -0.291048526763916 0.0016419300809502602 0.010422321036458015 0 0 0 0
1790322552 -0.375827819108963 -0.22804003953933716 0.0028879838064312935 0.011245718225836754 0 0 0 0
1794044636 -0.3738890290260315 -0.16619953513145447 0.004987842403352261 0.011816084384918213 0 0 0 0
1797766720 -0.36229583621025085 -0.10446431487798691 0.007399995811283588 0.011398696340620518 0 0 0 0
1801488804 -0.34124037623405457 -0.04754597693681717 0.009447713382542133 0.01071714423596859 0 0 0 0
1805210888 -0.31363511085510254 0.0032598376274108887 0.01138459611684084 0.009637213312089443 0 0 0 0
1808932972 -0.27884775400161743 0.05297388508915901 0.013593573123216629 0.008669396862387657 0 0 0 0
1812655056 -0.2375360131263733 0.09443916380405426 0.01597720757126808 0.0069434382021427155 0 0 0 0
1816377140 -0.19132685661315918 0.1287851333618164 0.018147043883800507 0.004604588262736797 0 0 0 0
1820099224 -0.1386999487876892 0.1568022221326828 0.020237328484654427 0.0012707961723208427 0 0 0 0
1823821308 -0.08471903204917908 0.17416596412658691 0.021775811910629272 -0.0029904330149292946 0 0 0 0
1827543392 -0.026793673634529114 0.18386439979076385 0.021669620648026466 -0.007688719779253006 0 0 0 0
1831265476 0.02875225618481636 0.18320506811141968 0.02093423902988434 -0.012194521725177765 0 0 0 0
1834987560 0.08400120586156845 0.17233780026435852 0.018825281411409378 -0.017314821481704712 0 0 0 0
1838709644 0.13462816178798676 0.15506625175476074 0.014774303883314133 -0.02183026261627674 0 0 0 0
1842431728 0.18118353188037872 0.12991094589233398 0.009995252825319767 -0.02447650209069252 0 0 0 0
1846153812 0.22263260185718536 0.09808296710252762 0.00515618734061718 -0.02583824098110199 0 0 0 0
1849875896 0.2571418583393097 0.05926544964313507 0.0002393685281276703 -0.02648307755589485 0 0 0 0
1853597980 0.2841635048389435 0.01694825291633606 -0.004679487086832523 -0.026290729641914368 0 0 0 0
1857320064 0.3029831051826477 -0.026609301567077637 -0.009214075282216072 -0.02514645829796791 0 0 0 0
1861042148 0.31383049488067627 -0.07219917327165604 -0.013357414864003658 -0.023342687636613846 0 0 0 0
1864764232 0.31780940294265747 -0.11719795316457748 -0.017278799787163734 -0.021400820463895798 0 0 0 0
1868486316 0.3124878406524658 -0.16322599351406097 -0.021297942847013474 -0.01854434609413147 0 0 0 0
1872208400 0.3004916310310364 -0.204736590385437 -0.0250252615660429 -0.014827895909547806 0 0 0 0
1875930484 0.28270938992500305 -0.24265708029270172 -0.027546351775527 -0.009811082854866982 0 0 0 0
1879652568 0.25807490944862366 -0.27528780698776245 -0.029523348435759544 -0.004032899625599384 0 0 0 0
1883374652 0.2289862185716629 -0.30254948139190674 -0.03027557022869587 0.0020054345950484276 0 0 0 0
1887096736 0.1978292465209961 -0.32341232895851135 -0.029232051223516464 0.00832449086010456 0 0 0 0
1890818820 0.16321560740470886 -0.3376745283603668 -0.02669411525130272 0.013693534769117832 0 0 0 0
1894540904 0.13052606582641602 -0.3461107015609741 -0.02333655208349228 0.018101338297128677 0 0 0 0
1898262988 0.09767290949821472 -0.3491693139076233 -0.01968371868133545 0.02134922333061695 0 0 0 0
1901985072 0.0643823966383934 -0.3477550446987152 -0.015916183590888977 0.02411651611328125 0 0 0 0
1905707156 0.03141438961029053 -0.3386702239513397 -0.011966777965426445 0.026384517550468445 0 0 0 0
1909429240 0.004358165897428989 -0.3269686996936798 -0.007618212141096592 0.028399772942066193 0 0 0 0
1913151324 -0.022445283830165863 -0.3097750246524811 -0.0027675339952111244 0.030091820284724236 0 0 0 0
1916873408 -0.04425698518753052 -0.2894620895385742 0.0025491928681731224 0.03101171739399433 0 0 0 0
1920595492 -0.06236341595649719 -0.2644107937812805 0.008825439028441906 0.030862201005220413 0 0 0 0
1924317576 -0.07440948486328125 -0.23767882585525513 0.014951827004551888 0.029085732996463776 0 0 0 0
1928039660 -0.08299888670444489 -0.21060870587825775 0.02123037539422512 0.026113908737897873 0 0 0 0
1931761744 -0.08632044494152069 -0.18245404958724976 0.02684134431183338 0.021192410960793495 0 0 0 0
1935483828 -0.08368386328220367 -0.1535206437110901 0.03132571280002594 0.014186322689056396 0 0 0 0
1939205912 -0.07725122570991516 -0.12558144330978394 0.032660067081451416 0.006405140273272991 0 0 0 0
1942927996 -0.06530116498470306 -0.0986303836107254 0.03190037980675697 -0.0005560917779803276 0 0 0 0
1946650080 -0.04871886968612671 -0.07652729004621506 0.02988600544631481 -0.006463862955570221 0 0 0 0
1950372164 -0.02853274717926979 -0.05726300925016403 0.02745138667523861 -0.01132295187562704 0 0 0 0
1954094248 -0.004956807941198349 -0.04138633608818054 0.024405907839536667 -0.015698861330747604 0 0 0 0
1957816332 0.02193528227508068 -0.03136401250958443 0.020968733355402946 -0.01982015371322632 0 0 0 0
1961538416 0.04951450973749161 -0.02643154188990593 0.01661830022931099 -0.023388992995023727 0 0 0 0
1965260500 0.07721218466758728 -0.02751072123646736 0.011346015147864819 -0.0258103646337986 0 0 0 0
1968982584 0.10339672118425369 -0.03330598771572113 0.006377572193741798 -0.02693042904138565 0 0 0 0
1972704668 0.12727347016334534 -0.044255442917346954 0.0006239926442503929 -0.027049461379647255 0 0 0 0
1976426752 0.14842218160629272 -0.05908079072833061 -0.0044030360877513885 -0.02587212063372135 0 0 0 0
1980148836 0.16629649698734283 -0.0757862776517868 -0.00895874947309494 -0.023935073986649513 0 0 0 0
1983870920 0.18234257400035858 -0.09574946761131287 -0.012977358885109425 -0.021535195410251617 0 0 0 0
1987593004 0.19342151284217834 -0.12053683400154114 -0.016718734055757523 -0.01822695881128311 0 0 0 0
1991315088 0.2014128565788269 -0.1454717069864273 -0.01940310001373291 -0.01450472604483366 0 0 0 0
1995037172 0.20098568499088287 -0.1728280633687973 -0.020990870893001556 -0.0097552090883255 0 0 0 0
1998759256 0.19636796414852142 -0.1977117955684662 -0.02098909392952919 -0.005575415678322315 0 0 0 0
2002481340 0.1869932860136032 -0.22061876952648163 -0.020335741341114044 -0.002333897165954113 0 0 0 0
2006203424 0.17448614537715912 -0.24094270169734955 -0.01995914801955223 0.00032304413616657257 0 0 0 0
2009925508 0.1573624312877655 -0.2604472041130066 -0.019595330581068993 0.0032658344134688377 0 0 0 0
2013647592 0.13998094201087952 -0.2740515172481537 -0.01841401867568493 0.005632004700601101 0 0 0 0
2017369676 0.11702149361371994 -0.28705713152885437 -0.01697530224919319 0.008126242086291313 0 0 0 0
2021091760 0.09631726890802383 -0.2941843271255493 -0.01562618836760521 0.010093221440911293 0 0 0 0
2024813844 0.0723947212100029 -0.2981158494949341 -0.014505196362733841 0.012179858982563019 0 0 0 0
2028535928 0.047906387597322464 -0.29821962118148804 -0.013685944490134716 0.014439579099416733 0 0 0 0
2032258012 0.021971382200717926 -0.2946527898311615 -0.011696204543113708 0.017302334308624268 0 0 0 0
2035980096 -0.0018328502774238586 -0.28627291321754456 -0.008665863424539566 0.01932196505367756 0 0 0 0
2039702180 -0.024130620062351227 -0.27536845207214355 -0.004985921084880829 0.021161073818802834 0 0 0 0
2043424264 -0.044222403317689896 -0.25810110569000244 -0.0010252417996525764 0.021623771637678146 0 0 0 0
2047146348 -0.06218944489955902 -0.23985588550567627 0.00277907308191061 0.021259795874357224 0 0 0 0
2050868432 -0.07768721878528595 -0.216405987739563 0.006131253205239773 0.02029181458055973 0 0 0 0
2054590516 -0.0879841074347496 -0.1915314942598343 0.008541446179151535 0.01890270598232746 0 0 0 0
2058312600 -0.09440084546804428 -0.16560015082359314 0.011327368207275867 0.017761442810297012 0 0 0 0
2062034684 -0.09896109998226166 -0.13785643875598907 0.014703121036291122 0.016050033271312714 0 0 0 0
2065756768 -0.09914609789848328 -0.10889928042888641 0.01781558431684971 0.013818745501339436 0 0 0 0
2069478852 -0.09330302476882935 -0.0783032476902008 0.02057831361889839 0.010488312691450119 0 0 0 0
2073200936 -0.08154203742742538 -0.04966648295521736 0.02235560491681099 0.006153675727546215 0 0 0 0
2076923020 -0.06567550450563431 -0.022697603330016136 0.023145850747823715 0.001611446961760521 0 0 0 0
2080645104 -0.04480385407805443 0.0016144849359989166 0.023046303540468216 -0.003193863667547703 0 0 0 0
2084367188 -0.019879736006259918 0.023048508912324905 0.021412819623947144 -0.008294696919620037 0 0 0 0
2088089272 0.009580198675394058 0.04032570496201515 0.01819208264350891 -0.011831142008304596 0 0 0 0
2091811356 0.04150768369436264 0.05096942558884621 0.014712167903780937 -0.014449156820774078 0 0 0 0
2095533440 0.07376636564731598 0.056256264448165894 0.011233456432819366 -0.015992483124136925 0 0 0 0
2099255524 0.10666260123252869 0.05720443278551102 0.008055237121880054 -0.016730032861232758 0 0 0 0
2102977608 0.13990171253681183 0.05331042408943176 0.005387060344219208 -0.016498077660799026 0 0 0 0
2106699692 0.17213240265846252 0.042932573705911636 0.003209543414413929 -0.01622338965535164 0 0 0 0
2110421776 0.20264583826065063 0.02730875089764595 0.0013345293700695038 -0.01668400876224041 0 0 0 0
2114143860 0.23062929511070251 0.006166927516460419 -0.0006963955238461494 -0.017258217558264732 0 0 0 0
2117865944 0.25372374057769775 -0.0203452929854393 -0.003900882788002491 -0.017756925895810127 0 0 0 0
2121588028 0.27094778418540955 -0.04795067757368088 -0.0074147554114460945 -0.017301082611083984 0 0 0 0
2125310112 0.282917857170105 -0.07816702127456665 -0.01078695897012949 -0.01562647335231304 0 0 0 0
2129032196 0.2893192768096924 -0.11098404228687286 -0.013545174151659012 -0.01346657145768404 0 0 0 0
2132754280 0.2915753126144409 -0.1412041187286377 -0.016144804656505585 -0.010489963926374912 0 0 0 0
2136476364 0.2880032956600189 -0.1722935140132904 -0.01806148886680603 -0.006995226256549358 0 0 0 0
2140198448 0.28057658672332764 -0.20193789899349213 -0.018854504451155663 -0.0029229996725916862 0 0 0 0
2143920532 0.26923811435699463 -0.22835363447666168 -0.018326371908187866 0.0007656151428818703 0 0 0 0
2147642616 0.25280386209487915 -0.2538032531738281 -0.017197836190462112 0.003490709699690342 0 0 0 0
2151364700 0.23591558635234833 -0.27577513456344604 -0.016302958130836487 0.006012320518493652 0 0 0 0
2155086784 0.2117493748664856 -0.2937850058078766 -0.015070008113980293 0.00875990279018879 0 0 0 0
2158808868 0.1885872185230255 -0.30682480335235596 -0.013571362011134624 0.010915426537394524 0 0 0 0
2162530952 0.16178053617477417 -0.31791532039642334 -0.011644583195447922 0.013280768878757954 0 0 0 0
2166253036 0.1370524764060974 -0.3234643042087555 -0.009230706840753555 0.015214758925139904 0 0 0 0
2169975120 0.10971497744321823 -0.32668501138687134 -0.006182758137583733 0.016683384776115417 0 0 0 0
2173697204 0.08677680790424347 -0.3258179724216461 -0.002911175601184368 0.017104022204875946 0 0 0 0
2177419288 0.05991794914007187 -0.3223918378353119 9.620469063520432e-05 0.01682046242058277 0 0 0 0
2181141372 0.03283634036779404 -0.3149435222148895 0.0021946271881461143 0.016072625294327736 0 0 0 0
2184863456 0.007869482040405273 -0.3027132451534271 0.004329091869294643 0.015338320285081863 0 0 0 0
2188585540 -0.01812734454870224 -0.28531965613365173 0.006124320439994335 0.014701162464916706 0 0 0 0
2192307624 -0.03674190118908882 -0.26346880197525024 0.008027873001992702 0.013731253333389759 0 0 0 0
2196029708 -0.053259070962667465 -0.2385091781616211 0.010071362368762493 0.012889408506453037 0 0 0 0
2199751792 -0.0635991245508194 -0.21133863925933838 0.012352787889540195 0.011541965417563915 0 0 0 0
2203473876 -0.06923654675483704 -0.18116037547588348 0.01479390449821949 0.00940922275185585 0 0 0 0
2207195960 -0.06770175695419312 -0.15527494251728058 0.01650923304259777 0.0062587326392531395 0 0 0 0
2210918044 -0.06443025171756744 -0.12764213979244232 0.016987157985568047 0.002285851165652275 0 0 0 0
2214640128 -0.056625839322805405 -0.10386557132005692 0.015996716916561127 -0.0010618837550282478 0 0 0 0
2218362212 -0.04501932114362717 -0.08337815850973129 0.014179686084389687 -0.0032464712858200073 0 0 0 0
2222084296 -0.034846220165491104 -0.0606267936527729 0.01249231118708849 -0.004876977764070034 0 0 0 0
2225806380 -0.019274337217211723 -0.039893075823783875 0.010993638075888157 -0.006024138070642948 0 0 0 0
2229528464 0.0006918208673596382 -0.020894955843687057 0.009795278310775757 -0.006829335354268551 0 0 0 0
2233250548 0.02459610253572464 -0.006473829969763756 0.008784409612417221 -0.007887291721999645 0 0 0 0
2236972632 0.050555236637592316 0.0023659598082304 0.007635493762791157 -0.008867103606462479 0 0 0 0
2240694716 0.07717474550008774 0.007973957806825638 0.005955677479505539 -0.010167467407882214 0 0 0 0
2244416800 0.10429063439369202 0.006738573312759399 0.004086758010089397 -0.010865422897040844 0 0 0 0
2248138884 0.13100631535053253 0.003762580454349518 0.0017595915123820305 -0.010792161338031292 0 0 0 0
2251860968 0.1589050441980362 -0.011358280666172504 -0.002587895840406418 -0.011136307381093502 0 0 0 0
2255583052 0.1797875612974167 -0.029754318296909332 -0.004161051474511623 -0.01036101020872593 0 0 0 0
2259305136 0.19938716292381287 -0.042361482977867126 -0.004644730128347874 -0.009646722115576267 0 0 0 0
2263027220 0.21215876936912537 -0.0692569762468338 -0.0052582621574401855 -0.009148594923317432 0 0 0 0
2266749304 0.22459517419338226 -0.08652578294277191 -0.006192910484969616 -0.00871774647384882 0 0 0 0
2270471388 0.2252107411623001 -0.11621490865945816 -0.007472595199942589 -0.007813817821443081 0 0 0 0
2274193472 0.2243303507566452 -0.1391248106956482 -0.008140006102621555 -0.006962313316762447 0 0 0 0
2277915556 0.2248678058385849 -0.1552942842245102 -0.00868217833340168 -0.006026513874530792 0 0 0 0
2281637640 0.21557950973510742 -0.18051649630069733 -0.009182998910546303 -0.005011841654777527 0 0 0 0
2285359724 0.21012012660503387 -0.19412817060947418 -0.009664244018495083 -0.004465981386601925 0 0 0 0
2289081808 0.196091428399086 -0.2130918800830841 -0.010005011223256588 -0.0034892037510871887 0 0 0 0
2292803892 0.18621701002120972 -0.22508002817630768 -0.010400203987956047 -0.002610769122838974 0 0 0 0
2296525976 0.16055621206760406 -0.24139884114265442 -0.010634143836796284 -0.0013885358348488808 0 0 0 0
2300248060 0.14126381278038025 -0.25074440240859985 -0.010891717858612537 -0.00023885909467935562 0 0 0 0
2303970144 0.12323715537786484 -0.25776809453964233 -0.01113850437104702 0.0008568745106458664 0 0 0 0
2307692228 0.09538149833679199 -0.25778108835220337 -0.011366540566086769 0.0022111618891358376 0 0 0 0
2311414312 0.07738900929689407 -0.25417375564575195 -0.011377022601664066 0.004084617830812931 0 0 0 0
2315136396 0.05479835718870163 -0.2476503849029541 -0.010861819609999657 0.005883823148906231 0 0 0 0
2318858480 0.038717955350875854 -0.23910099267959595 -0.010012753307819366 0.007725336588919163 0 0 0 0
2322580564 0.01960109919309616 -0.22503425180912018 -0.008647614158689976 0.009151861071586609 0 0 0 0
2326302648 0.00701431930065155 -0.2082338035106659 -0.006851916201412678 0.010085922665894032 0 0 0 0
2330024732 -0.007337008602917194 -0.18970905244350433 -0.005281801335513592 0.010790180414915085 0 0 0 0
2333746816 -0.01615503430366516 -0.17008066177368164 -0.004052666015923023 0.011027868837118149 0 0 0 0
2337468900 -0.021022439002990723 -0.1475892812013626 -0.0027861567214131355 0.01168399304151535 0 0 0 0
2341190984 -0.021873220801353455 -0.12397021800279617 -0.0010396633297204971 0.012017300352454185 0 0 0 0
2344913068 -0.020533399656414986 -0.09976233541965485 0.0010374337434768677 0.011830806732177734 0 0 0 0
2348635152 -0.01418866403400898 -0.0759861096739769 0.002826574258506298 0.010919281281530857 0 0 0 0
2352357236 -0.0029075508937239647 -0.05441395938396454 0.004226109944283962 0.009660989977419376 0 0 0 0
2356079320 0.01287650503218174 -0.033352479338645935 0.004801739007234573 0.008587312884628773 0 0 0 0
2359801404 0.03161436319351196 -0.017261028289794922 0.005359231494367123 0.007909760810434818 0 0 0 0
2363523488 0.05373790115118027 -0.004096092656254768 0.006376146338880062 0.007163804955780506 0 0 0 0
2367245572 0.07725122570991516 0.005156727507710457 0.007281453348696232 0.0063819801434874535 0 0 0 0
2370967656 0.10196542739868164 0.008662780746817589 0.008550477214157581 0.004788498394191265 0 0 0 0
2374689740 0.12593801319599152 0.009392371401190758 0.008731802925467491 0.0028303489089012146 0 0 0 0
2378411824 0.15003380179405212 0.006428517401218414 0.00816706009209156 0.001096508465707302 0 0 0 0
2382133908 0.17194190621376038 -0.001297496259212494 0.007535709999501705 3.429129719734192e-06 0 0 0 0
2385855992 0.19304870069026947 -0.012468844652175903 0.006898094899952412 -0.0006491364911198616 0 0 0 0
2389578076 0.2125963270664215 -0.023314595222473145 0.006600688211619854 -0.0010155392810702324 0 0 0 0
2393300160 0.23084375262260437 -0.038235925137996674 0.006326359696686268 -0.0017052656039595604 0 0 0 0
2397022244 0.2475830763578415 -0.05569053441286087 0.006043789908289909 -0.002700203098356724 0 0 0 0
2400744328 0.2594532370567322 -0.07914111018180847 0.005191545933485031 -0.00355664175003767 0 0 0 0
2404466412 0.2698074281215668 -0.1023891493678093 0.004425449296832085 -0.00400687288492918 0 0 0 0
2408188496 0.2750600278377533 -0.12722600996494293 0.0036482345312833786 -0.004413462243974209 0 0 0 0
2411910580 0.27998656034469604 -0.14951246976852417 0.0031339451670646667 -0.004618179984390736 0 0 0 0
2415632664 0.27599167823791504 -0.178196981549263 0.0023227985948324203 -0.005092639476060867 0 0 0 0
2419354748 0.27003782987594604 -0.20127367973327637 0.0014186184853315353 -0.005538943223655224 0 0 0 0
2423076832 0.26147136092185974 -0.22621774673461914 0.0005426472052931786 -0.005591472610831261 0 0 0 0
2426798916 0.2460094690322876 -0.25033047795295715 -0.0009589269757270813 -0.005250867456197739 0 0 0 0
2430521000 0.22983390092849731 -0.2696705162525177 -0.0012448402121663094 -0.005354749038815498 0 0 0 0
2434243084 0.20840822160243988 -0.2867603003978729 -0.002154785208404064 -0.005195619538426399 0 0 0 0
2437965168 0.18653111159801483 -0.3001044988632202 -0.0033011427149176598 -0.0046820249408483505 0 0 0 0
2441687252 0.16191227734088898 -0.30937767028808594 -0.004445119760930538 -0.0034535592421889305 0 0 0 0
2445409336 0.13851067423820496 -0.31698253750801086 -0.004795333370566368 -0.0020057689398527145 0 0 0 0
2449131420 0.10935065895318985 -0.3201713562011719 -0.004445345140993595 -0.0004671690985560417 0 0 0 0
2452853504 0.0863872542977333 -0.31937164068222046 -0.003534603863954544 0.0002898154780268669 0 0 0 0
2456575588 0.058028802275657654 -0.31835323572158813 -0.0025206655263900757 0.0006560944020748138 0 0 0 0
2460297672 0.03528513014316559 -0.3099338412284851 -0.0019917767494916916 0.0003436524420976639 0 0 0 0
2464019756 0.00753001868724823 -0.29921501874923706 -0.0019252318888902664 0.00041589047759771347 0 0 0 0
2467741840 -0.016879908740520477 -0.28406739234924316 -0.0015557799488306046 0.0005770809948444366 0 0 0 0
2471463924 -0.04064612835645676 -0.2661038041114807 -0.0010323822498321533 0.0007650610059499741 0 0 0 0
2475186008 -0.05937661975622177 -0.24508036673069 -0.0003719013184309006 0.0004641423001885414 0 0 0 0
2478908092 -0.07482375204563141 -0.21830332279205322 1.5178695321083069e-05 -0.00036839209496974945 0 0 0 0
2482630176 -0.08941805362701416 -0.1873050481081009 -8.175428956747055e-05 -0.001209118403494358 0 0 0 0
2486352260 -0.09439993649721146 -0.15792442858219147 -0.0006658248603343964 -0.0017899759113788605 0 0 0 0
2490074344 -0.09713847935199738 -0.1258573681116104 -0.0013680635020136833 -0.0018811635673046112 0 0 0 0
2493796428 -0.09454184770584106 -0.09274604171514511 -0.0017181625589728355 -0.0018484694883227348 0 0 0 0
2497518512 -0.08680745959281921 -0.05930282548069954 -0.0020419079810380936 -0.001610555686056614 0 0 0 0
2501240596 -0.07266000658273697 -0.03054898977279663 -0.0023336894810199738 -0.0017157159745693207 0 0 0 0
2504962680 -0.05393641069531441 -0.0031869839876890182 -0.0026461733505129814 -0.0017857402563095093 0 0 0 0
2508684764 -0.030831528827548027 0.021173201501369476 -0.0034280866384506226 -0.0018066521733999252 0 0 0 0
2512406848 -0.004565679468214512 0.04132441431283951 -0.004261896945536137 -0.0013559786602854729 0 0 0 0
2516128932 0.02506699413061142 0.05659341812133789 -0.004917437210679054 -0.0006568366661667824 0 0 0 0
2519851016 0.05709274113178253 0.06815358251333237 -0.005261436104774475 0.00022679194808006287 0 0 0 0
2523573100 0.08975598961114883 0.0730341225862503 -0.005265292711555958 0.001326172612607479 0 0 0 0
2527295184 0.12409317493438721 0.07184857130050659 -0.0048424797132611275 0.0023451102897524834 0 0 0 0
2531017268 0.15664911270141602 0.06462804228067398 -0.00426443200558424 0.003086792305111885 0 0 0 0
2534739352 0.18734928965568542 0.05226017162203789 -0.003661205992102623 0.003299674019217491 0 0 0 0
2538461436 0.21511393785476685 0.034955937415361404 -0.003041081130504608 0.003538769669830799 0 0 0 0
2542183520 0.2384014129638672 0.015314284712076187 -0.0028591835871338844 0.003530150279402733 0 0 0 0
2545905604 0.25833162665367126 -0.010753106325864792 -0.0029896115884184837 0.0035232482478022575 0 0 0 0
2549627688 0.27267298102378845 -0.03906591236591339 -0.0030259480699896812 0.004157437942922115 0 0 0 0
2553349772 0.2840529978275299 -0.06346023082733154 -0.0028815409168601036 0.005165313370525837 0 0 0 0
2557071856 0.2880188822746277 -0.09221604466438293 -0.002045673318207264 0.006003162823617458 0 0 0 0
2560793940 0.2908291220664978 -0.11751531809568405 -0.0009448826313018799 0.0064808959141373634 0 0 0 0
2564516024 0.28645893931388855 -0.14944374561309814 0.00034391507506370544 0.00673521775752306 0 0 0 0
2568238108 0.2791585922241211 -0.17399214208126068 0.0013953596353530884 0.006969506852328777 0 0 0 0
2571960192 0.2692995071411133 -0.19732102751731873 0.0027141207829117775 0.00682756956666708 0 0 0 0
2575682276 0.25562673807144165 -0.21820031106472015 0.00408994872123003 0.006329195573925972 0 0 0 0
2579404360 0.237097829580307 -0.23864084482192993 0.005446469411253929 0.005676832981407642 0 0 0 0
2583126444 0.21467791497707367 -0.25563105940818787 0.006718896329402924 0.00439811684191227 0 0 0 0
2586848528 0.1940290480852127 -0.26674941182136536 0.007431504316627979 0.00293163675814867 0 0 0 0
2590570612 0.17363491654396057 -0.2747100293636322 0.0076833488419651985 0.00161784328520298 0 0 0 0
2594292696 0.1468561589717865 -0.27963635325431824 0.007930491119623184 0.00035649724304676056 0 0 0 0
2598014780 0.12447484582662582 -0.2812402546405792 0.008085173554718494 -0.0009950054809451103 0 0 0 0
2601736864 0.1062922552227974 -0.27683573961257935 0.008035555481910706 -0.002546139992773533 0 0 0 0
2605458948 0.08218330144882202 -0.2696970999240875 0.007645641453564167 -0.004097991622984409 0 0 0 0
2609181032 0.06449004262685776 -0.25998654961586 0.006970628164708614 -0.00560675747692585 0 0 0 0
2612903116 0.04540916532278061 -0.2475862056016922 0.005938714370131493 -0.00682960357517004 0 0 0 0
2616625200 0.030207306146621704 -0.23218432068824768 0.004583255387842655 -0.007685030810534954 0 0 0 0
2620347284 0.02044346183538437 -0.21595624089241028 0.0032883230596780777 -0.008251933380961418 0 0 0 0
2624069368 0.010544948279857635 -0.19826912879943848 0.002093849703669548 -0.008602786809206009 0 0 0 0
2627791452 0.006780937314033508 -0.17829914391040802 0.0011231331154704094 -0.009048073552548885 0 0 0 0
2631513536 0.005595378577709198 -0.15850381553173065 0.00022040214389562607 -0.009185874834656715 0 0 0 0
2635235620 0.009979180991649628 -0.1399507224559784 -0.0007090512663125992 -0.009371506981551647 0 0 0 0
2638957704 0.016435571014881134 -0.12262099236249924 -0.0017139511182904243 -0.009961646981537342 0 0 0 0
2642679788 0.02560717985033989 -0.10881859064102173 -0.0036043990403413773 -0.010671022348105907 0 0 0 0
2646401872 0.03656904399394989 -0.09729769825935364 -0.005855160765349865 -0.010752850212156773 0 0 0 0
2650123956 0.049495160579681396 -0.08827312290668488 -0.008252602070569992 -0.009997355751693249 0 0 0 0
2653846040 0.06325298547744751 -0.08171914517879486 -0.010549068450927734 -0.008489944040775299 0 0 0 0
2657568124 0.07761090248823166 -0.07767657935619354 -0.012308293953537941 -0.006092659197747707 0 0 0 0
2661290208 0.09362506866455078 -0.07780764251947403 -0.013356303796172142 -0.003605864942073822 0 0 0 0
2665012292 0.1090637817978859 -0.08126363158226013 -0.013464415445923805 -0.0009741196408867836 0 0 0 0
2668734376 0.12322975695133209 -0.08877729624509811 -0.013140395283699036 0.0011230995878577232 0 0 0 0
2672456460 0.13536785542964935 -0.0968768373131752 -0.012925946153700352 0.002941402606666088 0 0 0 0
2676178544 0.14188313484191895 -0.11106409877538681 -0.012647225521504879 0.0051124366000294685 0 0 0 0
2679900628 0.14671167731285095 -0.12438065558671951 -0.011781034991145134 0.007724739611148834 0 0 0 0
2683622712 0.14872311055660248 -0.138308584690094 -0.009834556840360165 0.010179432108998299 0 0 0 0
2687344796 0.14813801646232605 -0.1508384793996811 -0.00719787459820509 0.011754225008189678 0 0 0 0
2691066880 0.14278627932071686 -0.16517941653728485 -0.00473158061504364 0.01237938366830349 0 0 0 0
2694788964 0.1341279149055481 -0.17771199345588684 -0.0021511269733309746 0.012563968077301979 0 0 0 0
2698511048 0.12550511956214905 -0.18530970811843872 -0.00012900028377771378 0.012302765622735023 0 0 0 0
2702233132 0.11428923904895782 -0.19474565982818604 0.0018193945288658142 0.011902366764843464 0 0 0 0
2705955216 0.10265490412712097 -0.19969722628593445 0.0037820152938365936 0.01136853825300932 0 0 0 0
2709677300 0.08930392563343048 -0.20435446500778198 0.005662561394274235 0.010801191441714764 0 0 0 0
2713399384 0.07682720571756363 -0.2053006887435913 0.007861214689910412 0.009660030715167522 0 0 0 0
2717121468 0.06269349157810211 -0.2050386220216751 0.00987652875483036 0.007578766904771328 0 0 0 0
2720843552 0.04740290343761444 -0.20183095335960388 0.010762587189674377 0.005389675498008728 0 0 0 0
2724565636 0.02987070381641388 -0.1959524005651474 0.011448245495557785 0.00313370767980814 0 0 0 0
2728287720 0.01804926060140133 -0.1848861426115036 0.011842143721878529 0.0014232415705919266 0 0 0 0
2732009804 0.004797883331775665 -0.171522855758667 0.012266403064131737 -0.0008118506520986557 0 0 0 0
2735731888 -0.001839837059378624 -0.1566644012928009 0.012480336241424084 -0.0031456593424081802 0 0 0 0
2739453972 -0.006734490394592285 -0.14191143214702606 0.01183740422129631 -0.006172444671392441 0 0 0 0
2743176056 -0.010964717715978622 -0.12550495564937592 0.010184048675000668 -0.008989599533379078 0 0 0 0
2746898140 -0.014594003558158875 -0.1087525337934494 0.0077987732365727425 -0.011003650724887848 0 0 0 0
2750620224 -0.013122005388140678 -0.09049639850854874 0.005269287154078484 -0.012224322184920311 0 0 0 0
2754342308 -0.009016542695462704 -0.07192572951316833 0.002546379342675209 -0.012937708757817745 0 0 0 0
2758064392 -0.00106024369597435 -0.0534924641251564 -0.00012270361185073853 -0.012760556302964687 0 0 0 0
2761786476 0.010529366321861744 -0.0370665118098259 -0.002583133988082409 -0.012399031780660152 0 0 0 0
2765508560 0.024745464324951172 -0.023631662130355835 -0.004876749590039253 -0.01121568027883768 0 0 0 0
2769230644 0.04004450514912605 -0.01228377316147089 -0.0065554054453969 -0.01004260964691639 0 0 0 0
2772952728 0.05730786919593811 -0.0029134489595890045 -0.008177411742508411 -0.008358807303011417 0 0 0 0
2776674812 0.0758836418390274 0.002781955525279045 -0.009327365085482597 -0.006760001182556152 0 0 0 0
2780396896 0.09513626992702484 0.006817560642957687 -0.010311273857951164 -0.005065864883363247 0 0 0 0
2784118980 0.11449069529771805 0.008876228705048561 -0.011148583143949509 -0.003040917217731476 0 0 0 0
2787841064 0.13559888303279877 0.007830332964658737 -0.01159161888062954 -0.00048717204481363297 0 0 0 0
2791563148 0.1571837067604065 0.0028554610908031464 -0.011095439083874226 0.0022820141166448593 0 0 0 0
2795285232 0.17810049653053284 -0.005242951214313507 -0.009693036787211895 0.004425399005413055 0 0 0 0
2799007316 0.19810079038143158 -0.018051883205771446 -0.008035995066165924 0.005914602428674698 0 0 0 0
2802729400 0.21562263369560242 -0.03617575764656067 -0.006276422180235386 0.006929940544068813 0 0 0 0
2806451484 0.22886386513710022 -0.05224218964576721 -0.00465334951877594 0.007610807195305824 0 0 0 0
2810173568 0.24017776548862457 -0.07129538059234619 -0.0029892735183238983 0.007894299924373627 0 0 0 0
2813895652 0.24746905267238617 -0.09559135884046555 -0.0012771785259246826 0.008016048930585384 0 0 0 0
2817617736 0.25350868701934814 -0.11733341217041016 0.0002696756273508072 0.0077804820612072945 0 0 0 0
2821339820 0.25421959161758423 -0.14135336875915527 0.0017640171572566032 0.007231011055409908 0 0 0 0
2825061904 0.252826452255249 -0.16313567757606506 0.003038596361875534 0.006437572650611401 0 0 0 0
2828783988 0.24454066157341003 -0.18675872683525085 0.004113873466849327 0.005413681268692017 0 0 0 0
2832506072 0.23567156493663788 -0.20730136334896088 0.004764130339026451 0.004144240170717239 0 0 0 0
2836228156 0.22493943572044373 -0.22565600275993347 0.005124581046402454 0.002978334203362465 0 0 0 0
2839950240 0.21174171566963196 -0.2421168088912964 0.005113287828862667 0.002139989286661148 0 0 0 0
2843672324 0.19982388615608215 -0.25783970952033997 0.005140514113008976 0.0013490896672010422 0 0 0 0
2847394408 0.18029165267944336 -0.2723929286003113 0.005237691104412079 0.0006805211305618286 0 0 0 0
2851116492 0.16008609533309937 -0.2863238751888275 0.005381467752158642 5.112774670124054e-05 0 0 0 0
2854838576 0.1424015313386917 -0.29421159625053406 0.005656717345118523 -0.0007369900122284889 0 0 0 0
2858560660 0.12405595928430557 -0.300249308347702 0.0058824848383665085 -0.002115226350724697 0 0 0 0
2862282744 0.09795139729976654 -0.30782487988471985 0.0054444847628474236 -0.003315342590212822 0 0 0 0
2866004828 0.08254610002040863 -0.30896300077438354 0.005014332011342049 -0.0042346166446805 0 0 0 0
2869726912 0.06018778681755066 -0.30755507946014404 0.004111083224415779 -0.005102562718093395 0 0 0 0
2873448996 0.03667455166578293 -0.30495908856391907 0.003080066293478012 -0.005795353092253208 0 0 0 0
2877171080 0.013586021959781647 -0.29900845885276794 0.001742880791425705 -0.00618404895067215 0 0 0 0
2880893164 -0.004827737808227539 -0.29265445470809937 0.0004840949550271034 -0.00611600186675787 0 0 0 0
2884615248 -0.028759127482771873 -0.2801154553890228 -0.0003816196694970131 -0.005693201906979084 0 0 0 0
2888337332 -0.047313716262578964 -0.26560521125793457 -0.0009898515418171883 -0.005356971174478531 0 0 0 0
2892059416 -0.0632769912481308 -0.24902962148189545 -0.001662672497332096 -0.005071103572845459 0 0 0 0
2895781500 -0.08034572750329971 -0.23015525937080383 -0.002591942436993122 -0.004640159197151661 0 0 0 0
2899503584 -0.09087743610143661 -0.20907247066497803 -0.0032454142346978188 -0.0038475310429930687 0 0 0 0
2903225668 -0.10381464660167694 -0.18568803369998932 -0.003687511198222637 -0.0028259195387363434 0 0 0 0
2906947752 -0.11128994822502136 -0.16126951575279236 -0.0036880578845739365 -0.001811106689274311 0 0 0 0
2910669836 -0.11317043006420135 -0.13668690621852875 -0.003535187803208828 -0.0010524913668632507 0 0 0 0
2914391920 -0.11305779963731766 -0.11234357953071594 -0.003043889068067074 -0.0005210451781749725 0 0 0 0
2918114004 -0.10991815477609634 -0.08755063265562057 -0.0027168970555067062 -0.00011228304356336594 0 0 0 0
2921836088 -0.10383566468954086 -0.06270704418420792 -0.002542552538216114 7.110834121704102e-05 0 0 0 0
2925558172 -0.094162717461586 -0.041361719369888306 -0.002341308631002903 0.00021379906684160233 0 0 0 0
2929280256 -0.08200500160455704 -0.020918091759085655 -0.002345200628042221 0.0005500791594386101 0 0 0 0
2933002340 -0.06809718161821365 -0.0020613297820091248 -0.0023931730538606644 0.0008386373519897461 0 0 0 0
2936724424 -0.05235309153795242 0.016415828838944435 -0.0022852225229144096 0.00131886824965477 0 0 0 0
2940446508 -0.034506384283304214 0.03099140152335167 -0.0022838860750198364 0.0019804732874035835 0 0 0 0
2944168592 -0.014788822270929813 0.044165123254060745 -0.0016913479194045067 0.0028441762551665306 0 0 0 0
2947890676 0.006267910823225975 0.05490794777870178 -0.0008421866223216057 0.0034836428239941597 0 0 0 0
2951612760 0.02886032499372959 0.06329366564750671 0.00045241788029670715 0.0037727998569607735 0 0 0 0
2955334844 0.05113169550895691 0.06903316080570221 0.0016390318050980568 0.0032403478398919106 0 0 0 0
2959056928 0.07426635921001434 0.0730273649096489 0.002234533429145813 0.0026709958910942078 0 0 0 0
2962779012 0.09912100434303284 0.0732528492808342 0.002559877932071686 0.002060648985207081 0 0 0 0
2966501096 0.12414824962615967 0.0701751857995987 0.0029276972636580467 0.0016282899305224419 0 0 0 0
2970223180 0.15057680010795593 0.06384796649217606 0.0033203186467289925 0.0011328598484396935 0 0 0 0
2973945264 0.17507626116275787 0.05627809464931488 0.0035062190145254135 0.000875178724527359 0 0 0 0
2977667348 0.20021745562553406 0.040310829877853394 0.004145538434386253 0.00019143987447023392 0 0 0 0
2981389432 0.22122493386268616 0.02312769740819931 0.004332289099693298 -0.0007094237953424454 0 0 0 0
2985111516 0.23775167763233185 0.00020673871040344238 0.00418558344244957 -0.001877843402326107 0 0 0 0
2988833600 0.25081679224967957 -0.02217821031808853 0.003806336782872677 -0.00247159693390131 0 0 0 0
2992555684 0.2615179419517517 -0.04782632738351822 0.003084525465965271 -0.0032599279657006264 0 0 0 0
2996277768 0.2678021192550659 -0.06877705454826355 0.0024002445861697197 -0.0037425197660923004 0 0 0 0
2999999852 0.27087804675102234 -0.09791643917560577 0.0015724441036581993 -0.003891145810484886 0 0 0 0
