# HZ S RI R 50
1500000000 -0.11566028743982315 -0.04549501836299896 0.0388774648308754 -0.02767655812203884 0 0 0 0
1503722084 -0.10210409015417099 -0.01812523603439331 0.03275015205144882 -0.034215297549963 0 0 0 0
1507444168 -0.08318060636520386 0.0066834986209869385 0.025687336921691895 -0.03856822848320007 0 0 0 0
1511166252 -0.05999864265322685 0.03173581510782242 0.017620347440242767 -0.04165271669626236 0 0 0 0
1514888336 -0.03090992011129856 0.05312787741422653 0.009925773367285728 -0.043166305869817734 0 0 0 0
1518610420 0.004132462665438652 0.07045092433691025 0.0016345838084816933 -0.042830780148506165 0 0 0 0
1522332504 0.043894972652196884 0.08197354525327682 -0.005443776957690716 -0.04116111621260643 0 0 0 0
1526054588 0.08617480844259262 0.08641142398118973 -0.01192464493215084 -0.03841662406921387 0 0 0 0
1529776672 0.13199733197689056 0.08366462588310242 -0.01762404851615429 -0.034972865134477615 0 0 0 0
1533498756 0.1791781187057495 0.07140706479549408 -0.022739317268133163 -0.030187133699655533 0 0 0 0
1537220840 0.2242375910282135 0.050767820328474045 -0.02614557556807995 -0.025217410176992416 0 0 0 0
1540942924 0.26665014028549194 0.020951461046934128 -0.02863553911447525 -0.020130369812250137 0 0 0 0
1544665008 0.30312293767929077 -0.016000866889953613 -0.03055490180850029 -0.014792665839195251 0 0 0 0
1548387092 0.333825021982193 -0.06197458505630493 -0.031414106488227844 -0.009240514598786831 0 0 0 0
1552109176 0.35666462779045105 -0.11145246028900146 -0.03098679706454277 -0.0032043885439634323 0 0 0 0
1555831260 0.3704405426979065 -0.16623927652835846 -0.02916213870048523 0.001744643785059452 0 0 0 0
1559553344 0.37638238072395325 -0.2204117476940155 -0.026485566049814224 0.005452845245599747 0 0 0 0
1563275428 0.37091943621635437 -0.2778224050998688 -0.023939013481140137 0.008439015597105026 0 0 0 0
1566997512 0.3590471148490906 -0.3361750543117523 -0.02165064960718155 0.010883655399084091 0 0 0 0
1570719596 0.3378306031227112 -0.39107877016067505 -0.01909674145281315 0.013278506696224213 0 0 0 0
1574441680 0.30537205934524536 -0.44285354018211365 -0.01622597873210907 0.015069845132529736 0 0 0 0
1578163764 0.2639436721801758 -0.4900848865509033 -0.013433958403766155 0.016219228506088257 0 0 0 0
1581885848 0.21564710140228271 -0.5281350016593933 -0.010919389314949512 0.01690317690372467 0 0 0 0
1585607932 0.16388924419879913 -0.5591994524002075 -0.0083747124299407 0.017176637426018715 0 0 0 0
1589330016 0.11082656681537628 -0.5832229852676392 -0.006346426904201508 0.016968287527561188 0 0 0 0
1593052100 0.045189857482910156 -0.599916398525238 -0.00512430164963007 0.017009375616908073 0 0 0 0
1596774184 -0.01682405173778534 -0.6066533327102661 -0.0038751913234591484 0.017756883054971695 0 0 0 0
1600496268 -0.08186247944831848 -0.6028818488121033 -0.00179215706884861 0.01881050132215023 0 0 0 0
1604218352 -0.1436571478843689 -0.5881919860839844 0.0009720455855131149 0.01952500455081463 0 0 0 0
1607940436 -0.20623958110809326 -0.564642608165741 0.004049504175782204 0.01956314593553543 0 0 0 0
1611662520 -0.2619311511516571 -0.5349412560462952 0.007292231544852257 0.019084613770246506 0 0 0 0
1615384604 -0.31530511379241943 -0.4953863024711609 0.01039601769298315 0.017896655946969986 0 0 0 0
1619106688 -0.3646778166294098 -0.44695568084716797 0.013250620104372501 0.016424380242824554 0 0 0 0
1622828772 -0.40348049998283386 -0.39468878507614136 0.01592908427119255 0.014519266784191132 0 0 0 0
1626550856 -0.4360889792442322 -0.3348301351070404 0.0185052752494812 0.01201808825135231 0 0 0 0
1630272940 -0.46093928813934326 -0.26873284578323364 0.020629486069083214 0.008784904144704342 0 0 0 0
1633995024 -0.4753458499908447 -0.20037561655044556 0.021978989243507385 0.00483922753483057 0 0 0 0
1637717108 -0.48100554943084717 -0.12393347918987274 0.022529756650328636 0.00059546809643507 0 0 0 0
1641439192 -0.47484099864959717 -0.04863211512565613 0.022075312212109566 -0.0036588897928595543 0 0 0 0
1645161276 -0.45746922492980957 0.02481551468372345 0.02090972661972046 -0.007651390507817268 0 0 0 0
1648883360 -0.42602401971817017 0.09908270835876465 0.0188484825193882 -0.01131838746368885 0 0 0 0
1652605444 -0.3836260139942169 0.16444148123264313 0.01634695567190647 -0.014694429002702236 0 0 0 0
1656327528 -0.331880658864975 0.22295451164245605 0.013123532757163048 -0.017543606460094452 0 0 0 0
1660049612 -0.2701868712902069 0.2742815911769867 0.009358244016766548 -0.019533833488821983 0 0 0 0
1663771696 -0.2014538198709488 0.3150158226490021 0.005093549378216267 -0.02073337323963642 0 0 0 0
1667493780 -0.12870097160339355 0.34558483958244324 0.000802287831902504 -0.0207652747631073 0 0 0 0
1671215864 -0.049027182161808014 0.3658539354801178 -0.0030829710885882378 -0.020168587565422058 0 0 0 0
1674937948 0.031433865427970886 0.37436598539352417 -0.006905101239681244 -0.018637755885720253 0 0 0 0
1678660032 0.11785559356212616 0.36810147762298584 -0.010485456325113773 -0.01628604531288147 0 0 0 0
1682382116 0.19847813248634338 0.34914064407348633 -0.013040618970990181 -0.01323970127850771 0 0 0 0
1686104200 0.27451127767562866 0.3182995617389679 -0.01511363498866558 -0.009618864394724369 0 0 0 0
1689826284 0.3477001190185547 0.2723015546798706 -0.016136426478624344 -0.005629721097648144 0 0 0 0
1693548368 0.4102957844734192 0.21901920437812805 -0.015653550624847412 -0.0015624361112713814 0 0 0 0
1697270452 0.4640153646469116 0.15694229304790497 -0.014055680483579636 0.001611584797501564 0 0 0 0
1700992536 0.5072941780090332 0.08248506486415863 -0.01176587212830782 0.003581133671104908 0 0 0 0
1704714620 0.538044810295105 0.006702050566673279 -0.010088491253554821 0.004702945239841938 0 0 0 0
1708436704 0.5546488761901855 -0.07406340539455414 -0.008783937431871891 0.005746521987020969 0 0 0 0
1712158788 0.5602347254753113 -0.15540914237499237 -0.0072379037737846375 0.00702633336186409 0 0 0 0
1715880872 0.5514249801635742 -0.23440155386924744 -0.005042082630097866 0.007786917500197887 0 0 0 0
1719602956 0.5313991904258728 -0.31117305159568787 -0.0028035910800099373 0.0076760780066251755 0 0 0 0
1723325040 0.5018160939216614 -0.38093921542167664 -0.001292671076953411 0.007178572006523609 0 0 0 0
1727047124 0.4595673084259033 -0.44807279109954834 2.535991370677948e-06 0.006289198063313961 0 0 0 0
1730769208 0.4085112512111664 -0.505042314529419 0.0008040163666009903 0.005373435094952583 0 0 0 0
1734491292 0.34982791543006897 -0.5529181957244873 0.0013132225722074509 0.004515462554991245 0 0 0 0
1738213376 0.2868170142173767 -0.5896198749542236 0.0015624472871422768 0.0037132874131202698 0 0 0 0
1741935460 0.21431344747543335 -0.6192598938941956 0.0017560981214046478 0.0028956951573491096 0 0 0 0
1745657544 0.1469716578722 -0.6333761811256409 0.0014836890622973442 0.002366899512708187 0 0 0 0
1749379628 0.07645679265260696 -0.637599527835846 0.0012792497873306274 0.0022840946912765503 0 0 0 0
1753101712 0.006388738751411438 -0.6317124366760254 0.0012985700741410255 0.002269596792757511 0 0 0 0
1756823796 -0.059453725814819336 -0.615293025970459 0.0015761582180857658 0.0022414056584239006 0 0 0 0
1760545880 -0.11664358526468277 -0.5893155336380005 0.0018771281465888023 0.0019512977451086044 0 0 0 0
1764267964 -0.17338643968105316 -0.5554426908493042 0.0022738296538591385 0.0015194164589047432 0 0 0 0
1767990048 -0.22352394461631775 -0.5153605341911316 0.0024776505306363106 0.0007818285375833511 0 0 0 0
1771712132 -0.26179391145706177 -0.4707816541194916 0.0022081322968006134 -0.00032015610486268997 0 0 0 0
1775434216 -0.29675817489624023 -0.4184698760509491 0.001185438595712185 -0.001161934807896614 0 0 0 0
1779156300 -0.3238631784915924 -0.36607545614242554 -0.00022934284061193466 -0.0013133492320775986 0 0 0 0
1782878384 -0.34248021245002747 -0.3091121315956116 -0.001691923476755619 -0.0007065813988447189 0 0 0 0
1786600468 -0.35297009348869324 -0.25190484523773193 -0.0026711132377386093 0.0006928546354174614 0 0 0 0
1790322552 -0.3548758029937744 -0.19265803694725037 -0.002765054814517498 0.0025019999593496323 0 0 0 0
1794044636 -0.34868767857551575 -0.13438168168067932 -0.0020364439114928246 0.0038940003141760826 0 0 0 0
1797766720 -0.3334389328956604 -0.08098790794610977 -0.001330542378127575 0.005060494877398014 0 0 0 0
1801488804 -0.31181615591049194 -0.02719479240477085 -0.0004584304988384247 0.006420438177883625 0 0 0 0
1805210888 -0.2826498746871948 0.01958806812763214 0.0013956492766737938 0.007821980863809586 0 0 0 0
1808932972 -0.2473694384098053 0.06085634604096413 0.004042026586830616 0.008396754041314125 0 0 0 0
1812655056 -0.20446906983852386 0.10028042644262314 0.0066805751994252205 0.007676875218749046 0 0 0 0
1816377140 -0.15754343569278717 0.1301005333662033 0.008814484812319279 0.006923601031303406 0 0 0 0
1820099224 -0.10612309724092484 0.15162056684494019 0.011445839889347553 0.005502347834408283 0 0 0 0
1823821308 -0.05071094632148743 0.1645297259092331 0.013674198649823666 0.002788599580526352 0 0 0 0
1827543392 0.003912635147571564 0.16652926802635193 0.014763383194804192 -0.0007515028119087219 0 0 0 0
1831265476 0.05461858958005905 0.1592607945203781 0.014515051618218422 -0.0044692521914839745 0 0 0 0
1834987560 0.10335615277290344 0.14554251730442047 0.012914309278130531 -0.008085781708359718 0 0 0 0
1838709644 0.14715105295181274 0.12526722252368927 0.010438245721161366 -0.010757886804640293 0 0 0 0
1842431728 0.1876487135887146 0.09908001124858856 0.007586158812046051 -0.01239197701215744 0 0 0 0
1846153812 0.22127114236354828 0.06958166509866714 0.004684796556830406 -0.012935392558574677 0 0 0 0
1849875896 0.25031086802482605 0.03359466791152954 0.0021570390090346336 -0.012806063517928123 0 0 0 0
1853597980 0.27414175868034363 -0.003373369574546814 0.000572563149034977 -0.01251734048128128 0 0 0 0
1857320064 0.291755348443985 -0.044092126190662384 -0.0009240536019206047 -0.012520451098680496 0 0 0 0
1861042148 0.30149948596954346 -0.08548501878976822 -0.002492309547960758 -0.013014798983931541 0 0 0 0
1864764232 0.30159157514572144 -0.13031014800071716 -0.0051074763759970665 -0.013153203763067722 0 0 0 0
1868486316 0.2976222038269043 -0.17002734541893005 -0.008066368289291859 -0.012215311639010906 0 0 0 0
1872208400 0.28492817282676697 -0.2114216685295105 -0.010482614859938622 -0.010340536013245583 0 0 0 0
1875930484 0.27048131823539734 -0.24280601739883423 -0.01293471921235323 -0.008980347774922848 0 0 0 0
1879652568 0.24721644818782806 -0.2760310173034668 -0.013901812955737114 -0.0068519460037350655 0 0 0 0
1883374652 0.22101005911827087 -0.30494219064712524 -0.014751067385077477 -0.005518421530723572 0 0 0 0
1887096736 0.18853935599327087 -0.3279046416282654 -0.016485124826431274 -0.003902493044734001 0 0 0 0
1890818820 0.1543523669242859 -0.34260398149490356 -0.018505264073610306 -0.0014648297801613808 0 0 0 0
1894540904 0.11876720190048218 -0.35057878494262695 -0.020141515880823135 0.002331225201487541 0 0 0 0
1898262988 0.08434835821390152 -0.3501792252063751 -0.02033805288374424 0.0070188939571380615 0 0 0 0
1901985072 0.049898773431777954 -0.3456684350967407 -0.018833117559552193 0.011696224100887775 0 0 0 0
1905707156 0.019918691366910934 -0.3345305919647217 -0.01599486544728279 0.01536643598228693 0 0 0 0
1909429240 -0.007693275809288025 -0.32157912850379944 -0.013041402213275433 0.01812298223376274 0 0 0 0
1913151324 -0.031739749014377594 -0.3037262260913849 -0.009654750116169453 0.020747903734445572 0 0 0 0
1916873408 -0.05250786989927292 -0.2826184928417206 -0.005671980790793896 0.02314550057053566 0 0 0 0
1920595492 -0.07010634988546371 -0.25731366872787476 -0.00039626751095056534 0.024212153628468513 0 0 0 0
1924317576 -0.0799546092748642 -0.23109659552574158 0.004936650395393372 0.023555787280201912 0 0 0 0
1928039660 -0.0867704302072525 -0.20349140465259552 0.009570026770234108 0.021448329091072083 0 0 0 0
1931761744 -0.09010730683803558 -0.17692221701145172 0.013315998949110508 0.01860661990940571 0 0 0 0
1935483828 -0.09009036421775818 -0.14852753281593323 0.015934765338897705 0.015523399226367474 0 0 0 0
1939205912 -0.08390170335769653 -0.12171777337789536 0.0177538450807333 0.012294158339500427 0 0 0 0
1942927996 -0.07372892647981644 -0.09361481666564941 0.019315658137202263 0.009086178615689278 0 0 0 0
1946650080 -0.058236196637153625 -0.06846024096012115 0.02050912193953991 0.005898752249777317 0 0 0 0
1950372164 -0.0378287136554718 -0.046777673065662384 0.021462323144078255 0.0025832029059529305 0 0 0 0
1954094248 -0.013447548262774944 -0.02930423989892006 0.022097285836935043 -0.0012102574110031128 0 0 0 0
1957816332 0.013672353699803352 -0.01604270190000534 0.021893521770834923 -0.00556531548500061 0 0 0 0
1961538416 0.04274510592222214 -0.007491271011531353 0.02051663026213646 -0.00967220589518547 0 0 0 0
1965260500 0.07483210414648056 -0.005574733950197697 0.018537532538175583 -0.013297795318067074 0 0 0 0
1968982584 0.1069888323545456 -0.010429885238409042 0.016451938077807426 -0.016914956271648407 0 0 0 0
1972704668 0.13672992587089539 -0.021617047488689423 0.013507302850484848 -0.02038717083632946 0 0 0 0
1976426752 0.16256913542747498 -0.03994596377015114 0.008927350863814354 -0.023694654926657677 0 0 0 0
1980148836 0.18455979228019714 -0.06106821447610855 0.0036380551755428314 -0.025540724396705627 0 0 0 0
1983870920 0.2010997086763382 -0.0865238755941391 -0.0025490708649158478 -0.025546789169311523 0 0 0 0
1987593004 0.21159353852272034 -0.11435315012931824 -0.00806484092026949 -0.02391539327800274 0 0 0 0
1991315088 0.21771861612796783 -0.14086908102035522 -0.012374305166304111 -0.021332092583179474 0 0 0 0
1995037172 0.21925140917301178 -0.16952566802501678 -0.015792792662978172 -0.017636358737945557 0 0 0 0
1998759256 0.21559123694896698 -0.1966797411441803 -0.018270457163453102 -0.014036417938768864 0 0 0 0
2002481340 0.20687390863895416 -0.22484859824180603 -0.0198613703250885 -0.010532595217227936 0 0 0 0
2006203424 0.19401629269123077 -0.24875260889530182 -0.020672043785452843 -0.007404769770801067 0 0 0 0
2009925508 0.17657208442687988 -0.2714414894580841 -0.021754996851086617 -0.004117321223020554 0 0 0 0
2013647592 0.15762761235237122 -0.28859078884124756 -0.022281944751739502 -0.0010810447856783867 0 0 0 0
2017369676 0.13273364305496216 -0.3039098381996155 -0.022969702258706093 0.0021177977323532104 0 0 0 0
2021091760 0.10308581590652466 -0.31516149640083313 -0.023243090137839317 0.006372666917741299 0 0 0 0
2024813844 0.07634048908948898 -0.3203381597995758 -0.022603005170822144 0.010644657537341118 0 0 0 0
2028535928 0.047652363777160645 -0.31987470388412476 -0.020778315141797066 0.015658099204301834 0 0 0 0
2032258012 0.02015356719493866 -0.3157018721103668 -0.017770227044820786 0.020161546766757965 0 0 0 0
2035980096 -0.00773070752620697 -0.3059077560901642 -0.012849513441324234 0.02390601858496666 0 0 0 0
2039702180 -0.03421017900109291 -0.29270437359809875 -0.0073424093425273895 0.025958778336644173 0 0 0 0
2043424264 -0.056645698845386505 -0.2744699716567993 -0.0017854031175374985 0.026211684569716454 0 0 0 0
2047146348 -0.07815974950790405 -0.25265172123908997 0.0035614939406514168 0.025083931162953377 0 0 0 0
2050868432 -0.09457466751337051 -0.22820916771888733 0.007484595291316509 0.022944224998354912 0 0 0 0
2054590516 -0.10815315693616867 -0.20009735226631165 0.010976389981806278 0.02027464658021927 0 0 0 0
2058312600 -0.11499907821416855 -0.17131862044334412 0.012690149247646332 0.018243201076984406 0 0 0 0
2062034684 -0.12057049572467804 -0.13836702704429626 0.01532508060336113 0.015690961852669716 0 0 0 0
2065756768 -0.11914341896772385 -0.10571925342082977 0.017544126138091087 0.013359840959310532 0 0 0 0
2069478852 -0.11252882331609726 -0.072797030210495 0.019556930288672447 0.010025957599282265 0 0 0 0
2073200936 -0.09911496937274933 -0.04149797931313515 0.02062445506453514 0.006229734979569912 0 0 0 0
2076923020 -0.08157895505428314 -0.012022778391838074 0.02059873379766941 0.0022550448775291443 0 0 0 0
2080645104 -0.05922544747591019 0.013626312837004662 0.019414041191339493 -0.0008014598861336708 0 0 0 0
2084367188 -0.03225230053067207 0.03706325590610504 0.018266642466187477 -0.003022924065589905 0 0 0 0
2088089272 -0.001061340793967247 0.055041395127773285 0.01754850521683693 -0.00485313031822443 0 0 0 0
2091811356 0.033231042325496674 0.06730484962463379 0.017522085458040237 -0.006752947345376015 0 0 0 0
2095533440 0.06839703023433685 0.07364808768033981 0.017467577010393143 -0.009714365936815739 0 0 0 0
2099255524 0.10449976474046707 0.07482177019119263 0.016148509457707405 -0.013681245036423206 0 0 0 0
2102977608 0.1399434357881546 0.07091327011585236 0.0134934913367033 -0.017268508672714233 0 0 0 0
2106699692 0.1744600385427475 0.05955871194601059 0.009443078190088272 -0.019915005192160606 0 0 0 0
2110421776 0.20823238790035248 0.04201209545135498 0.005032452754676342 -0.021166883409023285 0 0 0 0
2114143860 0.23803094029426575 0.019071854650974274 0.0007326910272240639 -0.02141120843589306 0 0 0 0
2117865944 0.26225194334983826 -0.004412546753883362 -0.0029410775750875473 -0.021014360710978508 0 0 0 0
2121588028 0.2806130647659302 -0.03717942535877228 -0.007230975665152073 -0.019606607034802437 0 0 0 0
2125310112 0.2945560812950134 -0.06753691285848618 -0.010911580175161362 -0.01779291220009327 0 0 0 0
2129032196 0.3032504618167877 -0.10028333216905594 -0.014042450115084648 -0.014765089377760887 0 0 0 0
2132754280 0.30560168623924255 -0.13332417607307434 -0.016409896314144135 -0.010986262001097202 0 0 0 0
2136476364 0.304244726896286 -0.1680910736322403 -0.01742483861744404 -0.007235050201416016 0 0 0 0
2140198448 0.2986520230770111 -0.1996699869632721 -0.01741454005241394 -0.003216572105884552 0 0 0 0
2143920532 0.28494054079055786 -0.23169782757759094 -0.016494955867528915 -0.0001969439908862114 0 0 0 0
2147642616 0.26789024472236633 -0.260093092918396 -0.01517974492162466 0.0022892970591783524 0 0 0 0
2151364700 0.24861648678779602 -0.28218957781791687 -0.013733983039855957 0.004276071675121784 0 0 0 0
2155086784 0.2252676635980606 -0.30332866311073303 -0.012176253832876682 0.005615677684545517 0 0 0 0
2158808868 0.1981959342956543 -0.3189151883125305 -0.010733617469668388 0.006497477181255817 0 0 0 0
2162530952 0.1693718135356903 -0.33113497495651245 -0.009721326641738415 0.006999898701906204 0 0 0 0
2166253036 0.13893428444862366 -0.33911973237991333 -0.009159539826214314 0.00790014211088419 0 0 0 0
2169975120 0.10817672312259674 -0.3423616886138916 -0.008461225777864456 0.00913330726325512 0 0 0 0
2173697204 0.07830307632684708 -0.3405541777610779 -0.007197443395853043 0.010568990372121334 0 0 0 0
2177419288 0.04957149922847748 -0.33315539360046387 -0.005883561447262764 0.011481556110084057 0 0 0 0
2181141372 0.021052993834018707 -0.32271140813827515 -0.004296379163861275 0.01250646635890007 0 0 0 0
2184863456 -0.003296114504337311 -0.3062523305416107 -0.002469608560204506 0.013543841429054737 0 0 0 0
2188585540 -0.029102474451065063 -0.28697940707206726 0.00022985320538282394 0.014354055747389793 0 0 0 0
2192307624 -0.04816112667322159 -0.2644146680831909 0.002947435714304447 0.014416609890758991 0 0 0 0
2196029708 -0.06234360858798027 -0.23862197995185852 0.0057741738855838776 0.013516297563910484 0 0 0 0
2199751792 -0.07332785427570343 -0.21066167950630188 0.008451445959508419 0.011875707656145096 0 0 0 0
2203473876 -0.08108058571815491 -0.1809040606021881 0.010518498718738556 0.009652897715568542 0 0 0 0
2207195960 -0.07905824482440948 -0.15410947799682617 0.0116258654743433 0.0072827572003006935 0 0 0 0
2210918044 -0.07682140916585922 -0.12450630217790604 0.012199928984045982 0.005004444159567356 0 0 0 0
2214640128 -0.06968719512224197 -0.09579116106033325 0.012486102059483528 0.0027368059381842613 0 0 0 0
2218362212 -0.05798453837633133 -0.06895384937524796 0.012510203756392002 0.0005812682211399078 0 0 0 0
2222084296 -0.041445858776569366 -0.04379146173596382 0.012587510049343109 -0.0017990265041589737 0 0 0 0
2225806380 -0.020748700946569443 -0.022265968844294548 0.011983952485024929 -0.004753937944769859 0 0 0 0
2229528464 0.003069136291742325 -0.005793554708361626 0.010196736082434654 -0.007200479507446289 0 0 0 0
2233250548 0.029229899868369102 0.0067332424223423 0.007901506498456001 -0.008934308774769306 0 0 0 0
2236972632 0.05803373456001282 0.014649668708443642 0.005821314640343189 -0.009946751408278942 0 0 0 0
2240694716 0.08674683421850204 0.01817266270518303 0.0034335721284151077 -0.010299524292349815 0 0 0 0
2244416800 0.11580388247966766 0.011968526057898998 0.0009773047640919685 -0.010688544251024723 0 0 0 0
2248138884 0.14242848753929138 0.006778500974178314 -0.0014175595715641975 -0.010107657872140408 0 0 0 0
2251860968 0.1665283590555191 -0.007243424654006958 -0.004346203058958054 -0.010374302044510841 0 0 0 0
2255583052 0.18887093663215637 -0.022217288613319397 -0.00618525967001915 -0.008524196222424507 0 0 0 0
2259305136 0.20640645921230316 -0.04403438791632652 -0.0074037956073880196 -0.006144354119896889 0 0 0 0
2263027220 0.22134073078632355 -0.06268556416034698 -0.007609297521412373 -0.00398167222738266 0 0 0 0
2266749304 0.22819574177265167 -0.08999104052782059 -0.007235079072415829 -0.0019596172496676445 0 0 0 0
2270471388 0.23565107583999634 -0.11106668412685394 -0.006402282975614071 -0.0006180321797728539 0 0 0 0
2274193472 0.23805080354213715 -0.13323330879211426 -0.005425143055617809 0.0002354215830564499 0 0 0 0
2277915556 0.23201368749141693 -0.165455162525177 -0.0045895930379629135 0.0004825824871659279 0 0 0 0
2281637640 0.22720582783222198 -0.1857486367225647 -0.0038169482722878456 0.0007517701014876366 0 0 0 0
2285359724 0.21578779816627502 -0.20617716014385223 -0.0030920030549168587 0.00039689987897872925 0 0 0 0
2289081808 0.19637444615364075 -0.2276640087366104 -0.0031468775123357773 -0.0002655908465385437 0 0 0 0
2292803892 0.1782524436712265 -0.2405797839164734 -0.003335576504468918 -0.0005401717498898506 0 0 0 0
2296525976 0.15598399937152863 -0.2507531940937042 -0.0037127435207366943 -0.0007240595296025276 0 0 0 0
2300248060 0.13457229733467102 -0.2592320442199707 -0.004486948251724243 -0.0006670849397778511 0 0 0 0
2303970144 0.12153267860412598 -0.2612767815589905 -0.005350311286747456 0.00010759104043245316 0 0 0 0
2307692228 0.09554368257522583 -0.261364221572876 -0.005607206374406815 0.0014053648337721825 0 0 0 0
2311414312 0.07299631834030151 -0.25954669713974 -0.005107847973704338 0.00215828325599432 0 0 0 0
2315136396 0.0508386492729187 -0.252644419670105 -0.004490897990763187 0.0026035401970148087 0 0 0 0
2318858480 0.02757374942302704 -0.24203413724899292 -0.004038901999592781 0.002732600085437298 0 0 0 0
2322580564 0.005680102854967117 -0.22664308547973633 -0.004021838307380676 0.002771618776023388 0 0 0 0
2326302648 -0.0029239272698760033 -0.20873099565505981 -0.003962456248700619 0.002816055901348591 0 0 0 0
2330024732 -0.016115739941596985 -0.18857407569885254 -0.0038162758573889732 0.003357594832777977 0 0 0 0
2333746816 -0.025750014930963516 -0.16676707565784454 -0.0038115913048386574 0.0036507388576865196 0 0 0 0
2337468900 -0.030875839293003082 -0.14362797141075134 -0.0037124594673514366 0.004264520481228828 0 0 0 0
2341190984 -0.033366069197654724 -0.11728568375110626 -0.0032444633543491364 0.00473901629447937 0 0 0 0
2344913068 -0.02943544276058674 -0.09125041216611862 -0.0026003513485193253 0.005100480280816555 0 0 0 0
2348635152 -0.021244997158646584 -0.06545937061309814 -0.0023651551455259323 0.00521230511367321 0 0 0 0
2352357236 -0.008579098619520664 -0.0413152351975441 -0.002028249204158783 0.005337368696928024 0 0 0 0
2356079320 0.009514190256595612 -0.019958294928073883 -0.0014658961445093155 0.0056085409596562386 0 0 0 0
2359801404 0.030115637928247452 -0.002510744147002697 -0.0007369127124547958 0.005803975276648998 0 0 0 0
2363523488 0.05363516882061958 0.01087997667491436 -9.062513709068298e-05 0.005582673475146294 0 0 0 0
2367245572 0.0795576348900795 0.02126975543797016 -0.00010962598025798798 0.005088193342089653 0 0 0 0
2370967656 0.10844652354717255 0.026096545159816742 -0.00035847723484039307 0.005453505553305149 0 0 0 0
2374689740 0.13812530040740967 0.025137025862932205 0.00020665396004915237 0.006202520802617073 0 0 0 0
2378411824 0.16561438143253326 0.019806839525699615 0.0009592399001121521 0.006471710279583931 0 0 0 0
2382133908 0.19268125295639038 0.009197041392326355 0.0018319860100746155 0.00651615671813488 0 0 0 0
2385855992 0.21687404811382294 -0.005084272474050522 0.0024619214236736298 0.006518353708088398 0 0 0 0
2389578076 0.23697929084300995 -0.02490747720003128 0.0034088315442204475 0.0063517773523926735 0 0 0 0
2393300160 0.2537030279636383 -0.045406900346279144 0.0041505564004182816 0.006405221298336983 0 0 0 0
2397022244 0.26606419682502747 -0.0697658583521843 0.005283418111503124 0.006397182121872902 0 0 0 0
2400744328 0.27468279004096985 -0.09451361745595932 0.006875166669487953 0.0057386187836527824 0 0 0 0
2404466412 0.2818779945373535 -0.11925049126148224 0.008425164967775345 0.0047569917514920235 0 0 0 0
2408188496 0.28479865193367004 -0.14495794475078583 0.009567011147737503 0.0032516689971089363 0 0 0 0
2411910580 0.2862165570259094 -0.16833016276359558 0.010233242064714432 0.0013972287997603416 0 0 0 0
2415632664 0.27716755867004395 -0.19907647371292114 0.010405844077467918 -0.0006149699911475182 0 0 0 0
2419354748 0.26769012212753296 -0.22375689446926117 0.010390733368694782 -0.0024848617613315582 0 0 0 0
2423076832 0.25587013363838196 -0.24716293811798096 0.010079601779580116 -0.00438645388931036 0 0 0 0
2426798916 0.23591163754463196 -0.2699688673019409 0.009153734892606735 -0.006703023798763752 0 0 0 0
2430521000 0.21586602926254272 -0.2893024981021881 0.007731272839009762 -0.008261731825768948 0 0 0 0
2434243084 0.1927233338356018 -0.30383139848709106 0.005832815542817116 -0.009396295994520187 0 0 0 0
2437965168 0.16899976134300232 -0.3145327568054199 0.004241800867021084 -0.009911964647471905 0 0 0 0
2441687252 0.14184284210205078 -0.32260480523109436 0.0029524769634008408 -0.010310860350728035 0 0 0 0
2445409336 0.11527980864048004 -0.32751011848449707 0.0017264150083065033 -0.010738412849605083 0 0 0 0
2449131420 0.08667006343603134 -0.3271321654319763 0.0005153156816959381 -0.01117620524019003 0 0 0 0
2452853504 0.05575583130121231 -0.32111281156539917 -0.0012177517637610435 -0.01177484355866909 0 0 0 0
2456575588 0.027396708726882935 -0.31350967288017273 -0.002913404256105423 -0.012188165448606014 0 0 0 0
2460297672 0.0033675236627459526 -0.2993440628051758 -0.00511610321700573 -0.012250562198460102 0 0 0 0
2464019756 -0.0200626403093338 -0.2812396287918091 -0.0075330110266804695 -0.01189618743956089 0 0 0 0
2467741840 -0.03995099291205406 -0.26032158732414246 -0.009891171008348465 -0.010585400275886059 0 0 0 0
2471463924 -0.057613518089056015 -0.23745042085647583 -0.011913862079381943 -0.008848103694617748 0 0 0 0
2475186008 -0.06915774941444397 -0.21292319893836975 -0.013414119370281696 -0.006924305111169815 0 0 0 0
2478908092 -0.07869043201208115 -0.18573376536369324 -0.014539712108671665 -0.004653383046388626 0 0 0 0
2482630176 -0.08525323122739792 -0.15699894726276398 -0.015306355431675911 -0.002357909455895424 0 0 0 0
2486352260 -0.08731747418642044 -0.12863165140151978 -0.015835098922252655 7.20396637916565e-05 0 0 0 0
2490074344 -0.0847533643245697 -0.09894705563783646 -0.015889007598161697 0.002625308930873871 0 0 0 0
2493796428 -0.07674328982830048 -0.07023334503173828 -0.015282003208994865 0.005161467008292675 0 0 0 0
2497518512 -0.06499122828245163 -0.04266516491770744 -0.014097314327955246 0.007539999671280384 0 0 0 0
2501240596 -0.047779232263565063 -0.017323097214102745 -0.012673662975430489 0.009402627125382423 0 0 0 0
2504962680 -0.0276640597730875 0.004829729907214642 -0.01122618280351162 0.010852972976863384 0 0 0 0
2508684764 -0.00461315643042326 0.02299037203192711 -0.009844467975199223 0.01257662195712328 0 0 0 0
2512406848 0.020989030599594116 0.03725519776344299 -0.008223292417824268 0.014335405081510544 0 0 0 0
2516128932 0.04868564009666443 0.04820234701037407 -0.0057932548224925995 0.015821970999240875 0 0 0 0
2519851016 0.07769770920276642 0.05466490611433983 -0.0027392683550715446 0.016777388751506805 0 0 0 0
2523573100 0.10745716094970703 0.05546419695019722 0.0003235442563891411 0.016857311129570007 0 0 0 0
2527295184 0.13578681647777557 0.0522022470831871 0.0032379506155848503 0.01610845886170864 0 0 0 0
2531017268 0.16469287872314453 0.04174859821796417 0.006208297796547413 0.014784728176891804 0 0 0 0
2534739352 0.18855233490467072 0.029461190104484558 0.008363155648112297 0.012725405395030975 0 0 0 0
2538461436 0.21075403690338135 0.014770127832889557 0.009847195819020271 0.010211256332695484 0 0 0 0
2542183520 0.22987428307533264 -0.003458961844444275 0.01047331839799881 0.007870277389883995 0 0 0 0
2545905604 0.24434977769851685 -0.027053313329815865 0.010643092915415764 0.005615053698420525 0 0 0 0
2549627688 0.2568923234939575 -0.04779190570116043 0.01050262339413166 0.003713048994541168 0 0 0 0
2553349772 0.2659267783164978 -0.07169939577579498 0.010339816100895405 0.0019006924703717232 0 0 0 0
2557071856 0.2680729925632477 -0.0962580144405365 0.009618197567760944 0.0001018596813082695 0 0 0 0
2560793940 0.269628643989563 -0.11772733926773071 0.008479543030261993 -0.0015286486595869064 0 0 0 0
2564516024 0.26588401198387146 -0.14322954416275024 0.007117517292499542 -0.002680218778550625 0 0 0 0
2568238108 0.25962957739830017 -0.16304340958595276 0.005888806656002998 -0.0034331949427723885 0 0 0 0
2571960192 0.2537825107574463 -0.180561825633049 0.004440002143383026 -0.00405448954552412 0 0 0 0
2575682276 0.24089762568473816 -0.20039355754852295 0.003241950646042824 -0.004558183252811432 0 0 0 0
2579404360 0.22790321707725525 -0.2155400663614273 0.0019976189360022545 -0.005015209317207336 0 0 0 0
2583126444 0.21441206336021423 -0.22744575142860413 0.000568930059671402 -0.005488698370754719 0 0 0 0
2586848528 0.19932834804058075 -0.23800240457057953 -0.0011243969202041626 -0.005704258568584919 0 0 0 0
2590570612 0.18058176338672638 -0.24894775450229645 -0.0028036944568157196 -0.005238154903054237 0 0 0 0
2594292696 0.16309526562690735 -0.25499945878982544 -0.004168563522398472 -0.004606868140399456 0 0 0 0
2598014780 0.14546823501586914 -0.2610044479370117 -0.004941264167428017 -0.0034756632521748543 0 0 0 0
2601736864 0.1294786036014557 -0.2622718811035156 -0.005865154787898064 -0.0022712452337145805 0 0 0 0
2605458948 0.10838622599840164 -0.26041916012763977 -0.00623748917132616 -0.0008364133536815643 0 0 0 0
2609181032 0.08841020613908768 -0.2568648159503937 -0.005917631089687347 0.0005368310958147049 0 0 0 0
2612903116 0.07070011645555496 -0.24993476271629333 -0.005127958953380585 0.001642070710659027 0 0 0 0
2616625200 0.05201715975999832 -0.23974572122097015 -0.003697264939546585 0.001988722011446953 0 0 0 0
2620347284 0.04192858561873436 -0.22733734548091888 -0.0031072190031409264 0.0019465014338493347 0 0 0 0
2624069368 0.03047919273376465 -0.21294894814491272 -0.002481449395418167 0.0018596537411212921 0 0 0 0
2627791452 0.018374653533101082 -0.197964608669281 -0.0023947330191731453 0.003547270782291889 0 0 0 0
2631513536 0.012012796476483345 -0.181073397397995 -0.0012112213298678398 0.0030873622745275497 0 0 0 0
2635235620 0.009489893913269043 -0.16264332830905914 -0.0002371314913034439 0.0024104686453938484 0 0 0 0
2638957704 0.011015341617166996 -0.14526408910751343 0.00029477570205926895 0.0014512008056044579 0 0 0 0
2642679788 0.013564715161919594 -0.12918975949287415 0.00048605259507894516 0.0003913678228855133 0 0 0 0
2646401872 0.02176019549369812 -0.11385088413953781 0.00018665660172700882 -0.000435464084148407 0 0 0 0
2650123956 0.03243982791900635 -0.10115300118923187 -0.0002250364050269127 -0.0009457198902964592 0 0 0 0
2653846040 0.0435607023537159 -0.09099867194890976 -0.000870787538588047 -0.0012331875041127205 0 0 0 0
2657568124 0.05833123251795769 -0.08433350920677185 -0.0013855155557394028 -0.0014202529564499855 0 0 0 0
2661290208 0.07397958636283875 -0.08039920032024384 -0.0018102601170539856 -0.0012803301215171814 0 0 0 0
2665012292 0.08877292275428772 -0.08142443001270294 -0.002701348625123501 -0.0009652813896536827 0 0 0 0
2668734376 0.10157717764377594 -0.08485370874404907 -0.003363674506545067 -1.4547258615493774e-06 0 0 0 0
2672456460 0.11386702209711075 -0.08939790725708008 -0.0033571776002645493 0.0012767398729920387 0 0 0 0
2676178544 0.12337949126958847 -0.09856564551591873 -0.002953394316136837 0.0023316117003560066 0 0 0 0
2679900628 0.1305488795042038 -0.10770589113235474 -0.0021834922954440117 0.0028262268751859665 0 0 0 0
2683622712 0.13766004145145416 -0.1191001683473587 -0.0015331963077187538 0.0030909711495041847 0 0 0 0
2687344796 0.1397985816001892 -0.13035991787910461 -0.0006743883714079857 0.0029690470546483994 0 0 0 0
2691066880 0.14165379106998444 -0.14224301278591156 4.3781474232673645e-06 0.002400878816843033 0 0 0 0
2694788964 0.13812783360481262 -0.15464657545089722 0.00015706755220890045 0.0018013985827565193 0 0 0 0
2698511048 0.13393662869930267 -0.16640298068523407 4.798080772161484e-05 0.0017078397795557976 0 0 0 0
2702233132 0.1270790994167328 -0.17610707879066467 0.00017509236931800842 0.0015455102548003197 0 0 0 0
2705955216 0.11690026521682739 -0.18570685386657715 0.0005583027377724648 0.001202738843858242 0 0 0 0
2709677300 0.10598675906658173 -0.19370496273040771 0.0005878983065485954 0.0007831566035747528 0 0 0 0
2713399384 0.09462913870811462 -0.19770276546478271 0.00023655500262975693 0.00028374791145324707 0 0 0 0
2717121468 0.07835641503334045 -0.20067302882671356 -0.00018944218754768372 0.000305897556245327 0 0 0 0
2720843552 0.06561324745416641 -0.19997398555278778 -0.00042151380330324173 0.0002828584983944893 0 0 0 0
2724565636 0.05181412398815155 -0.1965595781803131 -0.0005282443016767502 0.0004555070772767067 0 0 0 0
2728287720 0.03512585163116455 -0.19133251905441284 -0.0005106506869196892 0.000548090785741806 0 0 0 0
2732009804 0.02457652986049652 -0.18270590901374817 -0.00037883687764406204 0.0008308952674269676 0 0 0 0
2735731888 0.01297856867313385 -0.1714801788330078 -3.3756718039512634e-05 0.0009765448048710823 0 0 0 0
2739453972 0.003512240946292877 -0.15893174707889557 0.00038019008934497833 0.0008423933759331703 0 0 0 0
2743176056 -0.003998646512627602 -0.14390040934085846 0.0007402040064334869 0.0007745949551463127 0 0 0 0
2746898140 -0.010968543589115143 -0.12691569328308105 0.0012282719835639 0.0006767362356185913 0 0 0 0
2750620224 -0.011347830295562744 -0.10941086709499359 0.001827932894229889 0.0002487925812602043 0 0 0 0
2754342308 -0.011260520666837692 -0.09162309020757675 0.002207202836871147 -0.0005439752712845802 0 0 0 0
2758064392 -0.00867965817451477 -0.07310336828231812 0.0022656619548797607 -0.0016558980569243431 0 0 0 0
2761786476 -0.0019416194409132004 -0.0541752390563488 0.0015738317742943764 -0.002520429901778698 0 0 0 0
2765508560 0.007983541116118431 -0.03613061457872391 0.0006529754027724266 -0.0028303517028689384 0 0 0 0
2769230644 0.02108822390437126 -0.01961897686123848 -0.00016376283019781113 -0.0026535093784332275 0 0 0 0
2772952728 0.03890940174460411 -0.004718172363936901 -0.0006530275568366051 -0.0022215554490685463 0 0 0 0
2776674812 0.059078000485897064 0.006207320839166641 -0.0007954547181725502 -0.0018877973780035973 0 0 0 0
2780396896 0.08129306137561798 0.013719886541366577 -0.0007088258862495422 -0.0014035478234291077 0 0 0 0
2784118980 0.10450685024261475 0.01641378179192543 -0.0005984948948025703 -0.001321127638220787 0 0 0 0
2787841064 0.12753675878047943 0.014651935547590256 -0.0002531222999095917 -0.0011682054027915 0 0 0 0
2791563148 0.149672731757164 0.00956491008400917 7.943157106637955e-05 -0.0014688679948449135 0 0 0 0
2795285232 0.16998592019081116 0.0025593265891075134 0.00011984910815954208 -0.0018763495609164238 0 0 0 0
2799007316 0.1911679208278656 -0.009591154754161835 -0.00022186897695064545 -0.0022076889872550964 0 0 0 0
2802729400 0.20939461886882782 -0.02293286845088005 -0.0006099268794059753 -0.0023438837379217148 0 0 0 0
2806451484 0.22579936683177948 -0.04136279597878456 -0.001138884574174881 -0.0024192268028855324 0 0 0 0
2810173568 0.24072954058647156 -0.05847882106900215 -0.0016505243256688118 -0.0021472787484526634 0 0 0 0
2813895652 0.2519095838069916 -0.08318346738815308 -0.00205096323043108 -0.001735784113407135 0 0 0 0
2817617736 0.2584555149078369 -0.10760723054409027 -0.002250491641461849 -0.001094871200621128 0 0 0 0
2821339820 0.26168766617774963 -0.132069930434227 -0.0022728359326720238 -0.0005443496629595757 0 0 0 0
2825061904 0.26144498586654663 -0.1576899141073227 -0.002215694636106491 -0.00011507421731948853 0 0 0 0
2828783988 0.2570349872112274 -0.18078269064426422 -0.0019769929349422455 0.0003509530797600746 0 0 0 0
2832506072 0.24959905445575714 -0.2028762251138687 -0.0017204927280545235 0.0007176501676440239 0 0 0 0
2836228156 0.23785242438316345 -0.2252553403377533 -0.0011998126283288002 0.0009043468162417412 0 0 0 0
2839950240 0.22502346336841583 -0.24523915350437164 -0.0008109211921691895 0.0007926449179649353 0 0 0 0
2843672324 0.20929628610610962 -0.2631438970565796 -0.0005153054371476173 0.0007420768961310387 0 0 0 0
2847394408 0.19175848364830017 -0.2782161235809326 -0.00032047461718320847 0.0006714919582009315 0 0 0 0
2851116492 0.1727510392665863 -0.2920728027820587 -0.00028178561478853226 0.0004908116534352303 0 0 0 0
2854838576 0.1458868384361267 -0.30582189559936523 -0.0002836668863892555 0.000302119180560112 0 0 0 0
2858560660 0.1324782520532608 -0.31245899200439453 -0.00015718303620815277 0.00011242832988500595 0 0 0 0
2862282744 0.10453597456216812 -0.3185443580150604 -8.580740541219711e-05 8.055195212364197e-05 0 0 0 0
2866004828 0.08359591662883759 -0.3188132047653198 2.8633512556552887e-05 0.00012478511780500412 0 0 0 0
2869726912 0.056793779134750366 -0.3196384906768799 0.00023621320724487305 -3.912393003702164e-05 0 0 0 0
2873448996 0.031038343906402588 -0.3160134255886078 0.000161830335855484 -0.00019410904496908188 0 0 0 0
2877171080 0.006546542048454285 -0.30785927176475525 2.451147884130478e-05 -0.00042190682142972946 0 0 0 0
2880893164 -0.01628493145108223 -0.2976284921169281 -0.00023562554270029068 -0.0004423651844263077 0 0 0 0
2884615248 -0.03688453510403633 -0.28318044543266296 -0.0004573604092001915 -0.0002004457637667656 0 0 0 0
2888337332 -0.0573677122592926 -0.2681652009487152 -0.0005459962412714958 -0.00014077965170145035 0 0 0 0
2892059416 -0.07339778542518616 -0.2501462697982788 -0.00064836535602808 7.402058690786362e-05 0 0 0 0
2895781500 -0.08852768689393997 -0.23103103041648865 -0.0007652854546904564 0.00030799582600593567 0 0 0 0
2899503584 -0.10068796575069427 -0.20892944931983948 -0.0008029639720916748 0.0007704021409153938 0 0 0 0
2903225668 -0.11272706091403961 -0.18590441346168518 -0.0006837919354438782 0.001284327358007431 0 0 0 0
2906947752 -0.12111645191907883 -0.1600295603275299 -0.00040871184319257736 0.001574324443936348 0 0 0 0
2910669836 -0.12485834211111069 -0.13377054035663605 -4.320219159126282e-05 0.0020281560719013214 0 0 0 0
2914391920 -0.12450417876243591 -0.10636453330516815 0.00033119041472673416 0.0023947032168507576 0 0 0 0
2918114004 -0.1206398606300354 -0.07829126715660095 0.0009052883833646774 0.0027101244777441025 0 0 0 0
2921836088 -0.1127384603023529 -0.052760232239961624 0.0017241379246115685 0.002862066961824894 0 0 0 0
2925558172 -0.10157380253076553 -0.028676457703113556 0.0024929121136665344 0.0025433050468564034 0 0 0 0
2929280256 -0.08812695741653442 -0.004270784556865692 0.00306109432131052 0.0021259449422359467 0 0 0 0
2933002340 -0.07107085734605789 0.01651972346007824 0.0033902479335665703 0.0016726348549127579 0 0 0 0
2936724424 -0.05211120471358299 0.03503081575036049 0.003487691283226013 0.0013682711869478226 0 0 0 0
2940446508 -0.030125785619020462 0.05103114992380142 0.0038079749792814255 0.0009081298485398293 0 0 0 0
2944168592 -0.006070240400731564 0.06483974307775497 0.003961718641221523 0.0006640460342168808 0 0 0 0
2947890676 0.01913759671151638 0.07453247159719467 0.004213312640786171 0.0005214493721723557 0 0 0 0
2951612760 0.047084107995033264 0.08071893453598022 0.004525280557572842 0.0001941891387104988 0 0 0 0
2955334844 0.07332038134336472 0.08385813236236572 0.004827383905649185 -0.0001478828489780426 0 0 0 0
2959056928 0.10117681324481964 0.08182152360677719 0.005046382546424866 -0.0006915740668773651 0 0 0 0
2962779012 0.1287863552570343 0.07498818635940552 0.005367442965507507 -0.001367117278277874 0 0 0 0
2966501096 0.1536673903465271 0.06687527149915695 0.005516970530152321 -0.0020367763936519623 0 0 0 0
2970223180 0.17648708820343018 0.055206555873155594 0.005513985641300678 -0.0031097708269953728 0 0 0 0
2973945264 0.1976550668478012 0.03910892456769943 0.004947167821228504 -0.003910882398486137 0 0 0 0
2977667348 0.21704135835170746 0.021455995738506317 0.004221261478960514 -0.0047231921926140785 0 0 0 0
2981389432 0.23263341188430786 0.003056660294532776 0.0032762596383690834 -0.005044037476181984 0 0 0 0
2985111516 0.2467001974582672 -0.018831327557563782 0.002447531558573246 -0.005451397970318794 0 0 0 0
2988833600 0.2569250464439392 -0.04148747771978378 0.0016616731882095337 -0.005626206286251545 0 0 0 0
2992555684 0.2643427550792694 -0.06622125208377838 0.0006089033558964729 -0.005670709535479546 0 0 0 0
2996277768 0.26721811294555664 -0.09106500446796417 -0.0005250079557299614 -0.005687503144145012 0 0 0 0
2999999852 0.26945042610168457 -0.11251971125602722 -0.0015061218291521072 -0.005586770363152027 0 0 0 0
