# HZ S RI R 50
1500000000 -0.016234930604696274 -0.039055246859788895 0.036867570132017136 -0.024682313203811646 0 0 0 0
1503722084 -0.00495778676122427 -0.0328897200524807 0.032677195966243744 -0.030234554782509804 0 0 0 0
1507444168 0.0071737999096512794 -0.026320818811655045 0.027495648711919785 -0.034340448677539825 0 0 0 0
1511166252 0.021531634032726288 -0.019380370154976845 0.021984770894050598 -0.03824231028556824 0 0 0 0
1514888336 0.03882244601845741 -0.013843778520822525 0.01605502888560295 -0.041958410292863846 0 0 0 0
1518610420 0.05842868238687515 -0.010670049116015434 0.007812134921550751 -0.0449795126914978 0 0 0 0
1522332504 0.07837516069412231 -0.009717252105474472 -0.0011151190847158432 -0.04501691460609436 0 0 0 0
1526054588 0.1003110408782959 -0.009915183298289776 -0.0092653539031744 -0.042588185518980026 0 0 0 0
1529776672 0.12386558949947357 -0.012850292026996613 -0.016355188563466072 -0.03846890851855278 0 0 0 0
1533498756 0.14965608716011047 -0.020089421421289444 -0.021468210965394974 -0.033761315047740936 0 0 0 0
1537220840 0.17696788907051086 -0.031498637050390244 -0.025702226907014847 -0.028623614460229874 0 0 0 0
1540942924 0.20446446537971497 -0.04763256385922432 -0.028848903253674507 -0.023296281695365906 0 0 0 0
1544665008 0.2301660180091858 -0.0712558776140213 -0.031034892424941063 -0.01740608550608158 0 0 0 0
1548387092 0.25192248821258545 -0.09892618656158447 -0.03169574216008186 -0.01169828325510025 0 0 0 0
1552109176 0.2683740556240082 -0.1306518167257309 -0.03142344951629639 -0.00619250163435936 0 0 0 0
1555831260 0.28282055258750916 -0.16522912681102753 -0.030284332111477852 -0.0017350995913147926 0 0 0 0
1559553344 0.2921181917190552 -0.20410317182540894 -0.02901289239525795 0.0023283222690224648 0 0 0 0
1563275428 0.2947278916835785 -0.24429666996002197 -0.027438156306743622 0.006315623410046101 0 0 0 0
1566997512 0.2893906831741333 -0.2879769802093506 -0.02503952942788601 0.010263665579259396 0 0 0 0
1570719596 0.27972838282585144 -0.3269263207912445 -0.021695079281926155 0.013384317047894001 0 0 0 0
1574441680 0.2612605690956116 -0.36846327781677246 -0.018269214779138565 0.015076068229973316 0 0 0 0
1578163764 0.24099764227867126 -0.4071284532546997 -0.015130572021007538 0.016109492629766464 0 0 0 0
1581885848 0.2160264104604721 -0.4451230466365814 -0.012315260246396065 0.016640786081552505 0 0 0 0
1585607932 0.178303062915802 -0.4808978736400604 -0.00995647069066763 0.016607845202088356 0 0 0 0
1589330016 0.13397347927093506 -0.5106649994850159 -0.007918985560536385 0.016688087955117226 0 0 0 0
1593052100 0.0843784362077713 -0.5325156450271606 -0.006250432692468166 0.01696358434855938 0 0 0 0
1596774184 0.03565181791782379 -0.5470010638237 -0.004555976949632168 0.017134251073002815 0 0 0 0
1600496268 -0.01815497875213623 -0.5532753467559814 -0.0028386740013957024 0.017360610887408257 0 0 0 0
1604218352 -0.0704374611377716 -0.5539400577545166 -0.0009841732680797577 0.01750488206744194 0 0 0 0
1607940436 -0.1303071677684784 -0.5462578535079956 0.0009136209264397621 0.017566155642271042 0 0 0 0
1611662520 -0.18282659351825714 -0.5315607190132141 0.002809233032166958 0.01770544983446598 0 0 0 0
1615384604 -0.23882026970386505 -0.5073420405387878 0.005283159203827381 0.01796307973563671 0 0 0 0
1619106688 -0.2920527458190918 -0.4725364148616791 0.008268424309790134 0.01731931045651436 0 0 0 0
1622828772 -0.3374805450439453 -0.4327566921710968 0.011044452898204327 0.015820492058992386 0 0 0 0
1626550856 -0.37987014651298523 -0.3836800754070282 0.013473120518028736 0.013917901553213596 0 0 0 0
1630272940 -0.41516727209091187 -0.32529959082603455 0.015437474474310875 0.011731237173080444 0 0 0 0
1633995024 -0.4440325200557709 -0.2600194811820984 0.01724015176296234 0.00897829607129097 0 0 0 0
1637717108 -0.4620690941810608 -0.1924213021993637 0.01834481954574585 0.006330166012048721 0 0 0 0
1641439192 -0.46807539463043213 -0.1225060224533081 0.019516995176672935 0.003316858783364296 0 0 0 0
1645161276 -0.46395739912986755 -0.043554335832595825 0.01981186494231224 -0.0006676875054836273 0 0 0 0
1648883360 -0.44726693630218506 0.0319952666759491 0.018777035176753998 -0.004221244715154171 0 0 0 0
1652605444 -0.4178902506828308 0.10527318716049194 0.01726989634335041 -0.006925520487129688 0 0 0 0
1656327528 -0.3775469660758972 0.171929270029068 0.015538228675723076 -0.009367948397994041 0 0 0 0
1660049612 -0.3226669132709503 0.23440569639205933 0.013657670468091965 -0.011387431994080544 0 0 0 0
1663771696 -0.2583807408809662 0.28687119483947754 0.011460601352155209 -0.013237930834293365 0 0 0 0
1667493780 -0.18465295433998108 0.3303283452987671 0.00903070904314518 -0.014890812337398529 0 0 0 0
1671215864 -0.104988232254982 0.3598686456680298 0.00629821140319109 -0.015931949019432068 0 0 0 0
1674937948 -0.020950371399521828 0.3760896921157837 0.0032069338485598564 -0.01672263629734516 0 0 0 0
1678660032 0.06510855257511139 0.3786822557449341 -0.00030047912150621414 -0.016519829630851746 0 0 0 0
1682382116 0.15071159601211548 0.3662339150905609 -0.003494933247566223 -0.015180348418653011 0 0 0 0
1686104200 0.23099128901958466 0.34148839116096497 -0.005543077364563942 -0.013164639472961426 0 0 0 0
1689826284 0.30709633231163025 0.30399447679519653 -0.007047601975500584 -0.011113262735307217 0 0 0 0
1693548368 0.37591588497161865 0.25423482060432434 -0.007979043759405613 -0.009185775183141232 0 0 0 0
1697270452 0.43451693654060364 0.19561026990413666 -0.00848892331123352 -0.00723895151168108 0 0 0 0
1700992536 0.4841424226760864 0.12679462134838104 -0.008320842869579792 -0.0056026289239525795 0 0 0 0
1704714620 0.5224733352661133 0.05497364699840546 -0.00805021170526743 -0.004515640437602997 0 0 0 0
1708436704 0.5483349561691284 -0.023185372352600098 -0.00784340687096119 -0.003686990588903427 0 0 0 0
1712158788 0.562744140625 -0.10122191905975342 -0.007792861200869083 -0.003085504285991192 0 0 0 0
1715880872 0.5638543963432312 -0.18058282136917114 -0.007870795205235481 -0.0026120636612176895 0 0 0 0
1719602956 0.5501485466957092 -0.26270800828933716 -0.008045753464102745 -0.001805800013244152 0 0 0 0
1723325040 0.5297117829322815 -0.33495190739631653 -0.00801996048539877 -0.0009005563333630562 0 0 0 0
1727047124 0.49488765001296997 -0.4080616235733032 -0.007723553106188774 -0.00018721725791692734 0 0 0 0
1730769208 0.45244500041007996 -0.46902763843536377 -0.00754737202078104 0.00029281526803970337 0 0 0 0
1734491292 0.39868831634521484 -0.5255090594291687 -0.007629658095538616 0.0007801288738846779 0 0 0 0
1738213376 0.3412240445613861 -0.572845995426178 -0.007592738606035709 0.00154154933989048 0 0 0 0
1741935460 0.27432674169540405 -0.6096948385238647 -0.007342269644141197 0.0022005951032042503 0 0 0 0
1745657544 0.2069837749004364 -0.6350345015525818 -0.0073269447311758995 0.0026926547288894653 0 0 0 0
1749379628 0.13422773778438568 -0.6501282453536987 -0.0072565022855997086 0.00334211066365242 0 0 0 0
1753101712 0.060695499181747437 -0.6541604399681091 -0.007200675085186958 0.003899100236594677 0 0 0 0
1756823796 -0.013129658997058868 -0.6464048624038696 -0.007343473844230175 0.004499474540352821 0 0 0 0
1760545880 -0.07997527718544006 -0.6290032863616943 -0.007669948972761631 0.005638563074171543 0 0 0 0
1764267964 -0.14057223498821259 -0.6002104878425598 -0.007615215145051479 0.0073257386684417725 0 0 0 0
1767990048 -0.20191915333271027 -0.5655065774917603 -0.006888885982334614 0.009448373690247536 0 0 0 0
1771712132 -0.2503548264503479 -0.5206172466278076 -0.005182007327675819 0.010765290819108486 0 0 0 0
1775434216 -0.2942894697189331 -0.47156399488449097 -0.003530210815370083 0.011337803676724434 0 0 0 0
1779156300 -0.32792794704437256 -0.4172475039958954 -0.0023426981642842293 0.011813463643193245 0 0 0 0
1782878384 -0.3557596206665039 -0.3561522960662842 -0.00132024846971035 0.012238766998052597 0 0 0 0
1786600468 -0.37497031688690186 -0.29411959648132324 -0.00026671215891838074 0.013063903898000717 0 0 0 0
1790322552 -0.3820810616016388 -0.22992047667503357 0.0011072289198637009 0.014215379022061825 0 0 0 0
1794044636 -0.38069066405296326 -0.1658155918121338 0.0035729967057704926 0.015274018049240112 0 0 0 0
1797766720 -0.36824798583984375 -0.1061864122748375 0.006380903534591198 0.015818757936358452 0 0 0 0
1801488804 -0.34784674644470215 -0.048062801361083984 0.009667646139860153 0.015645893290638924 0 0 0 0
1805210888 -0.3208400011062622 0.006813669577240944 0.012995091266930103 0.014678520150482655 0 0 0 0
1808932972 -0.2846674919128418 0.05635879561305046 0.01602633111178875 0.013042934238910675 0 0 0 0
1812655056 -0.24317285418510437 0.1000601053237915 0.019025936722755432 0.011184200644493103 0 0 0 0
1816377140 -0.19443166255950928 0.1358942687511444 0.021990591660141945 0.008611327968537807 0 0 0 0
1820099224 -0.14130166172981262 0.16391895711421967 0.02495167963206768 0.00499492883682251 0 0 0 0
1823821308 -0.08417736738920212 0.18195775151252747 0.027160702273249626 -0.0004230039194226265 0 0 0 0
1827543392 -0.025863438844680786 0.19071362912654877 0.02731701359152794 -0.006048024632036686 0 0 0 0
1831265476 0.030777350068092346 0.18927553296089172 0.026759371161460876 -0.011194764636456966 0 0 0 0
1834987560 0.08695665746927261 0.17938058078289032 0.025616759434342384 -0.016916899010539055 0 0 0 0
1838709644 0.13967880606651306 0.159811869263649 0.02248823456466198 -0.023011866956949234 0 0 0 0
1842431728 0.18671229481697083 0.1340010166168213 0.017161309719085693 -0.027940550819039345 0 0 0 0
1846153812 0.22790218889713287 0.10213492810726166 0.011695745401084423 -0.030995581299066544 0 0 0 0
1849875896 0.2633017897605896 0.06253661960363388 0.005584424361586571 -0.032874349504709244 0 0 0 0
1853597980 0.2903768718242645 0.019080888479948044 -0.000324849970638752 -0.033667344599962234 0 0 0 0
1857320064 0.3098292052745819 -0.02472367137670517 -0.006600469350814819 -0.03340725973248482 0 0 0 0
1861042148 0.3198842704296112 -0.07409459352493286 -0.012859206646680832 -0.03184615820646286 0 0 0 0
1864764232 0.32288238406181335 -0.11918970197439194 -0.0186476968228817 -0.029312945902347565 0 0 0 0
1868486316 0.3184838593006134 -0.16672268509864807 -0.02398614212870598 -0.026064220815896988 0 0 0 0
1872208400 0.30491334199905396 -0.210296630859375 -0.028708565980196 -0.021713584661483765 0 0 0 0
1875930484 0.28373757004737854 -0.24953767657279968 -0.03313645347952843 -0.015985464677214622 0 0 0 0
1879652568 0.25623416900634766 -0.28422582149505615 -0.036023080348968506 -0.008918936364352703 0 0 0 0
1883374652 0.2287573218345642 -0.30938494205474854 -0.0369548499584198 -0.0016001826152205467 0 0 0 0
1887096736 0.19720789790153503 -0.32894566655158997 -0.03618288040161133 0.0053503019735217094 0 0 0 0
1890818820 0.1613485962152481 -0.34546929597854614 -0.03396248817443848 0.011541155166924 0 0 0 0
1894540904 0.12665300071239471 -0.35290777683258057 -0.03103877231478691 0.016895897686481476 0 0 0 0
1898262988 0.08955064415931702 -0.3561885952949524 -0.027333715930581093 0.021451815962791443 0 0 0 0
1901985072 0.055160023272037506 -0.3524904251098633 -0.0236599612981081 0.025183595716953278 0 0 0 0
1905707156 0.02350570261478424 -0.3412458896636963 -0.019872985780239105 0.028205111622810364 0 0 0 0
1909429240 -0.004025198519229889 -0.3276227116584778 -0.015999041497707367 0.031840723007917404 0 0 0 0
1913151324 -0.029453352093696594 -0.30891966819763184 -0.01047198660671711 0.035262592136859894 0 0 0 0
1916873408 -0.05178500711917877 -0.286602258682251 -0.0037999162450432777 0.03720332682132721 0 0 0 0
1920595492 -0.06873577833175659 -0.26092150807380676 0.0030376464128494263 0.03793547302484512 0 0 0 0
1924317576 -0.08001947402954102 -0.23347032070159912 0.010278965346515179 0.037485718727111816 0 0 0 0
1928039660 -0.08853910863399506 -0.20472338795661926 0.01757100597023964 0.03572411462664604 0 0 0 0
1931761744 -0.09043972194194794 -0.1754276603460312 0.025153139606118202 0.03163573890924454 0 0 0 0
1935483828 -0.08730258792638779 -0.14573517441749573 0.03127050772309303 0.02516460418701172 0 0 0 0
1939205912 -0.07986258715391159 -0.11524854600429535 0.034990355372428894 0.01757747307419777 0 0 0 0
1942927996 -0.0646091103553772 -0.0887221023440361 0.03614303097128868 0.010248102247714996 0 0 0 0
1946650080 -0.046196144074201584 -0.06571189314126968 0.036224063485860825 0.0035476600751280785 0 0 0 0
1950372164 -0.022580696269869804 -0.04711591824889183 0.03580435737967491 -0.0027300724759697914 0 0 0 0
1954094248 0.003619232214987278 -0.03335448354482651 0.03475814685225487 -0.008770301006734371 0 0 0 0
1957816332 0.03196761757135391 -0.02542802318930626 0.03235258162021637 -0.014790738001465797 0 0 0 0
1961538416 0.060675621032714844 -0.024042408913373947 0.028792649507522583 -0.020564567297697067 0 0 0 0
1965260500 0.0882682353258133 -0.027653470635414124 0.024003708735108376 -0.024860046803951263 0 0 0 0
1968982584 0.11391506344079971 -0.03656421974301338 0.018840903416275978 -0.02846168354153633 0 0 0 0
1972704668 0.1365250200033188 -0.050164997577667236 0.013337906450033188 -0.031301096081733704 0 0 0 0
1976426752 0.15544937551021576 -0.0652487725019455 0.007574425078928471 -0.03280488774180412 0 0 0 0
1980148836 0.17245106399059296 -0.08395135402679443 0.0012889588251709938 -0.03339403122663498 0 0 0 0
1983870920 0.1847914606332779 -0.10535112023353577 -0.0050643207505345345 -0.03281550109386444 0 0 0 0
1987593004 0.19551606476306915 -0.12818500399589539 -0.010758924297988415 -0.030945956707000732 0 0 0 0
1991315088 0.20021286606788635 -0.15268096327781677 -0.015954503789544106 -0.027576982975006104 0 0 0 0
1995037172 0.1987093985080719 -0.18076971173286438 -0.020111607387661934 -0.02334681525826454 0 0 0 0
1998759256 0.19337496161460876 -0.20367099344730377 -0.02297118492424488 -0.01990586705505848 0 0 0 0
2002481340 0.18237191438674927 -0.2271999716758728 -0.025670170783996582 -0.015389325097203255 0 0 0 0
2006203424 0.16949480772018433 -0.24706405401229858 -0.027587691321969032 -0.01104795467108488 0 0 0 0
2009925508 0.1519082635641098 -0.26500511169433594 -0.02855149656534195 -0.006285086274147034 0 0 0 0
2013647592 0.13255764544010162 -0.27804088592529297 -0.028915632516145706 -0.0020255912095308304 0 0 0 0
2017369676 0.11244179308414459 -0.2878149449825287 -0.029517333954572678 0.0024962415918707848 0 0 0 0
2021091760 0.08853398263454437 -0.29483792185783386 -0.028871629387140274 0.007364734075963497 0 0 0 0
2024813844 0.06628325581550598 -0.2971140146255493 -0.027797099202871323 0.012347014620900154 0 0 0 0
2028535928 0.041028883308172226 -0.2970825731754303 -0.025380071252584457 0.017350243404507637 0 0 0 0
2032258012 0.0168863907456398 -0.2919888496398926 -0.02228389121592045 0.02154330350458622 0 0 0 0
2035980096 -0.007809072732925415 -0.2831254303455353 -0.01794499345123768 0.025486182421445847 0 0 0 0
2039702180 -0.028165601193904877 -0.268979012966156 -0.012924076057970524 0.028148826211690903 0 0 0 0
2043424264 -0.049071669578552246 -0.2519414722919464 -0.007418869994580746 0.029568782076239586 0 0 0 0
2047146348 -0.06534259021282196 -0.230462908744812 -0.002357330173254013 0.030018556863069534 0 0 0 0
2050868432 -0.07775713503360748 -0.20748460292816162 0.002274000085890293 0.029565585777163506 0 0 0 0
2054590516 -0.08622243255376816 -0.18170912563800812 0.006581930443644524 0.028432602062821388 0 0 0 0
2058312600 -0.0900476723909378 -0.15660934150218964 0.01077082846313715 0.027348725125193596 0 0 0 0
2062034684 -0.09173668175935745 -0.13004200160503387 0.015445230528712273 0.02573350816965103 0 0 0 0
2065756768 -0.09015540778636932 -0.10226640105247498 0.019789833575487137 0.022933870553970337 0 0 0 0
2069478852 -0.08374358713626862 -0.07423463463783264 0.02419865131378174 0.019219979643821716 0 0 0 0
2073200936 -0.07031944394111633 -0.0482693612575531 0.027455633506178856 0.01429850235581398 0 0 0 0
2076923020 -0.05493084341287613 -0.02366708591580391 0.029576588422060013 0.008715666830539703 0 0 0 0
2080645104 -0.034509215503931046 -0.002045012079179287 0.030366891995072365 0.002839723601937294 0 0 0 0
2084367188 -0.011248338967561722 0.01649618148803711 0.029934566468000412 -0.0025666896253824234 0 0 0 0
2088089272 0.015540472231805325 0.03155872970819473 0.028163867071270943 -0.008197689428925514 0 0 0 0
2091811356 0.0450361929833889 0.04161125794053078 0.02552065998315811 -0.012556154280900955 0 0 0 0
2095533440 0.07581715285778046 0.04661189764738083 0.022094659507274628 -0.01640056073665619 0 0 0 0
2099255524 0.10627752542495728 0.04640625789761543 0.0181951355189085 -0.018934588879346848 0 0 0 0
2102977608 0.13709083199501038 0.04318002983927727 0.015131084248423576 -0.020491555333137512 0 0 0 0
2106699692 0.16679753363132477 0.03294864296913147 0.012531906366348267 -0.0223770122975111 0 0 0 0
2110421776 0.19503799080848694 0.02007973939180374 0.009780111722648144 -0.024894462898373604 0 0 0 0
2114143860 0.22099697589874268 -0.0010393224656581879 0.0050666192546486855 -0.027195382863283157 0 0 0 0
2117865944 0.2437724471092224 -0.021853290498256683 -0.00028962455689907074 -0.028056412935256958 0 0 0 0
2121588028 0.26203426718711853 -0.0502045676112175 -0.005831233225762844 -0.027616294100880623 0 0 0 0
2125310112 0.27394577860832214 -0.07797910273075104 -0.011133192107081413 -0.026335082948207855 0 0 0 0
2129032196 0.28028836846351624 -0.10935643315315247 -0.016183113679289818 -0.023553133010864258 0 0 0 0
2132754280 0.2812689244747162 -0.13927790522575378 -0.02045862190425396 -0.01957901380956173 0 0 0 0
2136476364 0.2794070839881897 -0.1667897254228592 -0.023454438894987106 -0.014880737289786339 0 0 0 0
2140198448 0.2717341482639313 -0.19498363137245178 -0.02516018971800804 -0.009522511623799801 0 0 0 0
2143920532 0.2638697922229767 -0.2173433154821396 -0.025243166834115982 -0.004642173647880554 0 0 0 0
2147642616 0.24948643147945404 -0.24302832782268524 -0.024543197825551033 -0.0005180956795811653 0 0 0 0
2151364700 0.23312754929065704 -0.26484668254852295 -0.02402443438768387 0.0028590327128767967 0 0 0 0
2155086784 0.21266990900039673 -0.2838449478149414 -0.023497797548770905 0.0065716905519366264 0 0 0 0
2158808868 0.19131813943386078 -0.2985783517360687 -0.022057827562093735 0.010418463498353958 0 0 0 0
2162530952 0.16547635197639465 -0.30984556674957275 -0.019989997148513794 0.014353387989103794 0 0 0 0
2166253036 0.14104115962982178 -0.3156588077545166 -0.01705261692404747 0.017385555431246758 0 0 0 0
2169975120 0.11397430300712585 -0.32022684812545776 -0.012968258000910282 0.019946042448282242 0 0 0 0
2173697204 0.08868573606014252 -0.3209463655948639 -0.009088762104511261 0.021245824173092842 0 0 0 0
2177419288 0.06328674405813217 -0.3171345889568329 -0.005355149507522583 0.021776273846626282 0 0 0 0
2181141372 0.036959752440452576 -0.3103828728199005 -0.0020159417763352394 0.021859828382730484 0 0 0 0
2184863456 0.011433407664299011 -0.2977491319179535 0.001256410963833332 0.021488742902874947 0 0 0 0
2188585540 -0.011633209884166718 -0.281337708234787 0.004617214202880859 0.020832275971770287 0 0 0 0
2192307624 -0.028131941333413124 -0.26067018508911133 0.007901591248810291 0.019794821739196777 0 0 0 0
2196029708 -0.04443039000034332 -0.2370009422302246 0.01089184544980526 0.017739955335855484 0 0 0 0
2199751792 -0.05446162074804306 -0.21234546601772308 0.013446211814880371 0.01572582870721817 0 0 0 0
2203473876 -0.05908246710896492 -0.18526223301887512 0.01586379110813141 0.013215452432632446 0 0 0 0
2207195960 -0.06319156289100647 -0.15912406146526337 0.017964644357562065 0.009656887501478195 0 0 0 0
2210918044 -0.059105731546878815 -0.13491275906562805 0.018765844404697418 0.005930335260927677 0 0 0 0
2214640128 -0.05477702617645264 -0.11021899431943893 0.01850438304245472 0.0024539288133382797 0 0 0 0
2218362212 -0.04521745443344116 -0.08843994140625 0.017811313271522522 -0.00039674248546361923 0 0 0 0
2222084296 -0.036469314247369766 -0.06438310444355011 0.01692843809723854 -0.002914111129939556 0 0 0 0
2225806380 -0.019809018820524216 -0.043773237615823746 0.016220584511756897 -0.004822045564651489 0 0 0 0
2229528464 -0.0005632806569337845 -0.024091459810733795 0.015257799066603184 -0.00734653789550066 0 0 0 0
2233250548 0.02378964237868786 -0.00927905086427927 0.01378306932747364 -0.009869608096778393 0 0 0 0
2236972632 0.04989805445075035 0.0011907955631613731 0.011693397536873817 -0.012315623462200165 0 0 0 0
2240694716 0.077262744307518 0.00407068058848381 0.008607178926467896 -0.013831302523612976 0 0 0 0
2244416800 0.10365412384271622 0.004091374576091766 0.005954040214419365 -0.014414636418223381 0 0 0 0
2248138884 0.1301756203174591 0.0018520131707191467 0.003568810410797596 -0.014688732102513313 0 0 0 0
2251860968 0.15565496683120728 -0.011116106063127518 0.0010148156434297562 -0.0144432308152318 0 0 0 0
2255583052 0.17853480577468872 -0.026710692793130875 -0.0006822803989052773 -0.014255191199481487 0 0 0 0
2259305136 0.19877777993679047 -0.0403607115149498 -0.0023459820076823235 -0.01368277333676815 0 0 0 0
2263027220 0.21294662356376648 -0.06357307732105255 -0.004028645344078541 -0.013056086376309395 0 0 0 0
2266749304 0.22180022299289703 -0.08911064267158508 -0.005935434252023697 -0.012364626862108707 0 0 0 0
2270471388 0.22814789414405823 -0.10930197685956955 -0.007893753238022327 -0.011294543743133545 0 0 0 0
2274193472 0.22626154124736786 -0.13422152400016785 -0.009350256994366646 -0.009959626011550426 0 0 0 0
2277915556 0.22335197031497955 -0.1551448404788971 -0.010403736494481564 -0.008429223671555519 0 0 0 0
2281637640 0.21797126531600952 -0.1742497980594635 -0.011251663789153099 -0.007085929624736309 0 0 0 0
2285359724 0.20932844281196594 -0.19131295382976532 -0.012273857370018959 -0.0057314252480864525 0 0 0 0
2289081808 0.19619768857955933 -0.21134163439273834 -0.013176104053854942 -0.00415988452732563 0 0 0 0
2292803892 0.18060331046581268 -0.22616243362426758 -0.013645358383655548 -0.002321433275938034 0 0 0 0
2296525976 0.16367053985595703 -0.23877128958702087 -0.013809749856591225 -0.0007442180067300797 0 0 0 0
2300248060 0.14536282420158386 -0.2477627545595169 -0.013987664133310318 0.0007351022213697433 0 0 0 0
2303970144 0.1276487559080124 -0.2562095820903778 -0.013972478918731213 0.0022906390950083733 0 0 0 0
2307692228 0.0997207760810852 -0.2565872073173523 -0.014179063960909843 0.00395594909787178 0 0 0 0
2311414312 0.08396376669406891 -0.25423330068588257 -0.014075346291065216 0.006174435839056969 0 0 0 0
2315136396 0.06297490745782852 -0.24866938591003418 -0.013399581424891949 0.008328749798238277 0 0 0 0
2318858480 0.041948072612285614 -0.2406846135854721 -0.01206172164529562 0.010562654584646225 0 0 0 0
2322580564 0.023728251457214355 -0.22669456899166107 -0.010142423212528229 0.01249648816883564 0 0 0 0
2326302648 0.008779795840382576 -0.21054571866989136 -0.00798577256500721 0.014057897962629795 0 0 0 0
2330024732 -0.0030323192477226257 -0.19291839003562927 -0.00547565333545208 0.01512083224952221 0 0 0 0
2333746816 -0.012658357620239258 -0.17282415926456451 -0.0028478559106588364 0.01566355861723423 0 0 0 0
2337468900 -0.02113637514412403 -0.15099990367889404 -0.00015307404100894928 0.015571225434541702 0 0 0 0
2341190984 -0.022350560873746872 -0.12724798917770386 0.0022981204092502594 0.014683622866868973 0 0 0 0
2344913068 -0.01829063706099987 -0.10434193164110184 0.004569586366415024 0.013574969954788685 0 0 0 0
2348635152 -0.013355502858757973 -0.08181528002023697 0.005983345210552216 0.012220830656588078 0 0 0 0
2352357236 -0.0031580161303281784 -0.05996904522180557 0.00710587203502655 0.010815080255270004 0 0 0 0
2356079320 0.011601298116147518 -0.03914138674736023 0.008107585832476616 0.009621696546673775 0 0 0 0
2359801404 0.02851041778922081 -0.022014707326889038 0.008885246701538563 0.00832018069922924 0 0 0 0
2363523488 0.049600984901189804 -0.008777344599366188 0.009902025572955608 0.007163436152040958 0 0 0 0
2367245572 0.07202709466218948 0.0015992913395166397 0.010715152136981487 0.005604872480034828 0 0 0 0
2370967656 0.09536033868789673 0.007455703802406788 0.011484934017062187 0.003543870523571968 0 0 0 0
2374689740 0.11928709596395493 0.009009720757603645 0.011359198950231075 0.0013042660430073738 0 0 0 0
2378411824 0.14346663653850555 0.008281763643026352 0.010438271798193455 -0.0007314123213291168 0 0 0 0
2382133908 0.1665320098400116 0.002368025481700897 0.009375067427754402 -0.0018852194771170616 0 0 0 0
2385855992 0.1903543323278427 -0.0061148786917328835 0.008273010142147541 -0.0027770716696977615 0 0 0 0
2389578076 0.21176108717918396 -0.017081670463085175 0.007735985331237316 -0.003180127590894699 0 0 0 0
2393300160 0.2321832776069641 -0.03308812528848648 0.007255760952830315 -0.003952334634959698 0 0 0 0
2397022244 0.24879443645477295 -0.05303848534822464 0.006735089235007763 -0.005129438824951649 0 0 0 0
2400744328 0.26382631063461304 -0.07553352415561676 0.005511525087058544 -0.006427990272641182 0 0 0 0
2404466412 0.2734476625919342 -0.09597094357013702 0.004076157696545124 -0.006766743957996368 0 0 0 0
2408188496 0.2790616452693939 -0.1258971095085144 0.0027289744466543198 -0.007067682221531868 0 0 0 0
2411910580 0.28225624561309814 -0.14909467101097107 0.0020169084891676903 -0.007348597981035709 0 0 0 0
2415632664 0.27932873368263245 -0.1774824857711792 0.0005273772403597832 -0.007606487721204758 0 0 0 0
2419354748 0.2736300826072693 -0.2024381309747696 -0.0008828509598970413 -0.007383679039776325 0 0 0 0
2423076832 0.2640872597694397 -0.22761450707912445 -0.0019948985427618027 -0.006812321022152901 0 0 0 0
2426798916 0.24910734593868256 -0.25211089849472046 -0.0029505128040909767 -0.00633628573268652 0 0 0 0
2430521000 0.23060613870620728 -0.2740711271762848 -0.003926008939743042 -0.005851312540471554 0 0 0 0
2434243084 0.2082958221435547 -0.2916291058063507 -0.004786277189850807 -0.005206037312746048 0 0 0 0
2437965168 0.18580785393714905 -0.30358850955963135 -0.005907709710299969 -0.004349360242486 0 0 0 0
2441687252 0.16277539730072021 -0.3132477104663849 -0.006849061697721481 -0.0029593128710985184 0 0 0 0
2445409336 0.13673976063728333 -0.3213951289653778 -0.007301711477339268 -0.00109149981290102 0 0 0 0
2449131420 0.10825251787900925 -0.324493944644928 -0.006755170412361622 0.0007193181663751602 0 0 0 0
2452853504 0.084511898458004 -0.3231067657470703 -0.005803844891488552 0.002046525478363037 0 0 0 0
2456575588 0.056684792041778564 -0.32000139355659485 -0.004533685743808746 0.0026859696954488754 0 0 0 0
2460297672 0.02786971628665924 -0.3108059763908386 -0.0037749391049146652 0.0028499048203229904 0 0 0 0
2464019756 0.004241198301315308 -0.3001696467399597 -0.003059602342545986 0.003296187147498131 0 0 0 0
2467741840 -0.022264152765274048 -0.2846115827560425 -0.0020306650549173355 0.0034693321213126183 0 0 0 0
2471463924 -0.04346226155757904 -0.2648546099662781 -0.0009284652769565582 0.0032147616147994995 0 0 0 0
2475186008 -0.0632220208644867 -0.24222329258918762 -0.00015709549188613892 0.002770594321191311 0 0 0 0
2478908092 -0.07816412299871445 -0.214168980717659 0.0002971962094306946 0.002069474197924137 0 0 0 0
2482630176 -0.09134075790643692 -0.18359117209911346 0.0005348064005374908 0.001344999298453331 0 0 0 0
2486352260 -0.09593276679515839 -0.15310615301132202 0.000292457640171051 0.0008711032569408417 0 0 0 0
2490074344 -0.0978928953409195 -0.12122152745723724 0.00040667690336704254 0.000692315399646759 0 0 0 0
2493796428 -0.09371018409729004 -0.08740626275539398 0.0007291380316019058 0.00016469042748212814 0 0 0 0
2497518512 -0.08472701907157898 -0.055001258850097656 0.0007841680198907852 -0.0003617396578192711 0 0 0 0
2501240596 -0.06937927007675171 -0.02643437683582306 0.0005083680152893066 -0.000778472051024437 0 0 0 0
2504962680 -0.04969335347414017 -0.0004085823893547058 0.00017647352069616318 -0.001544332131743431 0 0 0 0
2508684764 -0.026506908237934113 0.022689901292324066 -0.00031575653702020645 -0.002028585411608219 0 0 0 0
2512406848 0.00014984887093305588 0.0421057790517807 -0.0011875582858920097 -0.002209266647696495 0 0 0 0
2516128932 0.029128093272447586 0.05679308995604515 -0.0019551552832126617 -0.00222689937800169 0 0 0 0
2519851016 0.060818493366241455 0.06690077483654022 -0.002872140146791935 -0.002087674103677273 0 0 0 0
2523573100 0.09421149641275406 0.07091043889522552 -0.003784613683819771 -0.0014214208349585533 0 0 0 0
2527295184 0.1260034590959549 0.07119041681289673 -0.003934498876333237 -0.0006123818457126617 0 0 0 0
2531017268 0.15817534923553467 0.06339751929044724 -0.0041440315544605255 0.00013902410864830017 0 0 0 0
2534739352 0.1890554279088974 0.05169350281357765 -0.004170268774032593 0.0006722956895828247 0 0 0 0
2538461436 0.21699005365371704 0.033775534480810165 -0.004158766008913517 0.0013087475672364235 0 0 0 0
2542183520 0.2411542683839798 0.011757060885429382 -0.004320855252444744 0.0015590060502290726 0 0 0 0
2545905604 0.2596976161003113 -0.013929344713687897 -0.004427259787917137 0.002127387560904026 0 0 0 0
2549627688 0.27461421489715576 -0.038682326674461365 -0.004663208499550819 0.003178761340677738 0 0 0 0
2553349772 0.2845171391963959 -0.0654737800359726 -0.00449789222329855 0.0043366532772779465 0 0 0 0
2557071856 0.2872593104839325 -0.09656258672475815 -0.0034977449104189873 0.0057102106511592865 0 0 0 0
2560793940 0.2894907593727112 -0.12238940596580505 -0.002446189522743225 0.006403641775250435 0 0 0 0
2564516024 0.28458482027053833 -0.15251019597053528 -0.0011039786040782928 0.006899773143231869 0 0 0 0
2568238108 0.27712881565093994 -0.17778380215168 0.00021452642977237701 0.007196038030087948 0 0 0 0
2571960192 0.2675284445285797 -0.19752614200115204 0.0016630291938781738 0.007152806036174297 0 0 0 0
2575682276 0.2502487599849701 -0.22154885530471802 0.0030391793698072433 0.00684658158570528 0 0 0 0
2579404360 0.2351684868335724 -0.23882266879081726 0.004490344785153866 0.006252523511648178 0 0 0 0
2583126444 0.21282260119915009 -0.2559524476528168 0.005828810855746269 0.005209185183048248 0 0 0 0
2586848528 0.19143618643283844 -0.26874253153800964 0.006976758129894733 0.003852155990898609 0 0 0 0
2590570612 0.16912904381752014 -0.2756548523902893 0.00742087047547102 0.002460450865328312 0 0 0 0
2594292696 0.1470123529434204 -0.2784826159477234 0.007863543927669525 0.0011050384491682053 0 0 0 0
2598014780 0.12371768057346344 -0.27922582626342773 0.007933720014989376 -0.00031630974262952805 0 0 0 0
2601736864 0.10259365290403366 -0.2766963541507721 0.007992636412382126 -0.0017146896570920944 0 0 0 0
2605458948 0.08113446086645126 -0.26940351724624634 0.007796415127813816 -0.0034088939428329468 0 0 0 0
2609181032 0.061225950717926025 -0.25932902097702026 0.0072450703009963036 -0.004810767248272896 0 0 0 0
2612903116 0.04296673461794853 -0.24692639708518982 0.006262270733714104 -0.00639097485691309 0 0 0 0
2616625200 0.028303369879722595 -0.23051702976226807 0.004958515986800194 -0.007416371256113052 0 0 0 0
2620347284 0.01876560039818287 -0.21479777991771698 0.0034745652228593826 -0.008275757543742657 0 0 0 0
2624069368 0.009744375944137573 -0.1963261067867279 0.0021672528237104416 -0.008502021431922913 0 0 0 0
2627791452 0.006016789004206657 -0.1763235330581665 0.0011658379808068275 -0.008533203043043613 0 0 0 0
2631513536 0.0034719333052635193 -0.15620793402194977 0.00031439121812582016 -0.008624635636806488 0 0 0 0
2635235620 0.0077116042375564575 -0.1368667632341385 -0.0004472751170396805 -0.009072363376617432 0 0 0 0
2638957704 0.015611210837960243 -0.12097861617803574 -0.001550912857055664 -0.00990469753742218 0 0 0 0
2642679788 0.02580646425485611 -0.10519072413444519 -0.0034295180812478065 -0.010546964593231678 0 0 0 0
2646401872 0.037714824080467224 -0.09454583376646042 -0.005689762532711029 -0.01043667271733284 0 0 0 0
2650123956 0.05211898684501648 -0.08513976633548737 -0.007930821739137173 -0.009718337096273899 0 0 0 0
2653846040 0.06573553383350372 -0.07950481027364731 -0.01005791500210762 -0.008516951464116573 0 0 0 0
2657568124 0.08160128444433212 -0.07680317759513855 -0.012056563049554825 -0.006543978117406368 0 0 0 0
2661290208 0.09751146286725998 -0.07730378210544586 -0.013507037423551083 -0.004018875770270824 0 0 0 0
2665012292 0.11278028041124344 -0.08251550048589706 -0.01414784137159586 -0.0013271952047944069 0 0 0 0
2668734376 0.12606121599674225 -0.09074137359857559 -0.014132699929177761 0.001461368054151535 0 0 0 0
2672456460 0.13684041798114777 -0.10179424285888672 -0.013367877341806889 0.0037661809474229813 0 0 0 0
2676178544 0.1430216133594513 -0.11537271738052368 -0.012565392069518566 0.006154966540634632 0 0 0 0
2679900628 0.14916662871837616 -0.12716524302959442 -0.011360506527125835 0.008615878410637379 0 0 0 0
2683622712 0.14978961646556854 -0.14097556471824646 -0.009313315153121948 0.010823344811797142 0 0 0 0
2687344796 0.1470392793416977 -0.1546991914510727 -0.0066819386556744576 0.012256672605872154 0 0 0 0
2691066880 0.14340443909168243 -0.16704069077968597 -0.0037503503262996674 0.012945707887411118 0 0 0 0
2694788964 0.13433848321437836 -0.17802803218364716 -0.0009038932621479034 0.012816563248634338 0 0 0 0
2698511048 0.1259448081254959 -0.18690335750579834 0.0009669410064816475 0.012152432464063168 0 0 0 0
2702233132 0.1152452677488327 -0.19639867544174194 0.0030804527923464775 0.011489516124129295 0 0 0 0
2705955216 0.10339780896902084 -0.20188599824905396 0.004593541845679283 0.010841228999197483 0 0 0 0
2709677300 0.08729688823223114 -0.20687128603458405 0.006348366849124432 0.010303166694939137 0 0 0 0
2713399384 0.07621127367019653 -0.2062329202890396 0.008725788444280624 0.009046302177011967 0 0 0 0
2717121468 0.06184600666165352 -0.20705755054950714 0.010366997681558132 0.006898083724081516 0 0 0 0
2720843552 0.04597797244787216 -0.2022312581539154 0.011250029318034649 0.0045122867450118065 0 0 0 0
2724565636 0.029855363070964813 -0.19535063207149506 0.011635367758572102 0.0023153144866228104 0 0 0 0
2728287720 0.015266500413417816 -0.18477225303649902 0.011976386420428753 0.0003516692668199539 0 0 0 0
2732009804 0.005429152399301529 -0.17183154821395874 0.012130224145948887 -0.0017764763906598091 0 0 0 0
2735731888 -0.004749715328216553 -0.15590344369411469 0.011895076371729374 -0.004355889745056629 0 0 0 0
2739453972 -0.009086623787879944 -0.14019739627838135 0.010976207442581654 -0.006861413829028606 0 0 0 0
2743176056 -0.013439524918794632 -0.12356498837471008 0.00921059399843216 -0.00928038265556097 0 0 0 0
2746898140 -0.014614475890994072 -0.10591831803321838 0.007090585306286812 -0.011041590012609959 0 0 0 0
2750620224 -0.013790581375360489 -0.08730024099349976 0.004602333530783653 -0.012258325703442097 0 0 0 0
2754342308 -0.009032778441905975 -0.06922005116939545 0.0017596548423171043 -0.01287473551928997 0 0 0 0
2758064392 -0.0003226380795240402 -0.051464665681123734 -0.00100734643638134 -0.012693092226982117 0 0 0 0
2761786476 0.011066094972193241 -0.035414762794971466 -0.003606801852583885 -0.011903207749128342 0 0 0 0
2765508560 0.02568388730287552 -0.021498125046491623 -0.00564485602080822 -0.010622285306453705 0 0 0 0
2769230644 0.04141736775636673 -0.010655260644853115 -0.007322893477976322 -0.009150063619017601 0 0 0 0
2772952728 0.059146903455257416 -0.0018042419105768204 -0.008643201552331448 -0.007626550272107124 0 0 0 0
2776674812 0.07809516787528992 0.004087476059794426 -0.009702821262180805 -0.005712293088436127 0 0 0 0
2780396896 0.09716838598251343 0.0073243193328380585 -0.010366737842559814 -0.0039412034675478935 0 0 0 0
2784118980 0.11679007112979889 0.009106263518333435 -0.010850942693650723 -0.001946006901562214 0 0 0 0
2787841064 0.13680633902549744 0.007680758833885193 -0.011092654429376125 0.0005310783162713051 0 0 0 0
2791563148 0.15776102244853973 0.0011055395007133484 -0.010418129153549671 0.0029567088931798935 0 0 0 0
2795285232 0.1787300556898117 -0.006762905046343803 -0.009083499200642109 0.004995167255401611 0 0 0 0
2799007316 0.19840463995933533 -0.019055619835853577 -0.007371780462563038 0.006377716548740864 0 0 0 0
2802729400 0.21470023691654205 -0.035790570080280304 -0.00562707707285881 0.007368183694779873 0 0 0 0
2806451484 0.22777442634105682 -0.05398359149694443 -0.0038821417838335037 0.007912150584161282 0 0 0 0
2810173568 0.2385309934616089 -0.07270316034555435 -0.0020621279254555702 0.007957994937896729 0 0 0 0
2813895652 0.24819369614124298 -0.09371590614318848 -0.0005835425108671188 0.007573463022708893 0 0 0 0
2817617736 0.2531108558177948 -0.11617839336395264 0.0009542061015963554 0.007076662965118885 0 0 0 0
2821339820 0.25398290157318115 -0.13954104483127594 0.0020771343261003494 0.006466198712587357 0 0 0 0
2825061904 0.250638484954834 -0.16357743740081787 0.003060043789446354 0.0056621236726641655 0 0 0 0
2828783988 0.24426811933517456 -0.18576358258724213 0.004037560895085335 0.0049205441027879715 0 0 0 0
2832506072 0.2381993532180786 -0.20444582402706146 0.004803178831934929 0.003765599802136421 0 0 0 0
2836228156 0.22444868087768555 -0.2262386977672577 0.00522988848388195 0.0024775760248303413 0 0 0 0
2839950240 0.2138252854347229 -0.24059969186782837 0.005100224167108536 0.0013983454555273056 0 0 0 0
2843672324 0.19973014295101166 -0.2572184205055237 0.004928751848638058 0.0007865801453590393 0 0 0 0
2847394408 0.18330994248390198 -0.2712323069572449 0.004963296465575695 0.0001272987574338913 0 0 0 0
2851116492 0.16416049003601074 -0.28522369265556335 0.005078810267150402 -0.0004241243004798889 0 0 0 0
2854838576 0.14213138818740845 -0.29535436630249023 0.005143546499311924 -0.0012724986299872398 0 0 0 0
2858560660 0.12657266855239868 -0.3029494285583496 0.005360201932489872 -0.00240376777946949 0 0 0 0
2862282744 0.09990555793046951 -0.3084118366241455 0.00499370601028204 -0.0035087894648313522 0 0 0 0
2866004828 0.08123370260000229 -0.30906879901885986 0.0043559325858950615 -0.004435580223798752 0 0 0 0
2869726912 0.060068659484386444 -0.3103303015232086 0.003464316949248314 -0.005195849575102329 0 0 0 0
2873448996 0.03835245966911316 -0.3078887462615967 0.002537153661251068 -0.005859125405550003 0 0 0 0
2877171080 0.010754719376564026 -0.302395761013031 0.0013824375346302986 -0.0060271089896559715 0 0 0 0
2880893164 -0.004641667939722538 -0.2954177260398865 0.00031616538763046265 -0.005848824977874756 0 0 0 0
2884615248 -0.029209613800048828 -0.2831376791000366 -0.0005177324637770653 -0.005524137057363987 0 0 0 0
2888337332 -0.05134464055299759 -0.26762691140174866 -0.0012210719287395477 -0.005267725326120853 0 0 0 0
2892059416 -0.0681537315249443 -0.25023919343948364 -0.0019023921340703964 -0.0049499524757266045 0 0 0 0
2895781500 -0.08312881737947464 -0.23120373487472534 -0.002773652784526348 -0.004365131258964539 0 0 0 0
2899503584 -0.09473606199026108 -0.20927037298679352 -0.003396335057914257 -0.003523525781929493 0 0 0 0
2903225668 -0.10491679608821869 -0.1867583990097046 -0.003805270418524742 -0.002517019398510456 0 0 0 0
2906947752 -0.11322326958179474 -0.16144439578056335 -0.003690101206302643 -0.0015669548884034157 0 0 0 0
2910669836 -0.11632538586854935 -0.1363859325647354 -0.0034368857741355896 -0.0007125819101929665 0 0 0 0
2914391920 -0.11780404299497604 -0.10988932847976685 -0.003147098235785961 -0.00015789270401000977 0 0 0 0
2918114004 -0.11338604986667633 -0.08445371687412262 -0.00279115978628397 0.0002796463668346405 0 0 0 0
2921836088 -0.10639640688896179 -0.05978154018521309 -0.0025559980422258377 0.0005986392498016357 0 0 0 0
2925558172 -0.0959804356098175 -0.036711178719997406 -0.0022738762199878693 0.000921185128390789 0 0 0 0
2929280256 -0.08299441635608673 -0.01628108322620392 -0.0019914498552680016 0.0011383555829524994 0 0 0 0
2933002340 -0.06814950704574585 0.002657824195921421 -0.001860709860920906 0.00136577058583498 0 0 0 0
2936724424 -0.05102651193737984 0.020146122202277184 -0.0017469041049480438 0.0016177473589777946 0 0 0 0
2940446508 -0.032271794974803925 0.03538201004266739 -0.001532379537820816 0.00204378180205822 0 0 0 0
2944168592 -0.011516816914081573 0.0477997362613678 -0.0011406894773244858 0.0023540938273072243 0 0 0 0
2947890676 0.010402482002973557 0.057839781045913696 -0.000407232902944088 0.0026307888329029083 0 0 0 0
2951612760 0.032751403748989105 0.06522643566131592 0.0005603302270174026 0.0025516999885439873 0 0 0 0
2955334844 0.05558206886053085 0.07013730704784393 0.0010046744719147682 0.002046748995780945 0 0 0 0
2959056928 0.08040402829647064 0.07146342098712921 0.0014406181871891022 0.0016265083104372025 0 0 0 0
2962779012 0.10468464344739914 0.07079742103815079 0.001689857803285122 0.001467081718146801 0 0 0 0
2966501096 0.1298438012599945 0.06817755103111267 0.0023407936096191406 0.0015516653656959534 0 0 0 0
2970223180 0.15441453456878662 0.06141902506351471 0.002811017446219921 0.0013002902269363403 0 0 0 0
2973945264 0.17937560379505157 0.04934355616569519 0.0032833851873874664 0.0010442286729812622 0 0 0 0
2977667348 0.20138725638389587 0.03635752946138382 0.003874470479786396 0.0005136411637067795 0 0 0 0
2981389432 0.2210615575313568 0.0189458429813385 0.004165340214967728 -0.0002628229558467865 0 0 0 0
2985111516 0.23703867197036743 -0.006350278854370117 0.003965890035033226 -0.0013770274817943573 0 0 0 0
2988833600 0.2490023970603943 -0.028867091983556747 0.003606235608458519 -0.0023710550740361214 0 0 0 0
2992555684 0.2588527202606201 -0.049885429441928864 0.002771473489701748 -0.0032534878700971603 0 0 0 0
2996277768 0.26349037885665894 -0.07509597390890121 0.0018809642642736435 -0.003842138685286045 0 0 0 0
2999999852 0.2669162452220917 -0.09952467679977417 0.0011914512142539024 -0.003771544434130192 0 0 0 0
