# HZ S RI R 50
1500000000 -0.12293410301208496 -0.06019432470202446 0.03704892843961716 -0.033866096287965775 0 0 0 0
1503722084 -0.11304731667041779 -0.02813236229121685 0.029707450419664383 -0.04002271220088005 0 0 0 0
1507444168 -0.09641137719154358 0.0018199663609266281 0.021268777549266815 -0.044073887169361115 0 0 0 0
1511166252 -0.0724373608827591 0.030072897672653198 0.01218358613550663 -0.045867919921875 0 0 0 0
1514888336 -0.04275914281606674 0.0541749969124794 0.0035220393911004066 -0.04575822874903679 0 0 0 0
1518610420 -0.00677068904042244 0.07390464842319489 -0.004659214988350868 -0.04383852332830429 0 0 0 0
1522332504 0.03484169393777847 0.0877758339047432 -0.011309811845421791 -0.040897954255342484 0 0 0 0
1526054588 0.07994638383388519 0.09386663138866425 -0.01743469387292862 -0.03702269494533539 0 0 0 0
1529776672 0.12753048539161682 0.0911756306886673 -0.022844882681965828 -0.031912777572870255 0 0 0 0
1533498756 0.17604397237300873 0.07914455980062485 -0.026567744091153145 -0.02571297250688076 0 0 0 0
1537220840 0.22281840443611145 0.05697411298751831 -0.028445132076740265 -0.01996953785419464 0 0 0 0
1540942924 0.2661266624927521 0.027548443526029587 -0.029283249750733376 -0.014445260167121887 0 0 0 0
1544665008 0.3034764230251312 -0.011727795004844666 -0.02918476052582264 -0.00988677516579628 0 0 0 0
1548387092 0.3334425091743469 -0.056881919503211975 -0.028974371030926704 -0.005494564771652222 0 0 0 0
1552109176 0.3579108715057373 -0.10488475114107132 -0.02830921672284603 -0.001146429218351841 0 0 0 0
1555831260 0.3725659251213074 -0.16022375226020813 -0.026761692017316818 0.0027545662596821785 0 0 0 0
1559553344 0.37948107719421387 -0.21670283377170563 -0.024502761662006378 0.006252432242035866 0 0 0 0
1563275428 0.3758549988269806 -0.2746853828430176 -0.02217686176300049 0.008862553164362907 0 0 0 0
1566997512 0.3656511604785919 -0.3323665261268616 -0.019947823137044907 0.011052867397665977 0 0 0 0
1570719596 0.343837171792984 -0.38887012004852295 -0.0174097903072834 0.012928245589137077 0 0 0 0
1574441680 0.31061235070228577 -0.44286277890205383 -0.014880724251270294 0.01407722570002079 0 0 0 0
1578163764 0.2711322605609894 -0.4886683225631714 -0.012660045176744461 0.014886690303683281 0 0 0 0
1581885848 0.22462686896324158 -0.5278520584106445 -0.010657182894647121 0.015504630282521248 0 0 0 0
1585607932 0.1727575957775116 -0.5601190328598022 -0.008836265653371811 0.01605871319770813 0 0 0 0
1589330016 0.11321411281824112 -0.5851234793663025 -0.006865436211228371 0.01672719419002533 0 0 0 0
1593052100 0.05370081216096878 -0.6009035706520081 -0.005230915732681751 0.01729404181241989 0 0 0 0
1596774184 -0.011028468608856201 -0.6085343956947327 -0.0030413176864385605 0.018218884244561195 0 0 0 0
1600496268 -0.07127340883016586 -0.6055461764335632 -0.0002957042306661606 0.01868072897195816 0 0 0 0
1604218352 -0.13469479978084564 -0.5935211777687073 0.002493232488632202 0.018513105809688568 0 0 0 0
1607940436 -0.19554060697555542 -0.5714552998542786 0.005319884046912193 0.017617352306842804 0 0 0 0
1611662520 -0.25434690713882446 -0.543304979801178 0.007643052376806736 0.016415352001786232 0 0 0 0
1615384604 -0.3101210594177246 -0.5042223334312439 0.009643265046179295 0.01503822859376669 0 0 0 0
1619106688 -0.3589904010295868 -0.45686468482017517 0.01143637578934431 0.013741059228777885 0 0 0 0
1622828772 -0.402802050113678 -0.4016927480697632 0.013664950616657734 0.012305105105042458 0 0 0 0
1626550856 -0.43638819456100464 -0.3414888381958008 0.015820225700736046 0.010408692993223667 0 0 0 0
1630272940 -0.4626713693141937 -0.2718943953514099 0.01780981943011284 0.007525421679019928 0 0 0 0
1633995024 -0.47729191184043884 -0.20186373591423035 0.019167352467775345 0.004279320128262043 0 0 0 0
1637717108 -0.4831628203392029 -0.1276717633008957 0.019780829548835754 0.0006240895017981529 0 0 0 0
1641439192 -0.47718608379364014 -0.05587437003850937 0.01956341043114662 -0.0029316041618585587 0 0 0 0
1645161276 -0.4594767093658447 0.020031020045280457 0.018717879429459572 -0.0064295995980501175 0 0 0 0
1648883360 -0.4304847717285156 0.09116245806217194 0.017378831282258034 -0.009639125317335129 0 0 0 0
1652605444 -0.38954639434814453 0.1586572527885437 0.015280592255294323 -0.012903613969683647 0 0 0 0
1656327528 -0.34016701579093933 0.2191186249256134 0.01244274340569973 -0.015828508883714676 0 0 0 0
1660049612 -0.27818062901496887 0.27401497960090637 0.008548082783818245 -0.018085872754454613 0 0 0 0
1663771696 -0.2103307843208313 0.3164801299571991 0.004292874597012997 -0.018866870552301407 0 0 0 0
1667493780 -0.13572366535663605 0.3501571714878082 0.0004086904227733612 -0.018601607531309128 0 0 0 0
1671215864 -0.05302389711141586 0.3729828894138336 -0.003225579857826233 -0.0177609845995903 0 0 0 0
1674937948 0.026499316096305847 0.3806939125061035 -0.006366484798491001 -0.016190942376852036 0 0 0 0
1678660032 0.11343005299568176 0.3752959072589874 -0.009085566736757755 -0.013647425919771194 0 0 0 0
1682382116 0.197185680270195 0.35567739605903625 -0.010831953957676888 -0.010974901728332043 0 0 0 0
1686104200 0.27573341131210327 0.3238464593887329 -0.011764965951442719 -0.008377889171242714 0 0 0 0
1689826284 0.34973666071891785 0.27777838706970215 -0.012306755408644676 -0.005993903614580631 0 0 0 0
1693548368 0.4125473201274872 0.2227460741996765 -0.012660437263548374 -0.0037259040400385857 0 0 0 0
1697270452 0.4660114645957947 0.1574179083108902 -0.012477394193410873 -0.001151256263256073 0 0 0 0
1700992536 0.5084502100944519 0.08881552517414093 -0.01196372788399458 0.0010229796171188354 0 0 0 0
1704714620 0.5392707586288452 0.011696532368659973 -0.011059059761464596 0.003120266832411289 0 0 0 0
1708436704 0.5575028657913208 -0.06858141720294952 -0.009783200919628143 0.005222490057349205 0 0 0 0
1712158788 0.5637502670288086 -0.14971430599689484 -0.007708719931542873 0.006918559782207012 0 0 0 0
1715880872 0.5577980875968933 -0.23056507110595703 -0.005102679133415222 0.00767096970230341 0 0 0 0
1719602956 0.538542628288269 -0.30879223346710205 -0.002758193761110306 0.007343842647969723 0 0 0 0
1723325040 0.5084478855133057 -0.3795839846134186 -0.0011463668197393417 0.0063043031841516495 0 0 0 0
1727047124 0.46758145093917847 -0.44619640707969666 -0.00018700584769248962 0.0053361160680651665 0 0 0 0
1730769208 0.41400212049484253 -0.5066541433334351 0.0003321198746562004 0.0043348269537091255 0 0 0 0
1734491292 0.358612984418869 -0.5547364354133606 0.0005260538309812546 0.003601670265197754 0 0 0 0
1738213376 0.2933592200279236 -0.5953750610351562 0.0005955854430794716 0.0030286312103271484 0 0 0 0
1741935460 0.22359387576580048 -0.6226584911346436 0.0006067780777812004 0.002448786050081253 0 0 0 0
1745657544 0.1550169736146927 -0.6377397179603577 0.00039310287684202194 0.0019091330468654633 0 0 0 0
1749379628 0.08570748567581177 -0.6445869207382202 -6.127171218395233e-05 0.002031087875366211 0 0 0 0
1753101712 0.010720938444137573 -0.6382417678833008 -0.00010726042091846466 0.0021353475749492645 0 0 0 0
1756823796 -0.05814819782972336 -0.6228099465370178 -5.665142089128494e-05 0.0023390930145978928 0 0 0 0
1760545880 -0.11748185753822327 -0.59671950340271 0.0001991940662264824 0.0024805711582303047 0 0 0 0
1764267964 -0.17421157658100128 -0.5625075101852417 0.000596451573073864 0.002437974326312542 0 0 0 0
1767990048 -0.2239617109298706 -0.5192233920097351 0.0009954702109098434 0.0020553162321448326 0 0 0 0
1771712132 -0.2670595049858093 -0.47317367792129517 0.0009531034156680107 0.001402510330080986 0 0 0 0
1775434216 -0.3026004135608673 -0.42217105627059937 0.00033750850707292557 0.001061825081706047 0 0 0 0
1779156300 -0.3283764123916626 -0.36708009243011475 -0.00037557072937488556 0.0011898195371031761 0 0 0 0
1782878384 -0.34608936309814453 -0.3109626770019531 -0.0008185328915715218 0.0017705047503113747 0 0 0 0
1786600468 -0.3563999831676483 -0.25325870513916016 -0.0011195866391062737 0.002228439785540104 0 0 0 0
1790322552 -0.35791394114494324 -0.19393250346183777 -0.001413131132721901 0.0030503952875733376 0 0 0 0
1794044636 -0.35143157839775085 -0.1364511251449585 -0.0013414621353149414 0.004077586345374584 0 0 0 0
1797766720 -0.3370365500450134 -0.07970831543207169 -0.0010388009250164032 0.005283944308757782 0 0 0 0
1801488804 -0.3143426179885864 -0.0274055153131485 -0.00022777821868658066 0.0071378182619810104 0 0 0 0
1805210888 -0.28428301215171814 0.021812804043293 0.001964746043086052 0.00856436975300312 0 0 0 0
1808932972 -0.24734723567962646 0.06663136929273605 0.004667052999138832 0.008883103728294373 0 0 0 0
1812655056 -0.20255278050899506 0.10472561419010162 0.007143142633140087 0.008174719288945198 0 0 0 0
1816377140 -0.15315738320350647 0.13216030597686768 0.009283298626542091 0.007137760519981384 0 0 0 0
1820099224 -0.10058480501174927 0.15177112817764282 0.011975008063018322 0.005711176432669163 0 0 0 0
1823821308 -0.04744355380535126 0.16223858296871185 0.014264903962612152 0.002594039775431156 0 0 0 0
1827543392 0.005748346447944641 0.16441190242767334 0.014933405444025993 -0.0014272714033722878 0 0 0 0
1831265476 0.05710050091147423 0.1576520949602127 0.014224639162421227 -0.005063814111053944 0 0 0 0
1834987560 0.10385794192552567 0.14312687516212463 0.012761150486767292 -0.008147593587636948 0 0 0 0
1838709644 0.1473405808210373 0.1228666752576828 0.010466648265719414 -0.010668694972991943 0 0 0 0
1842431728 0.18706165254116058 0.09692816436290741 0.007468505762517452 -0.012285839766263962 0 0 0 0
1846153812 0.2200905829668045 0.06660543382167816 0.0051037222146987915 -0.012674939818680286 0 0 0 0
1849875896 0.2491799145936966 0.03252694010734558 0.0031712213531136513 -0.012701345607638359 0 0 0 0
1853597980 0.2714318037033081 -0.004736185073852539 0.0018860967829823494 -0.012822753749787807 0 0 0 0
1857320064 0.2887476980686188 -0.04460854083299637 0.0009618839249014854 -0.013296832330524921 0 0 0 0
1861042148 0.29841580986976624 -0.08722968399524689 -0.0007890593260526657 -0.014688498340547085 0 0 0 0
1864764232 0.3004337251186371 -0.12896251678466797 -0.00354151614010334 -0.015514501370489597 0 0 0 0
1868486316 0.29580816626548767 -0.17030444741249084 -0.006805494427680969 -0.01535502914339304 0 0 0 0
1872208400 0.28577306866645813 -0.2079819142818451 -0.009694505482912064 -0.014432145282626152 0 0 0 0
1875930484 0.27124661207199097 -0.24225124716758728 -0.01215460617095232 -0.012807811610400677 0 0 0 0
1879652568 0.24856403470039368 -0.2760966420173645 -0.013949508778750896 -0.01111881248652935 0 0 0 0
1883374652 0.22117410600185394 -0.30296382308006287 -0.016032548621296883 -0.009875660762190819 0 0 0 0
1887096736 0.1894526332616806 -0.3247692883014679 -0.018880054354667664 -0.007759959436953068 0 0 0 0
1890818820 0.15534022450447083 -0.339138925075531 -0.02148791402578354 -0.004221017472445965 0 0 0 0
1894540904 0.12371362000703812 -0.3455811142921448 -0.023292675614356995 0.0005722520872950554 0 0 0 0
1898262988 0.08875491470098495 -0.3482407033443451 -0.023322809487581253 0.006007988005876541 0 0 0 0
1901985072 0.05775254964828491 -0.3454076051712036 -0.021811680868268013 0.010819299146533012 0 0 0 0
1905707156 0.025456316769123077 -0.3366875648498535 -0.019261859357357025 0.014744649641215801 0 0 0 0
1909429240 -0.0016331002116203308 -0.325183629989624 -0.016419479623436928 0.018362723290920258 0 0 0 0
1913151324 -0.026144325733184814 -0.3080335259437561 -0.012866247445344925 0.02161455526947975 0 0 0 0
1916873408 -0.04902849346399307 -0.2873564660549164 -0.008284183219075203 0.024318471550941467 0 0 0 0
1920595492 -0.06936643272638321 -0.26170459389686584 -0.0029041050001978874 0.025756031274795532 0 0 0 0
1924317576 -0.0802849680185318 -0.2349991798400879 0.0024572527036070824 0.02590199187397957 0 0 0 0
1928039660 -0.0874660313129425 -0.20696283876895905 0.007905944250524044 0.024401551112532616 0 0 0 0
1931761744 -0.09027492254972458 -0.17936965823173523 0.012694912031292915 0.021304713562130928 0 0 0 0
1935483828 -0.08926276117563248 -0.15179356932640076 0.016084721311926842 0.017236486077308655 0 0 0 0
1939205912 -0.08327234536409378 -0.12322895228862762 0.017707189545035362 0.013181967660784721 0 0 0 0
1942927996 -0.07289835065603256 -0.09688802808523178 0.01855006441473961 0.009815782308578491 0 0 0 0
1946650080 -0.057558946311473846 -0.07274414598941803 0.018925316631793976 0.007112437859177589 0 0 0 0
1950372164 -0.03769543021917343 -0.05083604156970978 0.01942400448024273 0.004229066893458366 0 0 0 0
1954094248 -0.014629371464252472 -0.033649999648332596 0.019962847232818604 0.0019822176545858383 0 0 0 0
1957816332 0.011448606848716736 -0.020820265635848045 0.02058541588485241 -0.0011126259341835976 0 0 0 0
1961538416 0.038823552429676056 -0.011770830489695072 0.020266547799110413 -0.004455906338989735 0 0 0 0
1965260500 0.06933335959911346 -0.008328279480338097 0.01970989629626274 -0.007496600039303303 0 0 0 0
1968982584 0.10047455132007599 -0.010911097750067711 0.01940883882343769 -0.010467639192938805 0 0 0 0
1972704668 0.12945158779621124 -0.021612489596009254 0.018537499010562897 -0.014746354892849922 0 0 0 0
1976426752 0.1572222262620926 -0.03593049943447113 0.016354495659470558 -0.0194852314889431 0 0 0 0
1980148836 0.17977067828178406 -0.05852493643760681 0.01211029663681984 -0.02404116280376911 0 0 0 0
1983870920 0.19833622872829437 -0.08040834963321686 0.006049377843737602 -0.0271100215613842 0 0 0 0
1987593004 0.21048995852470398 -0.10757739096879959 -0.0005896426737308502 -0.02778705023229122 0 0 0 0
1991315088 0.2189677357673645 -0.13525399565696716 -0.006550070829689503 -0.02663612738251686 0 0 0 0
1995037172 0.22120122611522675 -0.1648765355348587 -0.012010373175144196 -0.023844582960009575 0 0 0 0
1998759256 0.2191227674484253 -0.19254270195960999 -0.01587887480854988 -0.02052539587020874 0 0 0 0
2002481340 0.21036504209041595 -0.22064775228500366 -0.018567219376564026 -0.017311494797468185 0 0 0 0
2006203424 0.19937780499458313 -0.24512265622615814 -0.021198712289333344 -0.013996513560414314 0 0 0 0
2009925508 0.1809474527835846 -0.2679194211959839 -0.02336203306913376 -0.01068391464650631 0 0 0 0
2013647592 0.16048508882522583 -0.28723758459091187 -0.025358032435178757 -0.006821563467383385 0 0 0 0
2017369676 0.13303768634796143 -0.3050580620765686 -0.027207612991333008 -0.002315371297299862 0 0 0 0
2021091760 0.10989684611558914 -0.3136950731277466 -0.028509382158517838 0.003125220537185669 0 0 0 0
2024813844 0.08061354607343674 -0.31894809007644653 -0.027812303975224495 0.009387131780385971 0 0 0 0
2028535928 0.04969119280576706 -0.3201845586299896 -0.025386659428477287 0.015770399942994118 0 0 0 0
2032258012 0.02424609661102295 -0.31388407945632935 -0.02119363471865654 0.020400889217853546 0 0 0 0
2035980096 -0.0031345169991254807 -0.30566689372062683 -0.016446717083454132 0.02368754893541336 0 0 0 0
2039702180 -0.02765166014432907 -0.2927730083465576 -0.011391092091798782 0.026308823376893997 0 0 0 0
2043424264 -0.05023141950368881 -0.27593711018562317 -0.006031251512467861 0.027592305094003677 0 0 0 0
2047146348 -0.06860506534576416 -0.2556864619255066 -0.0006811125203967094 0.0269688218832016 0 0 0 0
2050868432 -0.08588342368602753 -0.23337522149085999 0.004095317795872688 0.026123924180865288 0 0 0 0
2054590516 -0.09897065907716751 -0.20856314897537231 0.00830902811139822 0.024597007781267166 0 0 0 0
2058312600 -0.11204849183559418 -0.1785060167312622 0.011835654266178608 0.022456461563706398 0 0 0 0
2062034684 -0.11649663001298904 -0.1492890864610672 0.015340895392000675 0.019984126091003418 0 0 0 0
2065756768 -0.11846373975276947 -0.11774210631847382 0.018442347645759583 0.016724899411201477 0 0 0 0
2069478852 -0.11466390639543533 -0.08535527437925339 0.0203773882240057 0.012973546981811523 0 0 0 0
2073200936 -0.10545669496059418 -0.05166913568973541 0.02210831269621849 0.00904861930757761 0 0 0 0
2076923020 -0.08997096866369247 -0.02007114142179489 0.022603154182434082 0.005159252323210239 0 0 0 0
2080645104 -0.06893368810415268 0.009613793343305588 0.022279167547822 0.0014727525413036346 0 0 0 0
2084367188 -0.0418660007417202 0.034853700548410416 0.02174975350499153 -0.0017202990129590034 0 0 0 0
2088089272 -0.010789696127176285 0.05570043623447418 0.02135499380528927 -0.004134686663746834 0 0 0 0
2091811356 0.024183213710784912 0.07034971565008163 0.020906342193484306 -0.007359654642641544 0 0 0 0
2095533440 0.0605672225356102 0.0790657252073288 0.020307959988713264 -0.01121598668396473 0 0 0 0
2099255524 0.097901351749897 0.08035280555486679 0.01841129921376705 -0.015500379726290703 0 0 0 0
2102977608 0.1341208815574646 0.07772347331047058 0.014801576733589172 -0.019334319978952408 0 0 0 0
2106699692 0.17114052176475525 0.06769883632659912 0.010007129982113838 -0.02204863727092743 0 0 0 0
2110421776 0.20682254433631897 0.05165088176727295 0.005316741764545441 -0.023043502122163773 0 0 0 0
2114143860 0.23894286155700684 0.029455091804265976 0.0006972299888730049 -0.022795649245381355 0 0 0 0
2117865944 0.2650572955608368 0.001737549901008606 -0.0033307913690805435 -0.022160833701491356 0 0 0 0
2121588028 0.2853153645992279 -0.030260711908340454 -0.007518754340708256 -0.020725471898913383 0 0 0 0
2125310112 0.2993091940879822 -0.06341735273599625 -0.01171274483203888 -0.018742378801107407 0 0 0 0
2129032196 0.3096792697906494 -0.0958164855837822 -0.015186885371804237 -0.01541413739323616 0 0 0 0
2132754280 0.31433117389678955 -0.13065238296985626 -0.0172262080013752 -0.011021992191672325 0 0 0 0
2136476364 0.3133862614631653 -0.16621553897857666 -0.017666161060333252 -0.006605605594813824 0 0 0 0
2140198448 0.30708613991737366 -0.20137986540794373 -0.01654578186571598 -0.0028804438188672066 0 0 0 0
2143920532 0.29399263858795166 -0.23400884866714478 -0.015243484638631344 -0.0006756521761417389 0 0 0 0
2147642616 0.2767620086669922 -0.263604998588562 -0.01418230775743723 0.00042055174708366394 0 0 0 0
2151364700 0.25466597080230713 -0.28964781761169434 -0.013776471838355064 0.0017429320141673088 0 0 0 0
2155086784 0.22979231178760529 -0.31156739592552185 -0.013411831110715866 0.003052196465432644 0 0 0 0
2158808868 0.20011268556118011 -0.32877567410469055 -0.013237129896879196 0.004634111188352108 0 0 0 0
2162530952 0.17021599411964417 -0.3408131003379822 -0.012976480647921562 0.006295772269368172 0 0 0 0
2166253036 0.13549277186393738 -0.34805938601493835 -0.012645503506064415 0.008362929336726665 0 0 0 0
2169975120 0.1042855903506279 -0.348212331533432 -0.011440632864832878 0.011075717397034168 0 0 0 0
2173697204 0.07409340143203735 -0.3443564772605896 -0.00918201357126236 0.013365164399147034 0 0 0 0
2177419288 0.04201202467083931 -0.33609291911125183 -0.006245924159884453 0.01453750766813755 0 0 0 0
2181141372 0.015382006764411926 -0.3243075907230377 -0.003617333248257637 0.015036845579743385 0 0 0 0
2184863456 -0.008379310369491577 -0.30868270993232727 -0.0016298769041895866 0.01526335347443819 0 0 0 0
2188585540 -0.03466697782278061 -0.28807002305984497 0.0007909853011369705 0.015439078211784363 0 0 0 0
2192307624 -0.0544162318110466 -0.2640436887741089 0.003592909313738346 0.015417681075632572 0 0 0 0
2196029708 -0.07013985514640808 -0.23597419261932373 0.006483667530119419 0.014764256775379181 0 0 0 0
2199751792 -0.0784430056810379 -0.20526596903800964 0.009562291204929352 0.013065725564956665 0 0 0 0
2203473876 -0.0853157714009285 -0.17378148436546326 0.012101870961487293 0.010512016713619232 0 0 0 0
2207195960 -0.08429931104183197 -0.14306391775608063 0.013358019292354584 0.007484854198992252 0 0 0 0
2210918044 -0.07804623991250992 -0.11302486062049866 0.013738777488470078 0.004690349102020264 0 0 0 0
2214640128 -0.06394932419061661 -0.08859093487262726 0.013808131217956543 0.0025207865983247757 0 0 0 0
2218362212 -0.05313740670681 -0.060550838708877563 0.013856678269803524 -0.0003132922574877739 0 0 0 0
2222084296 -0.03451643884181976 -0.03844321146607399 0.013754256069660187 -0.0025402018800377846 0 0 0 0
2225806380 -0.012865996919572353 -0.018483920022845268 0.013302996754646301 -0.005368595942854881 0 0 0 0
2229528464 0.011874249204993248 -0.0026628440245985985 0.011812595650553703 -0.008555588312447071 0 0 0 0
2233250548 0.0389484278857708 0.007624748162925243 0.00896117277443409 -0.011539505794644356 0 0 0 0
2236972632 0.06739554554224014 0.01377197913825512 0.005290706641972065 -0.013103148899972439 0 0 0 0
2240694716 0.0958949401974678 0.011908411979675293 0.001559312455356121 -0.013054330833256245 0 0 0 0
2244416800 0.12332956492900848 0.007696881890296936 -0.001546233892440796 -0.01212216541171074 0 0 0 0
2248138884 0.14942926168441772 0.0013408809900283813 -0.00409343559294939 -0.010421846061944962 0 0 0 0
2251860968 0.17326660454273224 -0.013118598610162735 -0.005721583031117916 -0.008545826189219952 0 0 0 0
2255583052 0.19342248141765594 -0.03456689417362213 -0.006876673549413681 -0.0063684722408652306 0 0 0 0
2259305136 0.21091483533382416 -0.04984067380428314 -0.007302997633814812 -0.00422095600515604 0 0 0 0
2263027220 0.2209223210811615 -0.07742423564195633 -0.006930580362677574 -0.0021558329463005066 0 0 0 0
2266749304 0.2286684811115265 -0.09692221134901047 -0.005987952463328838 -0.0007781321182847023 0 0 0 0
2270471388 0.23253144323825836 -0.12022070586681366 -0.005080072209239006 -5.3131021559238434e-05 0 0 0 0
2274193472 0.2325166016817093 -0.14488095045089722 -0.004253954626619816 0.0003552976995706558 0 0 0 0
2277915556 0.2270413637161255 -0.16783781349658966 -0.0035669561475515366 0.00044056307524442673 0 0 0 0
2281637640 0.22194348275661469 -0.1872229278087616 -0.0029757125303149223 0.00023117568343877792 0 0 0 0
2285359724 0.2055985927581787 -0.2100418508052826 -0.002568327821791172 -1.6828998923301697e-06 0 0 0 0
2289081808 0.19143247604370117 -0.2245083898305893 -0.002406701445579529 -0.0005014892667531967 0 0 0 0
2292803892 0.1725902259349823 -0.23749403655529022 -0.002457861788570881 -0.0009492496028542519 0 0 0 0
2296525976 0.14813724160194397 -0.24982850253582 -0.0030571678653359413 -0.0016612401232123375 0 0 0 0
2300248060 0.13557904958724976 -0.251360148191452 -0.004188874736428261 -0.0017494931817054749 0 0 0 0
2303970144 0.11843440681695938 -0.25780409574508667 -0.005493110977113247 -0.0010877558961510658 0 0 0 0
2307692228 0.09486264735460281 -0.25731271505355835 -0.005711824633181095 0.00048865657299757 0 0 0 0
2311414312 0.0718291848897934 -0.25619006156921387 -0.005285635590553284 0.00147976353764534 0 0 0 0
2315136396 0.05112752318382263 -0.24934938549995422 -0.004636547528207302 0.0017146281898021698 0 0 0 0
2318858480 0.028798580169677734 -0.23911097645759583 -0.004387524910271168 0.001627529039978981 0 0 0 0
2322580564 0.010873563587665558 -0.22528116405010223 -0.004575938917696476 0.0016139112412929535 0 0 0 0
2326302648 -0.007171805948019028 -0.20710183680057526 -0.004764958284795284 0.0017975075170397758 0 0 0 0
2330024732 -0.01711300015449524 -0.18573179841041565 -0.005314141511917114 0.002096370793879032 0 0 0 0
2333746816 -0.021964823827147484 -0.16476525366306305 -0.005500812083482742 0.003133782185614109 0 0 0 0
2337468900 -0.030113667249679565 -0.1405046433210373 -0.005703275091946125 0.0040014637634158134 0 0 0 0
2341190984 -0.029101263731718063 -0.11524280160665512 -0.005502605810761452 0.004921738989651203 0 0 0 0
2344913068 -0.02578146755695343 -0.08900654315948486 -0.005285338498651981 0.006072482094168663 0 0 0 0
2348635152 -0.016804639250040054 -0.06459016352891922 -0.004237714223563671 0.00730898417532444 0 0 0 0
2352357236 -0.004976831376552582 -0.04289943724870682 -0.003082391805946827 0.007933304645121098 0 0 0 0
2356079320 0.012756519950926304 -0.02348286285996437 -0.0018883505836129189 0.008272574283182621 0 0 0 0
2359801404 0.03134027123451233 -0.006332769058644772 -0.00041222386062145233 0.008129156194627285 0 0 0 0
2363523488 0.053665101528167725 0.00823703408241272 0.0006889458745718002 0.007795893587172031 0 0 0 0
2367245572 0.07851029187440872 0.018990786746144295 0.0012999316677451134 0.007173425517976284 0 0 0 0
2370967656 0.10671433806419373 0.025583839043974876 0.0017779823392629623 0.006965000182390213 0 0 0 0
2374689740 0.13573148846626282 0.02495095320045948 0.0023895790800452232 0.006534877233207226 0 0 0 0
2378411824 0.16391190886497498 0.01992676965892315 0.003042757511138916 0.006258136592805386 0 0 0 0
2382133908 0.1907595992088318 0.010785648599267006 0.0033200588077306747 0.006127628497779369 0 0 0 0
2385855992 0.21617433428764343 -0.004544876515865326 0.004086238332092762 0.005864621140062809 0 0 0 0
2389578076 0.23748844861984253 -0.021734118461608887 0.004433705471456051 0.005426126532256603 0 0 0 0
2393300160 0.25532129406929016 -0.04442780464887619 0.004982445389032364 0.005504992790520191 0 0 0 0
2397022244 0.26979273557662964 -0.06693871319293976 0.006164283491671085 0.005507688969373703 0 0 0 0
2400744328 0.2788392901420593 -0.09355898201465607 0.007479592226445675 0.004729805514216423 0 0 0 0
2404466412 0.28465354442596436 -0.12167495489120483 0.008846445940434933 0.0033262278884649277 0 0 0 0
2408188496 0.2866800129413605 -0.14708372950553894 0.009432503953576088 0.0017534438520669937 0 0 0 0
2411910580 0.28508275747299194 -0.17401474714279175 0.009872371330857277 7.010996341705322e-05 0 0 0 0
2415632664 0.28066420555114746 -0.19756083190441132 0.009890114888548851 -0.001427769660949707 0 0 0 0
2419354748 0.2697160243988037 -0.22459670901298523 0.009975653141736984 -0.003274107351899147 0 0 0 0
2423076832 0.25625094771385193 -0.24846233427524567 0.009653911925852299 -0.005072668194770813 0 0 0 0
2426798916 0.23616759479045868 -0.2726936340332031 0.00858976412564516 -0.0073109762743115425 0 0 0 0
2430521000 0.2174907624721527 -0.2892809212207794 0.006924637593328953 -0.008911103941500187 0 0 0 0
2434243084 0.1963503360748291 -0.3044285178184509 0.00523547176271677 -0.010028897784650326 0 0 0 0
2437965168 0.16773562133312225 -0.31781187653541565 0.003304464742541313 -0.010429928079247475 0 0 0 0
2441687252 0.1433180421590805 -0.32479187846183777 0.0016678571701049805 -0.010790298692882061 0 0 0 0
2445409336 0.11182522773742676 -0.33036378026008606 7.52834603190422e-05 -0.010924959555268288 0 0 0 0
2449131420 0.08369715511798859 -0.3281410336494446 -0.001296437345445156 -0.011069129221141338 0 0 0 0
2452853504 0.057032160460948944 -0.3220093548297882 -0.002981044352054596 -0.01111747045069933 0 0 0 0
2456575588 0.028288330882787704 -0.31304213404655457 -0.0048014214262366295 -0.010754713788628578 0 0 0 0
2460297672 0.004615113139152527 -0.3000476658344269 -0.006591887213289738 -0.010404400527477264 0 0 0 0
2464019756 -0.020325347781181335 -0.28335726261138916 -0.008410007692873478 -0.009487100876867771 0 0 0 0
2467741840 -0.042865149676799774 -0.2619720697402954 -0.010187939740717411 -0.00817771628499031 0 0 0 0
2471463924 -0.05914893001317978 -0.23736785352230072 -0.011631539091467857 -0.006780305877327919 0 0 0 0
2475186008 -0.07084006071090698 -0.21232427656650543 -0.012793134897947311 -0.0047439271584153175 0 0 0 0
2478908092 -0.07967906445264816 -0.18496450781822205 -0.01387981791049242 -0.00295071117579937 0 0 0 0
2482630176 -0.08495543152093887 -0.15640129148960114 -0.014348858967423439 -0.0004320228472352028 0 0 0 0
2486352260 -0.08476882427930832 -0.1284329742193222 -0.014592182822525501 0.0017205700278282166 0 0 0 0
2490074344 -0.08200126886367798 -0.09963380545377731 -0.014669215306639671 0.004292670637369156 0 0 0 0
2493796428 -0.07419680058956146 -0.07127051800489426 -0.013907660730183125 0.007148615084588528 0 0 0 0
2497518512 -0.06302924454212189 -0.045088786631822586 -0.012363283894956112 0.009521993808448315 0 0 0 0
2501240596 -0.04669317975640297 -0.02028750814497471 -0.010513849556446075 0.01138268131762743 0 0 0 0
2504962680 -0.027634233236312866 0.001260107383131981 -0.008428635075688362 0.012923280708491802 0 0 0 0
2508684764 -0.005004615522921085 0.01989496499300003 -0.005964554846286774 0.01454463042318821 0 0 0 0
2512406848 0.01960756629705429 0.03486377373337746 -0.0032796263694763184 0.015604689717292786 0 0 0 0
2516128932 0.046047139912843704 0.045874617993831635 -4.66126948595047e-06 0.015776976943016052 0 0 0 0
2519851016 0.07477438449859619 0.05279923230409622 0.0032610613852739334 0.015061543323099613 0 0 0 0
2523573100 0.10377408564090729 0.054526735097169876 0.005832654424011707 0.013574710115790367 0 0 0 0
2527295184 0.13333609700202942 0.051653921604156494 0.008222476579248905 0.011614742688834667 0 0 0 0
2531017268 0.1613185703754425 0.043128661811351776 0.009914197959005833 0.009459609165787697 0 0 0 0
2534739352 0.18727512657642365 0.03173350915312767 0.011193963699042797 0.006798050366342068 0 0 0 0
2538461436 0.2100048065185547 0.01429891586303711 0.011567795649170876 0.003991245292127132 0 0 0 0
2542183520 0.22948449850082397 -0.003508828580379486 0.011437047272920609 0.0014238283038139343 0 0 0 0
2545905604 0.24465718865394592 -0.02534927800297737 0.010637788102030754 -0.0006733881309628487 0 0 0 0
2549627688 0.25794416666030884 -0.0469525083899498 0.009776480495929718 -0.002581530250608921 0 0 0 0
2553349772 0.2649575173854828 -0.07378119975328445 0.00838487222790718 -0.0043873973190784454 0 0 0 0
2557071856 0.27147457003593445 -0.09773342311382294 0.00658123753964901 -0.005509017966687679 0 0 0 0
2560793940 0.27080169320106506 -0.12091633677482605 0.004611502401530743 -0.00570110697299242 0 0 0 0
2564516024 0.2666240334510803 -0.14628919959068298 0.0035465406253933907 -0.0054053450003266335 0 0 0 0
2568238108 0.26075032353401184 -0.16565433144569397 0.002550448291003704 -0.00521153025329113 0 0 0 0
2571960192 0.2519381046295166 -0.18640446662902832 0.0021216189488768578 -0.0047708796337246895 0 0 0 0
2575682276 0.23846706748008728 -0.20479878783226013 0.0017470838502049446 -0.004483869299292564 0 0 0 0
2579404360 0.22545193135738373 -0.22038230299949646 0.0017967242747545242 -0.004683884792029858 0 0 0 0
2583126444 0.21176238358020782 -0.23217716813087463 0.0014354046434164047 -0.004945075139403343 0 0 0 0
2586848528 0.19530420005321503 -0.2433418482542038 0.0007510380819439888 -0.005574801936745644 0 0 0 0
2590570612 0.18066780269145966 -0.25159305334091187 -0.00011896155774593353 -0.005774668417870998 0 0 0 0
2594292696 0.16154974699020386 -0.2600287199020386 -0.001067652367055416 -0.005847053602337837 0 0 0 0
2598014780 0.1406884342432022 -0.2643907964229584 -0.0020694024860858917 -0.005556832067668438 0 0 0 0
2601736864 0.12203044444322586 -0.26500776410102844 -0.0030508730560541153 -0.004772688262164593 0 0 0 0
2605458948 0.10489759594202042 -0.2647140324115753 -0.003377627581357956 -0.004016127437353134 0 0 0 0
2609181032 0.08475279062986374 -0.25968319177627563 -0.0033955303952097893 -0.0031466204673051834 0 0 0 0
2612903116 0.06668822467327118 -0.2518896162509918 -0.0034234337508678436 -0.002688715234398842 0 0 0 0
2616625200 0.04912005364894867 -0.24074585735797882 -0.0033355318009853363 -0.002187770791351795 0 0 0 0
2620347284 0.03814508020877838 -0.22796666622161865 -0.0031155329197645187 -0.0021058134734630585 0 0 0 0
2624069368 0.0232623890042305 -0.21368619799613953 -0.0032304218038916588 -0.002164013683795929 0 0 0 0
2627791452 0.016856415197253227 -0.1968757063150406 -0.0034380601719021797 -0.002335508354008198 0 0 0 0
2631513536 0.012359988875687122 -0.17911259829998016 -0.004172343760728836 -0.0025073084980249405 0 0 0 0
2635235620 0.011675149202346802 -0.161464124917984 -0.0047668032348155975 -0.0019551487639546394 0 0 0 0
2638957704 0.013366753235459328 -0.1451222151517868 -0.005290514789521694 -0.0010715238749980927 0 0 0 0
2642679788 0.018193811178207397 -0.1282225400209427 -0.00537323672324419 -1.3195909559726715e-05 0 0 0 0
2646401872 0.026508444920182228 -0.115270234644413 -0.005009903572499752 0.0009097699075937271 0 0 0 0
2650123956 0.0365925170481205 -0.10340850055217743 -0.004530829377472401 0.0016325172036886215 0 0 0 0
2653846040 0.046585798263549805 -0.09488777071237564 -0.0037924274802207947 0.00196639820933342 0 0 0 0
2657568124 0.05960839241743088 -0.08805637806653976 -0.003361647017300129 0.0018844390287995338 0 0 0 0
2661290208 0.07246630638837814 -0.08439119160175323 -0.003286789171397686 0.0021311063319444656 0 0 0 0
2665012292 0.0863480418920517 -0.08366455137729645 -0.0033863531425595284 0.0023100636899471283 0 0 0 0
2668734376 0.09869015216827393 -0.08507068455219269 -0.0030251536518335342 0.0026886174455285072 0 0 0 0
2672456460 0.11143381893634796 -0.09072206914424896 -0.0027857478708028793 0.0030242381617426872 0 0 0 0
2676178544 0.12171982228755951 -0.09818609058856964 -0.0024141110479831696 0.0035047288984060287 0 0 0 0
2679900628 0.13137954473495483 -0.10704687237739563 -0.0018353434279561043 0.004015681333839893 0 0 0 0
2683622712 0.13661672174930573 -0.11813929677009583 -0.0009903470054268837 0.004312166012823582 0 0 0 0
2687344796 0.1396464854478836 -0.12981893122196198 -0.0001656152307987213 0.004040934145450592 0 0 0 0
2691066880 0.1418309211730957 -0.1422027051448822 0.0004739612340927124 0.003972666338086128 0 0 0 0
2694788964 0.13764362037181854 -0.15570297837257385 0.001311599276959896 0.0039198435842990875 0 0 0 0
2698511048 0.13403786718845367 -0.16645023226737976 0.002025991678237915 0.0038455091416835785 0 0 0 0
2702233132 0.12774425745010376 -0.17662425339221954 0.0030187638476490974 0.002998628653585911 0 0 0 0
2705955216 0.1177268773317337 -0.18723168969154358 0.0036009550094604492 0.0019556302577257156 0 0 0 0
2709677300 0.10794468224048615 -0.19426511228084564 0.003571685403585434 0.0007982132956385612 0 0 0 0
2713399384 0.09341324865818024 -0.2002231478691101 0.0032611647620797157 -7.244758307933807e-05 0 0 0 0
2717121468 0.07723913341760635 -0.2028452306985855 0.00303051620721817 -0.0005482826381921768 0 0 0 0
2720843552 0.06524057686328888 -0.2017512321472168 0.002641197293996811 -0.0009023044258356094 0 0 0 0
2724565636 0.048224084079265594 -0.19853511452674866 0.002324470318853855 -0.0012164590880274773 0 0 0 0
2728287720 0.03618749976158142 -0.19216413795948029 0.0018315212801098824 -0.0014960216358304024 0 0 0 0
2732009804 0.02216273546218872 -0.18329904973506927 0.001318470574915409 -0.0015055127441883087 0 0 0 0
2735731888 0.009044049307703972 -0.17047592997550964 0.0010848073288798332 -0.0012330738827586174 0 0 0 0
2739453972 -8.634105324745178e-05 -0.15779659152030945 0.0012549767270684242 -0.0012041199952363968 0 0 0 0
2743176056 -0.007952302694320679 -0.14092129468917847 0.0015169400721788406 -0.0012654485180974007 0 0 0 0
2746898140 -0.012707731686532497 -0.12268437445163727 0.002014642581343651 -0.001585773192346096 0 0 0 0
2750620224 -0.013265026733279228 -0.10393145680427551 0.0022414224222302437 -0.0024648429825901985 0 0 0 0
2754342308 -0.009984197095036507 -0.08565815538167953 0.0018761539831757545 -0.0033974722027778625 0 0 0 0
2758064392 -0.004839308559894562 -0.0690365806221962 0.0009215101599693298 -0.004223947413265705 0 0 0 0
2761786476 0.0032306984066963196 -0.052433937788009644 -0.00012609176337718964 -0.004643451422452927 0 0 0 0
2765508560 0.012293916195631027 -0.03718246892094612 -0.0014340318739414215 -0.004417194053530693 0 0 0 0
2769230644 0.024914076551795006 -0.022063545882701874 -0.002467721700668335 -0.003983135335147381 0 0 0 0
2772952728 0.039860762655735016 -0.009326894767582417 -0.0033250171691179276 -0.003038446418941021 0 0 0 0
2776674812 0.05861935019493103 0.0023398399353027344 -0.003649922087788582 -0.0020986301824450493 0 0 0 0
2780396896 0.07984331250190735 0.00994311273097992 -0.0035913344472646713 -0.0009081326425075531 0 0 0 0
2784118980 0.10192279517650604 0.014181448146700859 -0.003195696510374546 1.193024218082428e-05 0 0 0 0
2787841064 0.12494121491909027 0.013199100270867348 -0.0026076845824718475 0.00044052116572856903 0 0 0 0
2791563148 0.14738494157791138 0.008478615432977676 -0.0019476870074868202 0.00043447408825159073 0 0 0 0
2795285232 0.16875311732292175 0.002850450575351715 -0.0017844690009951591 0.0004535382613539696 0 0 0 0
2799007316 0.19033654034137726 -0.006998172961175442 -0.0017752954736351967 0.00037493277341127396 0 0 0 0
2802729400 0.2097325325012207 -0.023106953129172325 -0.0017453450709581375 0.0006326520815491676 0 0 0 0
2806451484 0.22701790928840637 -0.04065094143152237 -0.0015728110447525978 0.0009496584534645081 0 0 0 0
2810173568 0.2414718121290207 -0.05930240452289581 -0.0013523725792765617 0.0012482767924666405 0 0 0 0
2813895652 0.25165385007858276 -0.08347906917333603 -0.0009115440770983696 0.0014047790318727493 0 0 0 0
2817617736 0.26040753722190857 -0.10555869340896606 -0.0005220882594585419 0.001408998854458332 0 0 0 0
2821339820 0.2620992362499237 -0.1330319046974182 -0.00041550491005182266 0.0015048673376441002 0 0 0 0
2825061904 0.261802077293396 -0.1579711139202118 3.283005207777023e-05 0.0016525555402040482 0 0 0 0
2828783988 0.25437942147254944 -0.18421170115470886 0.0005462821573019028 0.0017746593803167343 0 0 0 0
2832506072 0.24832966923713684 -0.20496989786624908 0.0011737877503037453 0.0014822036027908325 0 0 0 0
2836228156 0.23513738811016083 -0.22654902935028076 0.001700911670923233 0.0011425409466028214 0 0 0 0
2839950240 0.21874602138996124 -0.24865099787712097 0.0020370231941342354 0.0005994318053126335 0 0 0 0
2843672324 0.20464088022708893 -0.2648783326148987 0.002295202575623989 -4.7832727432250977e-05 0 0 0 0
2847394408 0.1890423595905304 -0.27752289175987244 0.002317512407898903 -0.0006410181522369385 0 0 0 0
2851116492 0.17029714584350586 -0.2917865812778473 0.0021520452573895454 -0.0013289032503962517 0 0 0 0
2854838576 0.1461298167705536 -0.3033883273601532 0.0017925659194588661 -0.0018762024119496346 0 0 0 0
2858560660 0.12737657129764557 -0.3107239603996277 0.0014268634840846062 -0.002744130790233612 0 0 0 0
2862282744 0.10063906759023666 -0.3177576959133148 0.0007097721099853516 -0.002993101254105568 0 0 0 0
2866004828 0.07834681123495102 -0.3202798068523407 0.0002356870099902153 -0.002831443212926388 0 0 0 0
2869726912 0.05560791864991188 -0.31805914640426636 -0.00016372371464967728 -0.0026952000334858894 0 0 0 0
2873448996 0.032461076974868774 -0.31291696429252625 -0.0004531191661953926 -0.0024429401382803917 0 0 0 0
2877171080 0.007765054702758789 -0.3058730363845825 -0.0007797498255968094 -0.0023822635412216187 0 0 0 0
2880893164 -0.014727592468261719 -0.29690223932266235 -0.0010389285162091255 -0.002193387597799301 0 0 0 0
2884615248 -0.036149054765701294 -0.28355368971824646 -0.0013876259326934814 -0.001927059143781662 0 0 0 0
2888337332 -0.052802830934524536 -0.26862800121307373 -0.001527572050690651 -0.0016398010775446892 0 0 0 0
2892059416 -0.07285658270120621 -0.25061896443367004 -0.001634642481803894 -0.0013347109779715538 0 0 0 0
2895781500 -0.08788559585809708 -0.23179425299167633 -0.001833154819905758 -0.0011044470593333244 0 0 0 0
2899503584 -0.10373404622077942 -0.20854522287845612 -0.0019717663526535034 -0.0006635868921875954 0 0 0 0
2903225668 -0.1112436056137085 -0.18526585400104523 -0.0018363213166594505 -0.00026336777955293655 0 0 0 0
2906947752 -0.11922232806682587 -0.159965381026268 -0.0017513036727905273 -1.0281801223754883e-05 0 0 0 0
2910669836 -0.12280720472335815 -0.13348029553890228 -0.0018254723399877548 0.0003925822675228119 0 0 0 0
2914391920 -0.12036503851413727 -0.10792508721351624 -0.0017490852624177933 0.0007754750549793243 0 0 0 0
2918114004 -0.11773669719696045 -0.08049969375133514 -0.0013805525377392769 0.0011684028431773186 0 0 0 0
2921836088 -0.11014966666698456 -0.054672375321388245 -0.000950206071138382 0.0014495840296149254 0 0 0 0
2925558172 -0.09953872114419937 -0.032951921224594116 -0.0007085558027029037 0.0014965478330850601 0 0 0 0
2929280256 -0.08737630397081375 -0.009863339364528656 -0.0005793999880552292 0.0014968356117606163 0 0 0 0
2933002340 -0.07182637602090836 0.010351334698498249 -0.0005264077335596085 0.0018608765676617622 0 0 0 0
2936724424 -0.05320604518055916 0.028697870671749115 -0.00020816456526517868 0.002240215428173542 0 0 0 0
2940446508 -0.033593080937862396 0.04481743276119232 0.0002509467303752899 0.0027104876935482025 0 0 0 0
2944168592 -0.011710133403539658 0.058144308626651764 0.0009900862351059914 0.002763045020401478 0 0 0 0
2947890676 0.012840623036026955 0.06870966404676437 0.0015517668798565865 0.0028806496411561966 0 0 0 0
2951612760 0.03707007318735123 0.07773172855377197 0.0024754414334893227 0.002884265035390854 0 0 0 0
2955334844 0.06390468776226044 0.08272595703601837 0.003363196738064289 0.002427825704216957 0 0 0 0
2959056928 0.09160539507865906 0.08333422243595123 0.004186898469924927 0.0016693007200956345 0 0 0 0
2962779012 0.11999637633562088 0.07811097800731659 0.004516821354627609 0.0008639544248580933 0 0 0 0
2966501096 0.14619915187358856 0.07153315097093582 0.004881085827946663 -0.0002087075263261795 0 0 0 0
2970223180 0.1709752380847931 0.059855446219444275 0.004993012174963951 -0.0013255896046757698 0 0 0 0
2973945264 0.19297194480895996 0.04550351947546005 0.004402706399559975 -0.002100309357047081 0 0 0 0
2977667348 0.2140515297651291 0.027785398066043854 0.0039418647065758705 -0.0027350028976798058 0 0 0 0
2981389432 0.23319941759109497 0.0073178112506866455 0.0033680908381938934 -0.0033348286524415016 0 0 0 0
2985111516 0.2476259469985962 -0.012677960097789764 0.002848101779818535 -0.003583695739507675 0 0 0 0
2988833600 0.25842583179473877 -0.03888048604130745 0.0019965190440416336 -0.0038795191794633865 0 0 0 0
2992555684 0.2652943730354309 -0.06671913713216782 0.0014419415965676308 -0.004182232543826103 0 0 0 0
2996277768 0.2689201831817627 -0.08730344474315643 0.0007179006934165955 -0.004204182885587215 0 0 0 0
2999999852 0.26986345648765564 -0.11315881460905075 0.00022997334599494934 -0.0039263758808374405 0 0 0 0
