# HZ S RI R 50
1500000000 -0.07852384448051453 -0.08035074174404144 0.027539819478988647 -0.03429463505744934 0 0 0 0
1503722084 -0.07595651596784592 -0.05848798155784607 0.021994508802890778 -0.03568263724446297 0 0 0 0
1507444168 -0.06772205233573914 -0.03441355377435684 0.017313919961452484 -0.03713071346282959 0 0 0 0
1511166252 -0.05233326181769371 -0.0093206986784935 0.012139803729951382 -0.03907322138547897 0 0 0 0
1514888336 -0.030244607478380203 0.012203625403344631 0.006523560732603073 -0.04059937596321106 0 0 0 0
1518610420 -0.0027261851355433464 0.03012346848845482 0.00024032220244407654 -0.04122224822640419 0 0 0 0
1522332504 0.0294097401201725 0.04391270875930786 -0.006692568771541119 -0.04066329449415207 0 0 0 0
1526054588 0.06588191539049149 0.05173681676387787 -0.01430959440767765 -0.03841377794742584 0 0 0 0
1529776672 0.10564558207988739 0.05385510250926018 -0.020555170252919197 -0.03442329540848732 0 0 0 0
1533498756 0.1478225439786911 0.04855264723300934 -0.025214415043592453 -0.02915971167385578 0 0 0 0
1537220840 0.19069240987300873 0.03189031034708023 -0.028674868866801262 -0.023304402828216553 0 0 0 0
1540942924 0.22977475821971893 0.006070512346923351 -0.030594222247600555 -0.01727413758635521 0 0 0 0
1544665008 0.26350894570350647 -0.024648280814290047 -0.03142143413424492 -0.01149365957826376 0 0 0 0
1548387092 0.2903050184249878 -0.06334607303142548 -0.03119397535920143 -0.006173049099743366 0 0 0 0
1552109176 0.3123827278614044 -0.10197898745536804 -0.03004593402147293 -0.0015777135267853737 0 0 0 0
1555831260 0.3291245102882385 -0.14706259965896606 -0.028495682403445244 0.0023072659969329834 0 0 0 0
1559553344 0.3404926657676697 -0.1944499909877777 -0.027090704068541527 0.005970843136310577 0 0 0 0
1563275428 0.3437691330909729 -0.24522113800048828 -0.02528097853064537 0.009550550952553749 0 0 0 0
1566997512 0.3373444974422455 -0.2982349991798401 -0.022637439891695976 0.013020350597798824 0 0 0 0
1570719596 0.32150959968566895 -0.3493461310863495 -0.01950264535844326 0.01560372393578291 0 0 0 0
1574441680 0.2982572615146637 -0.39855092763900757 -0.0160373505204916 0.017421137541532516 0 0 0 0
1578163764 0.26863378286361694 -0.44251883029937744 -0.012759726494550705 0.01839389093220234 0 0 0 0
1581885848 0.22663311660289764 -0.4840952157974243 -0.009799321182072163 0.01874174177646637 0 0 0 0
1585607932 0.18622419238090515 -0.5169111490249634 -0.00733222346752882 0.01908073015511036 0 0 0 0
1589330016 0.1347300112247467 -0.5455325841903687 -0.004829153418540955 0.019206732511520386 0 0 0 0
1593052100 0.0814373716711998 -0.5660595893859863 -0.0023517319932579994 0.01924154721200466 0 0 0 0
1596774184 0.024910718202590942 -0.5783599615097046 0.00017156824469566345 0.019101493060588837 0 0 0 0
1600496268 -0.03083723783493042 -0.5835455656051636 0.0025151539593935013 0.018716592341661453 0 0 0 0
1604218352 -0.08987066149711609 -0.5803134441375732 0.004983851686120033 0.018086669966578484 0 0 0 0
1607940436 -0.149315744638443 -0.5683777928352356 0.007557454518973827 0.017020557075738907 0 0 0 0
1611662520 -0.2095712125301361 -0.549178421497345 0.009773572906851768 0.015814390033483505 0 0 0 0
1615384604 -0.26551443338394165 -0.5175743103027344 0.012022934854030609 0.01410026103258133 0 0 0 0
1619106688 -0.319578617811203 -0.47836077213287354 0.01425496768206358 0.012206422165036201 0 0 0 0
1622828772 -0.3690382242202759 -0.4295951724052429 0.01639346405863762 0.009601440280675888 0 0 0 0
1626550856 -0.40931668877601624 -0.3754015564918518 0.017743472009897232 0.00642858911305666 0 0 0 0
1630272940 -0.4437861144542694 -0.3079494833946228 0.018317939713597298 0.00275256484746933 0 0 0 0
1633995024 -0.46632885932922363 -0.2412165403366089 0.01782556250691414 -0.0008428348228335381 0 0 0 0
1637717108 -0.4783175587654114 -0.16852697730064392 0.016417644917964935 -0.003647768869996071 0 0 0 0
1641439192 -0.47985944151878357 -0.09295104444026947 0.014858554117381573 -0.0057057831436395645 0 0 0 0
1645161276 -0.4676169753074646 -0.016309291124343872 0.013427244499325752 -0.007491469383239746 0 0 0 0
1648883360 -0.44396400451660156 0.0565461590886116 0.011932987719774246 -0.008761116303503513 0 0 0 0
1652605444 -0.40697821974754333 0.12950631976127625 0.010270652361214161 -0.01008700579404831 0 0 0 0
1656327528 -0.36183956265449524 0.19157901406288147 0.00891076773405075 -0.011040326207876205 0 0 0 0
1660049612 -0.30474358797073364 0.24958406388759613 0.007604930549860001 -0.01214107871055603 0 0 0 0
1663771696 -0.2391100823879242 0.2976452112197876 0.00595816969871521 -0.013653422705829144 0 0 0 0
1667493780 -0.16771481931209564 0.33508920669555664 0.003486831672489643 -0.015035095624625683 0 0 0 0
1671215864 -0.0877826064825058 0.36203649640083313 0.0003924248740077019 -0.01563529670238495 0 0 0 0
1674937948 -0.003964275121688843 0.3739810585975647 -0.0029828790575265884 -0.015194824896752834 0 0 0 0
1678660032 0.07795350253582001 0.37401196360588074 -0.005944245494902134 -0.013679726980626583 0 0 0 0
1682382116 0.1602391004562378 0.3596498966217041 -0.008004969917237759 -0.011197944171726704 0 0 0 0
1686104200 0.24044650793075562 0.3334583044052124 -0.008653893135488033 -0.009051823988556862 0 0 0 0
1689826284 0.31289005279541016 0.2952103614807129 -0.009134531952440739 -0.007347162812948227 0 0 0 0
1693548368 0.37886935472488403 0.2473115772008896 -0.009598552249372005 -0.006223106756806374 0 0 0 0
1697270452 0.43791821599006653 0.18677356839179993 -0.010263443924486637 -0.004777649417519569 0 0 0 0
1700992536 0.48647579550743103 0.11923354864120483 -0.01100541278719902 -0.003314513713121414 0 0 0 0
1704714620 0.5231658816337585 0.04725882038474083 -0.011551219038665295 -0.0013943882659077644 0 0 0 0
1708436704 0.5476053357124329 -0.027690477669239044 -0.011463482864201069 0.0008065924048423767 0 0 0 0
1712158788 0.5597711801528931 -0.11074456572532654 -0.010816147550940514 0.002939562313258648 0 0 0 0
1715880872 0.5596557855606079 -0.1879739761352539 -0.00967943761497736 0.004816743545234203 0 0 0 0
1719602956 0.5477346181869507 -0.2656205892562866 -0.007887152023613453 0.0062439925968647 0 0 0 0
1723325040 0.5246381759643555 -0.34236615896224976 -0.005841772072017193 0.006876740604639053 0 0 0 0
1727047124 0.49332982301712036 -0.4080808758735657 -0.004227490164339542 0.0069006336852908134 0 0 0 0
1730769208 0.4434700310230255 -0.4759595990180969 -0.0031662946566939354 0.006529218517243862 0 0 0 0
1734491292 0.39360496401786804 -0.5303611159324646 -0.002429434098303318 0.006509126164019108 0 0 0 0
1738213376 0.3332218527793884 -0.5757320523262024 -0.0013263486325740814 0.006699872203171253 0 0 0 0
1741935460 0.2681235373020172 -0.611351490020752 -0.0001325458288192749 0.006401549093425274 0 0 0 0
1745657544 0.19795510172843933 -0.6366440057754517 0.0008062524721026421 0.00555832777172327 0 0 0 0
1749379628 0.12534496188163757 -0.6496102809906006 0.0013157622888684273 0.004595475271344185 0 0 0 0
1753101712 0.05297002196311951 -0.6519747972488403 0.0013004587963223457 0.0037225522100925446 0 0 0 0
1756823796 -0.01787024736404419 -0.6424260139465332 0.001024763099849224 0.0033008847385644913 0 0 0 0
1760545880 -0.08090710639953613 -0.6242647171020508 0.0007311021909117699 0.0031292811036109924 0 0 0 0
1764267964 -0.14854617416858673 -0.59341961145401 0.0003795446828007698 0.0033182362094521523 0 0 0 0
1767990048 -0.2062072902917862 -0.556667685508728 0.00036677904427051544 0.0038910070434212685 0 0 0 0
1771712132 -0.25447165966033936 -0.511472761631012 0.0009468263015151024 0.004377181641757488 0 0 0 0
1775434216 -0.2957058548927307 -0.45955732464790344 0.001595296896994114 0.00440650898963213 0 0 0 0
1779156300 -0.3272867798805237 -0.40571725368499756 0.0022415071725845337 0.004122485406696796 0 0 0 0
1782878384 -0.3518441319465637 -0.34779292345046997 0.0026552779600024223 0.0037449393421411514 0 0 0 0
1786600468 -0.36815589666366577 -0.28674572706222534 0.002423270605504513 0.003330230712890625 0 0 0 0
1790322552 -0.3759290874004364 -0.22498635947704315 0.002251286059617996 0.0037311846390366554 0 0 0 0
1794044636 -0.37267979979515076 -0.16431553661823273 0.0027599530294537544 0.0042173247784376144 0 0 0 0
1797766720 -0.362208753824234 -0.10207302123308182 0.003242158330976963 0.004399092867970467 0 0 0 0
1801488804 -0.3420986831188202 -0.045690566301345825 0.003679625689983368 0.005255264230072498 0 0 0 0
1805210888 -0.3136272132396698 0.0072235604748129845 0.005575304850935936 0.006165880709886551 0 0 0 0
1808932972 -0.278359055519104 0.0537387877702713 0.008006448857486248 0.006066484376788139 0 0 0 0
1812655056 -0.23620381951332092 0.09656784683465958 0.010305194184184074 0.004562370479106903 0 0 0 0
1816377140 -0.1884293556213379 0.13103118538856506 0.012007951736450195 0.00271038431674242 0 0 0 0
1820099224 -0.13732750713825226 0.15652304887771606 0.013750203885138035 0.00031398143619298935 0 0 0 0
1823821308 -0.08087649941444397 0.17495277523994446 0.014735065400600433 -0.003051474690437317 0 0 0 0
1827543392 -0.0245869979262352 0.18333816528320312 0.014422114007174969 -0.006459574215114117 0 0 0 0
1831265476 0.03191043436527252 0.18153870105743408 0.013318605720996857 -0.009835862554609776 0 0 0 0
1834987560 0.08623921126127243 0.17050707340240479 0.011297495104372501 -0.013228503987193108 0 0 0 0
1838709644 0.13512055575847626 0.15316687524318695 0.008053487166762352 -0.015815094113349915 0 0 0 0
1842431728 0.18186330795288086 0.12859028577804565 0.004106632433831692 -0.01688341610133648 0 0 0 0
1846153812 0.222770094871521 0.09665027260780334 0.0008113747462630272 -0.016410835087299347 0 0 0 0
1849875896 0.25655195116996765 0.0585949644446373 -0.0012707002460956573 -0.01571694202721119 0 0 0 0
1853597980 0.2834427058696747 0.01720716804265976 -0.003105543553829193 -0.01557414885610342 0 0 0 0
1857320064 0.3019852042198181 -0.028366006910800934 -0.005329619161784649 -0.015633514150977135 0 0 0 0
1861042148 0.31266212463378906 -0.07305499166250229 -0.00749258603900671 -0.015772374346852303 0 0 0 0
1864764232 0.3157597780227661 -0.11853283643722534 -0.01069125346839428 -0.015700912103056908 0 0 0 0
1868486316 0.3107715845108032 -0.16197626292705536 -0.014502461068332195 -0.014377019368112087 0 0 0 0
1872208400 0.2995489537715912 -0.20309443771839142 -0.01815197244286537 -0.01188143715262413 0 0 0 0
1875930484 0.28269946575164795 -0.23984894156455994 -0.02126670442521572 -0.008428644388914108 0 0 0 0
1879652568 0.2573449909687042 -0.2743971347808838 -0.02327319234609604 -0.0036785686388611794 0 0 0 0
1883374652 0.22815416753292084 -0.3020382225513458 -0.02368794195353985 0.0018869563937187195 0 0 0 0
1887096736 0.19918030500411987 -0.3223646581172943 -0.022245530039072037 0.0065292492508888245 0 0 0 0
1890818820 0.16695234179496765 -0.3371867835521698 -0.020131368190050125 0.010002536699175835 0 0 0 0
1894540904 0.1332000195980072 -0.3471980392932892 -0.01839223876595497 0.012757471762597561 0 0 0 0
1898262988 0.09828256070613861 -0.351033091545105 -0.01654214970767498 0.01569671556353569 0 0 0 0
1901985072 0.06410866975784302 -0.34975069761276245 -0.014303547330200672 0.01869571954011917 0 0 0 0
1905707156 0.032025352120399475 -0.3407466411590576 -0.011058788746595383 0.021700557321310043 0 0 0 0
1909429240 0.0040681809186935425 -0.3286380171775818 -0.007252835668623447 0.024056073278188705 0 0 0 0
1913151324 -0.024058781564235687 -0.3105526566505432 -0.002391383983194828 0.025881174951791763 0 0 0 0
1916873408 -0.045427557080984116 -0.28944188356399536 0.0029000993818044662 0.026229778304696083 0 0 0 0
1920595492 -0.0636025071144104 -0.264646977186203 0.008149204775691032 0.02550503984093666 0 0 0 0
1924317576 -0.07557576894760132 -0.23702213168144226 0.012808756902813911 0.024241497740149498 0 0 0 0
1928039660 -0.0826292484998703 -0.20798654854297638 0.018133416771888733 0.0220317542552948 0 0 0 0
1931761744 -0.08524248749017715 -0.17843317985534668 0.023988887667655945 0.017757751047611237 0 0 0 0
1935483828 -0.08035924285650253 -0.15014879405498505 0.02801317721605301 0.011399977840483189 0 0 0 0
1939205912 -0.07159483432769775 -0.12531733512878418 0.029305847361683846 0.00392037071287632 0 0 0 0
1942927996 -0.059466402977705 -0.1027713343501091 0.028196576982736588 -0.0029460377991199493 0 0 0 0
1946650080 -0.04447050020098686 -0.08313655853271484 0.025653356686234474 -0.008199851028621197 0 0 0 0
1950372164 -0.026315372437238693 -0.06509984284639359 0.022815164178609848 -0.012631235644221306 0 0 0 0
1954094248 -0.005938345566391945 -0.05010705441236496 0.019281459972262383 -0.016707777976989746 0 0 0 0
1957816332 0.017519628629088402 -0.03965030610561371 0.015178349800407887 -0.019884930923581123 0 0 0 0
1961538416 0.042410269379615784 -0.03341289982199669 0.010028524324297905 -0.02198018506169319 0 0 0 0
1965260500 0.06786130368709564 -0.0324019193649292 0.004864340648055077 -0.022105630487203598 0 0 0 0
1968982584 0.09277705103158951 -0.03618650138378143 0.0007283026352524757 -0.021303420886397362 0 0 0 0
1972704668 0.11650697886943817 -0.0440884567797184 -0.002472246065735817 -0.019598163664340973 0 0 0 0
1976426752 0.13820768892765045 -0.05716930329799652 -0.004931744188070297 -0.018361791968345642 0 0 0 0
1980148836 0.15743999183177948 -0.07225633412599564 -0.007190863601863384 -0.017638467252254486 0 0 0 0
1983870920 0.17247194051742554 -0.092730313539505 -0.010058442130684853 -0.01667456328868866 0 0 0 0
1987593004 0.18348246812820435 -0.11369618028402328 -0.01276465505361557 -0.015214668586850166 0 0 0 0
1991315088 0.19000113010406494 -0.13565808534622192 -0.0157493744045496 -0.012609496712684631 0 0 0 0
1995037172 0.19296742975711823 -0.15836849808692932 -0.018041137605905533 -0.009260929189622402 0 0 0 0
1998759256 0.19258490204811096 -0.18099980056285858 -0.019243890419602394 -0.005764496512711048 0 0 0 0
2002481340 0.1867542415857315 -0.2047291100025177 -0.019594091922044754 -0.0018308227881789207 0 0 0 0
2006203424 0.17970427870750427 -0.22436176240444183 -0.019322581589221954 0.0020122546702623367 0 0 0 0
2009925508 0.16585080325603485 -0.24523748457431793 -0.018128396943211555 0.004920195788145065 0 0 0 0
2013647592 0.15290942788124084 -0.26148319244384766 -0.016560636460781097 0.007429303601384163 0 0 0 0
2017369676 0.13159483671188354 -0.27690061926841736 -0.015108099207282066 0.009314494207501411 0 0 0 0
2021091760 0.11028794944286346 -0.2870127856731415 -0.013698305934667587 0.011380842886865139 0 0 0 0
2024813844 0.08797138929367065 -0.293660968542099 -0.012078650295734406 0.013372110202908516 0 0 0 0
2028535928 0.06296766549348831 -0.29560819268226624 -0.01016476284712553 0.015235025435686111 0 0 0 0
2032258012 0.04012855887413025 -0.2939540147781372 -0.007918176241219044 0.017189646139740944 0 0 0 0
2035980096 0.01756718009710312 -0.2884138524532318 -0.004504048265516758 0.01875295676290989 0 0 0 0
2039702180 -0.0048074424266815186 -0.2803863286972046 -0.0010676998645067215 0.01943281665444374 0 0 0 0
2043424264 -0.024530403316020966 -0.2688387334346771 0.0023307092487812042 0.01889403723180294 0 0 0 0
2047146348 -0.04573850333690643 -0.2547697424888611 0.005573185160756111 0.01779227703809738 0 0 0 0
2050868432 -0.06383590400218964 -0.23614439368247986 0.008035596460103989 0.016326017677783966 0 0 0 0
2054590516 -0.07810862362384796 -0.214913010597229 0.010473482310771942 0.0149838887155056 0 0 0 0
2058312600 -0.09071210771799088 -0.1898958683013916 0.01228691078722477 0.013246645219624043 0 0 0 0
2062034684 -0.09814158082008362 -0.16277725994586945 0.014429125003516674 0.011456859298050404 0 0 0 0
2065756768 -0.10145845264196396 -0.13383488357067108 0.01641959697008133 0.008807527832686901 0 0 0 0
2069478852 -0.10126402974128723 -0.10517124831676483 0.017614852637052536 0.005923088639974594 0 0 0 0
2073200936 -0.09599383175373077 -0.07474371790885925 0.018819134682416916 0.0025168629363179207 0 0 0 0
2076923020 -0.08545266091823578 -0.045720212161540985 0.018898744136095047 -0.0007700789719820023 0 0 0 0
2080645104 -0.07038199156522751 -0.016330303624272346 0.018366627395153046 -0.0043683405965566635 0 0 0 0
2084367188 -0.04920174926519394 0.011087683960795403 0.017103973776102066 -0.007867883890867233 0 0 0 0
2088089272 -0.023803982883691788 0.033703017979860306 0.014842134900391102 -0.010704019106924534 0 0 0 0
2091811356 0.0068015530705451965 0.05211468040943146 0.012096294201910496 -0.012994828633964062 0 0 0 0
2095533440 0.03926535323262215 0.06536532193422318 0.009365568868815899 -0.0141622768715024 0 0 0 0
2099255524 0.07424073666334152 0.07392456382513046 0.006777497939765453 -0.014913504011929035 0 0 0 0
2102977608 0.11293798685073853 0.07539379596710205 0.004217931069433689 -0.015342249535024166 0 0 0 0
2106699692 0.15108071267604828 0.07127709686756134 0.002112478017807007 -0.015758199617266655 0 0 0 0
2110421776 0.1879756599664688 0.05945461243391037 -0.0001938631758093834 -0.01602010242640972 0 0 0 0
2114143860 0.2224709689617157 0.03901279345154762 -0.003286813385784626 -0.01622169464826584 0 0 0 0
2117865944 0.2520945966243744 0.01405489444732666 -0.0064626410603523254 -0.015316286124289036 0 0 0 0
2121588028 0.2755352258682251 -0.015903335064649582 -0.00933576188981533 -0.013591598719358444 0 0 0 0
2125310112 0.29398995637893677 -0.04959521442651749 -0.011463952250778675 -0.011741822585463524 0 0 0 0
2129032196 0.3067069351673126 -0.0803510919213295 -0.013108965940773487 -0.009374349378049374 0 0 0 0
2132754280 0.31248363852500916 -0.11725100874900818 -0.014646686613559723 -0.0067550307139754295 0 0 0 0
2136476364 0.31257206201553345 -0.15331970155239105 -0.015548033639788628 -0.003967004828155041 0 0 0 0
2140198448 0.30647850036621094 -0.1870967149734497 -0.015702491626143456 -0.0005957400426268578 0 0 0 0
2143920532 0.29907286167144775 -0.21737563610076904 -0.01467917114496231 0.0022952724248170853 0 0 0 0
2147642616 0.28383368253707886 -0.24947243928909302 -0.01326645165681839 0.004218645393848419 0 0 0 0
2151364700 0.26442694664001465 -0.2781367003917694 -0.012213476933538914 0.005645436234772205 0 0 0 0
2155086784 0.2404165118932724 -0.30152276158332825 -0.011406264267861843 0.007124551571905613 0 0 0 0
2158808868 0.21437452733516693 -0.31992948055267334 -0.01041378453373909 0.008749592117965221 0 0 0 0
2162530952 0.18530459702014923 -0.3356456458568573 -0.009170539677143097 0.010368362069129944 0 0 0 0
2166253036 0.1556931436061859 -0.34470972418785095 -0.007714784704148769 0.01178407296538353 0 0 0 0
2169975120 0.12475355714559555 -0.35010233521461487 -0.005520179867744446 0.01315375417470932 0 0 0 0
2173697204 0.092805415391922 -0.3509809076786041 -0.003016711212694645 0.01407762710005045 0 0 0 0
2177419288 0.05922030657529831 -0.34778568148612976 -0.0001644464209675789 0.014254851266741753 0 0 0 0
2181141372 0.029803141951560974 -0.3372267484664917 0.002152889035642147 0.013688445091247559 0 0 0 0
2184863456 9.618699550628662e-05 -0.32293736934661865 0.004298804327845573 0.012671275995671749 0 0 0 0
2188585540 -0.02461337298154831 -0.30425798892974854 0.005969150923192501 0.01166446041315794 0 0 0 0
2192307624 -0.047272104769945145 -0.2815917134284973 0.007670976221561432 0.010368837043642998 0 0 0 0
2196029708 -0.06574994325637817 -0.25644397735595703 0.009461116977036 0.009105119854211807 0 0 0 0
2199751792 -0.07937490195035934 -0.22883176803588867 0.011061567813158035 0.0073590753600001335 0 0 0 0
2203473876 -0.09282717108726501 -0.19711463153362274 0.012274869717657566 0.004769491031765938 0 0 0 0
2207195960 -0.09641622006893158 -0.16682380437850952 0.012527292594313622 0.0021251169964671135 0 0 0 0
2210918044 -0.09605821222066879 -0.13381421566009521 0.012008585035800934 -0.0005934545770287514 0 0 0 0
2214640128 -0.0908951535820961 -0.10076409578323364 0.010926865041255951 -0.0026441747322678566 0 0 0 0
2218362212 -0.07886546850204468 -0.07027503848075867 0.009726980701088905 -0.004221185110509396 0 0 0 0
2222084296 -0.06361400336027145 -0.03974686935544014 0.00852125696837902 -0.0055513447150588036 0 0 0 0
2225806380 -0.041377391666173935 -0.012889212928712368 0.007272699847817421 -0.0066635021939873695 0 0 0 0
2229528464 -0.01339609082788229 0.009924488142132759 0.0056633902713656425 -0.007523667067289352 0 0 0 0
2233250548 0.018570905551314354 0.024980392307043076 0.004135362803936005 -0.008102042600512505 0 0 0 0
2236972632 0.05174156650900841 0.033183787018060684 0.0026588374748826027 -0.008244852535426617 0 0 0 0
2240694716 0.08449709415435791 0.03707132115960121 0.0011295871809124947 -0.008287149481475353 0 0 0 0
2244416800 0.11728071421384811 0.03315150737762451 -0.00011812057346105576 -0.007997599430382252 0 0 0 0
2248138884 0.14837798476219177 0.023144114762544632 -0.0012342138215899467 -0.007613674737513065 0 0 0 0
2251860968 0.17690913379192352 0.008963968604803085 -0.002502143383026123 -0.007419455796480179 0 0 0 0
2255583052 0.2009749412536621 -0.006550528109073639 -0.0039212992414832115 -0.00666231382638216 0 0 0 0
2259305136 0.22114044427871704 -0.03260539844632149 -0.005152475088834763 -0.005454295314848423 0 0 0 0
2263027220 0.23849087953567505 -0.05163682997226715 -0.005391611717641354 -0.0038886461406946182 0 0 0 0
2266749304 0.2462504506111145 -0.08681347966194153 -0.005227101966738701 -0.0025011440739035606 0 0 0 0
2270471388 0.25229156017303467 -0.11172173172235489 -0.00465068593621254 -0.0016080373898148537 0 0 0 0
2274193472 0.25658661127090454 -0.13268980383872986 -0.0037441374734044075 -0.0011975262314081192 0 0 0 0
2277915556 0.24898451566696167 -0.1674811691045761 -0.003004002384841442 -0.0015789605677127838 0 0 0 0
2281637640 0.24185481667518616 -0.19156645238399506 -0.002847076393663883 -0.002547644078731537 0 0 0 0
2285359724 0.23218423128128052 -0.21386808156967163 -0.003503411076962948 -0.0032405052334070206 0 0 0 0
2289081808 0.2158108353614807 -0.23617398738861084 -0.0044410694390535355 -0.003669561818242073 0 0 0 0
2292803892 0.19592230021953583 -0.2544351816177368 -0.005706746131181717 -0.003879751078784466 0 0 0 0
2296525976 0.17357629537582397 -0.2676240801811218 -0.007544387131929398 -0.003247331827878952 0 0 0 0
2300248060 0.14244279265403748 -0.2810128331184387 -0.009093680419027805 -0.0016518309712409973 0 0 0 0
2303970144 0.1209736317396164 -0.28715649247169495 -0.0097771305590868 0.00034006405621767044 0 0 0 0
2307692228 0.09632112085819244 -0.284514844417572 -0.00976734422147274 0.0023498618975281715 0 0 0 0
2311414312 0.06255000829696655 -0.28265124559402466 -0.008852112106978893 0.004136610776185989 0 0 0 0
2315136396 0.04200512915849686 -0.27260738611221313 -0.007977969944477081 0.005460883490741253 0 0 0 0
2318858480 0.01720678061246872 -0.2616543769836426 -0.0068465303629636765 0.0062242960557341576 0 0 0 0
2322580564 -0.005509495735168457 -0.24338982999324799 -0.005969001911580563 0.006700319238007069 0 0 0 0
2326302648 -0.026372406631708145 -0.22218026220798492 -0.005239588208496571 0.007360360585153103 0 0 0 0
2330024732 -0.03697279840707779 -0.19797004759311676 -0.004476700909435749 0.008003219962120056 0 0 0 0
2333746816 -0.048786710947752 -0.17021307349205017 -0.003305196762084961 0.008808529935777187 0 0 0 0
2337468900 -0.05060076341032982 -0.14269748330116272 -0.0016875388100743294 0.00920057762414217 0 0 0 0
2341190984 -0.052223943173885345 -0.11208578199148178 -0.00020805560052394867 0.009251672774553299 0 0 0 0
2344913068 -0.04834030941128731 -0.08239834010601044 0.001293875277042389 0.008479460142552853 0 0 0 0
2348635152 -0.03632206469774246 -0.05544061213731766 0.0023127468302845955 0.007570092566311359 0 0 0 0
2352357236 -0.021682828664779663 -0.029255347326397896 0.002996167168021202 0.006830577738583088 0 0 0 0
2356079320 -0.0005408935248851776 -0.006247331388294697 0.003551947884261608 0.006000027991831303 0 0 0 0
2359801404 0.02269667573273182 0.012143922038376331 0.004227343946695328 0.005208473652601242 0 0 0 0
2363523488 0.048506516963243484 0.026456816121935844 0.004584028385579586 0.004256044514477253 0 0 0 0
2367245572 0.07691796869039536 0.036685243248939514 0.004713968373835087 0.0032544657588005066 0 0 0 0
2370967656 0.1068120151758194 0.041986897587776184 0.004832489416003227 0.002084106206893921 0 0 0 0
2374689740 0.13717083632946014 0.04317181557416916 0.004333950579166412 0.0009433794766664505 0 0 0 0
2378411824 0.16721385717391968 0.03829021006822586 0.003357567824423313 0.0003515658900141716 0 0 0 0
2382133908 0.1992524415254593 0.02982730232179165 0.0025037042796611786 0.0005512572824954987 0 0 0 0
2385855992 0.2280171513557434 0.012612394988536835 0.002192777581512928 0.0008260784670710564 0 0 0 0
2389578076 0.25488701462745667 -0.007608860731124878 0.0024493392556905746 0.001169036142528057 0 0 0 0
2393300160 0.2757212221622467 -0.03106229193508625 0.0027121491730213165 0.00109770055860281 0 0 0 0
2397022244 0.2916748821735382 -0.062033846974372864 0.002822606824338436 0.0008012186735868454 0 0 0 0
2400744328 0.30311352014541626 -0.09208984673023224 0.0027796393260359764 0.0003281654790043831 0 0 0 0
2404466412 0.3091117739677429 -0.12401692569255829 0.002651733346283436 0.00023182108998298645 0 0 0 0
2408188496 0.3099130392074585 -0.15654976665973663 0.0025273850187659264 2.3274682462215424e-05 0 0 0 0
2411910580 0.3038177490234375 -0.18787012994289398 0.002729651518166065 -0.00018355157226324081 0 0 0 0
2415632664 0.2927773892879486 -0.2182503193616867 0.0026727207005023956 -0.0006407042965292931 0 0 0 0
2419354748 0.2776557505130768 -0.24386993050575256 0.0022883545607328415 -0.0008453866466879845 0 0 0 0
2423076832 0.2604883909225464 -0.2666839361190796 0.0021710749715566635 -0.0007760636508464813 0 0 0 0
2426798916 0.23795785009860992 -0.2869890630245209 0.0021484671160578728 -0.0007140543311834335 0 0 0 0
2430521000 0.21377579867839813 -0.3049693703651428 0.002572690136730671 -0.0005953283980488777 0 0 0 0
2434243084 0.18866485357284546 -0.3197503983974457 0.0030651409178972244 -0.0009153010323643684 0 0 0 0
2437965168 0.1613239347934723 -0.3297351896762848 0.003315604291856289 -0.0015207212418317795 0 0 0 0
2441687252 0.13658644258975983 -0.3341255187988281 0.0035937298089265823 -0.0023401230573654175 0 0 0 0
2445409336 0.1054535061120987 -0.33851122856140137 0.0033495360985398293 -0.0032896650955080986 0 0 0 0
2449131420 0.07687531411647797 -0.3366532027721405 0.0029505202546715736 -0.0042221760377287865 0 0 0 0
2452853504 0.04647023230791092 -0.330535888671875 0.0023208511993288994 -0.005195555277168751 0 0 0 0
2456575588 0.0172995887696743 -0.32096654176712036 0.0015155281871557236 -0.0059515004977583885 0 0 0 0
2460297672 -0.010814860463142395 -0.3051359951496124 0.00037703756242990494 -0.00642011035233736 0 0 0 0
2464019756 -0.03652182221412659 -0.28627872467041016 -0.0006408710032701492 -0.006555451080203056 0 0 0 0
2467741840 -0.059173863381147385 -0.2620031237602234 -0.0016928557306528091 -0.0066923703998327255 0 0 0 0
2471463924 -0.07520168274641037 -0.23486211895942688 -0.002716774120926857 -0.0065875425934791565 0 0 0 0
2475186008 -0.09028957784175873 -0.2040327787399292 -0.003843686543405056 -0.006423376500606537 0 0 0 0
2478908092 -0.09568677097558975 -0.17151570320129395 -0.004834739491343498 -0.0061841486021876335 0 0 0 0
2482630176 -0.09755439311265945 -0.13695336878299713 -0.0059111351147294044 -0.005656639114022255 0 0 0 0
2486352260 -0.09293588250875473 -0.10522463917732239 -0.007081571035087109 -0.004818795248866081 0 0 0 0
2490074344 -0.08370932191610336 -0.07527246326208115 -0.007818409241735935 -0.0035755587741732597 0 0 0 0
2493796428 -0.07059343159198761 -0.04786893352866173 -0.008175201714038849 -0.0027658967301249504 0 0 0 0
2497518512 -0.05400358885526657 -0.022920463234186172 -0.008689085021615028 -0.0018590884283185005 0 0 0 0
2501240596 -0.034195076674222946 -0.0010022465139627457 -0.00951662939041853 -0.0006010215729475021 0 0 0 0
2504962680 -0.011182705871760845 0.01815124973654747 -0.009888221509754658 0.0007207468152046204 0 0 0 0
2508684764 0.014530765824019909 0.032853662967681885 -0.009895388036966324 0.0025035329163074493 0 0 0 0
2512406848 0.042143333703279495 0.04400729015469551 -0.009404348209500313 0.004003631882369518 0 0 0 0
2516128932 0.07007123529911041 0.05007905885577202 -0.008925349451601505 0.005180158652365208 0 0 0 0
2519851016 0.09841617941856384 0.05248124897480011 -0.00833574403077364 0.006864182651042938 0 0 0 0
2523573100 0.1263197958469391 0.05086449906229973 -0.007326546125113964 0.008226056583225727 0 0 0 0
2527295184 0.15498395264148712 0.04296831786632538 -0.0053733401000499725 0.009314512833952904 0 0 0 0
2531017268 0.18105395138263702 0.03147393465042114 -0.004006684757769108 0.009871234185993671 0 0 0 0
2534739352 0.2044891119003296 0.014170657843351364 -0.0024767350405454636 0.010335787199437618 0 0 0 0
2538461436 0.22492539882659912 -0.005073867738246918 -0.0007727034389972687 0.01044263131916523 0 0 0 0
2542183520 0.24044910073280334 -0.024377085268497467 0.000853770412504673 0.01012433972209692 0 0 0 0
2545905604 0.25277063250541687 -0.04777640476822853 0.002202230505645275 0.009680017828941345 0 0 0 0
2549627688 0.25974348187446594 -0.07301449775695801 0.0033883489668369293 0.009170277044177055 0 0 0 0
2553349772 0.26486217975616455 -0.09773200005292892 0.004468894563615322 0.008706223219633102 0 0 0 0
2557071856 0.2617340683937073 -0.12153303623199463 0.005863918922841549 0.007903547026216984 0 0 0 0
2560793940 0.25845983624458313 -0.14362654089927673 0.007008634507656097 0.006902976892888546 0 0 0 0
2564516024 0.2494104504585266 -0.16512934863567352 0.00785917229950428 0.005947703495621681 0 0 0 0
2568238108 0.240886390209198 -0.182328462600708 0.008632631041109562 0.004979019984602928 0 0 0 0
2571960192 0.22850950062274933 -0.19720730185508728 0.009428363293409348 0.003717181272804737 0 0 0 0
2575682276 0.21588227152824402 -0.21041247248649597 0.010429248213768005 0.0023186225444078445 0 0 0 0
2579404360 0.201542466878891 -0.2210140973329544 0.011218382976949215 0.0004811929538846016 0 0 0 0
2583126444 0.18383683264255524 -0.23273620009422302 0.011281643994152546 -0.0018286164849996567 0 0 0 0
2586848528 0.17136822640895844 -0.2360551655292511 0.010876832529902458 -0.0035687237977981567 0 0 0 0
2590570612 0.15445996820926666 -0.24169492721557617 0.010245781391859055 -0.0057744961231946945 0 0 0 0
2594292696 0.13801123201847076 -0.24451343715190887 0.009210493415594101 -0.00784354843199253 0 0 0 0
2598014780 0.12174966931343079 -0.24364548921585083 0.007741264067590237 -0.009404623880982399 0 0 0 0
2601736864 0.10600012540817261 -0.2399313896894455 0.005564000457525253 -0.01081925630569458 0 0 0 0
2605458948 0.0939955860376358 -0.2344081848859787 0.00361078605055809 -0.011418296955525875 0 0 0 0
2609181032 0.0818563848733902 -0.2282705307006836 0.001678462140262127 -0.011423460207879543 0 0 0 0
2612903116 0.07101942598819733 -0.2209419161081314 -0.00010915286839008331 -0.01128463726490736 0 0 0 0
2616625200 0.06140727549791336 -0.21124103665351868 -0.0015985742211341858 -0.010839411988854408 0 0 0 0
2620347284 0.054415926337242126 -0.2012966126203537 -0.0027559613808989525 -0.010563039220869541 0 0 0 0
2624069368 0.04888390377163887 -0.19044150412082672 -0.003978395834565163 -0.010506371967494488 0 0 0 0
2627791452 0.046054668724536896 -0.18070796132087708 -0.0051918793469667435 -0.009643897414207458 0 0 0 0
2631513536 0.04403699189424515 -0.1696072369813919 -0.006465491838753223 -0.008958328515291214 0 0 0 0
2635235620 0.04172351956367493 -0.15981212258338928 -0.00773666612803936 -0.008517258800566196 0 0 0 0
2638957704 0.044607166200876236 -0.15065905451774597 -0.009101098403334618 -0.0076338863000273705 0 0 0 0
2642679788 0.04785121604800224 -0.14025099575519562 -0.010767623782157898 -0.00625854916870594 0 0 0 0
2646401872 0.05154261365532875 -0.13235212862491608 -0.01168745942413807 -0.004481657408177853 0 0 0 0
2650123956 0.05669175833463669 -0.1259438395500183 -0.012342600151896477 -0.002689482644200325 0 0 0 0
2653846040 0.06396982073783875 -0.1195123940706253 -0.012871939688920975 -0.0010341191664338112 0 0 0 0
2657568124 0.07139937579631805 -0.11597463488578796 -0.01349730882793665 0.001087026670575142 0 0 0 0
2661290208 0.07717403024435043 -0.11507460474967957 -0.013439303264021873 0.003658609464764595 0 0 0 0
2665012292 0.083957239985466 -0.11513505131006241 -0.012668551877140999 0.0062415581196546555 0 0 0 0
2668734376 0.09058039635419846 -0.11466560512781143 -0.011326495558023453 0.008582716807723045 0 0 0 0
2672456460 0.09590219706296921 -0.11838836967945099 -0.009297855198383331 0.010483968071639538 0 0 0 0
2676178544 0.09880770742893219 -0.12052196264266968 -0.0071640582755208015 0.01194476243108511 0 0 0 0
2679900628 0.10434326529502869 -0.1223687157034874 -0.004625315777957439 0.013022717088460922 0 0 0 0
2683622712 0.10710299015045166 -0.1263129860162735 -0.0018574772402644157 0.013583610765635967 0 0 0 0
2687344796 0.10936331748962402 -0.13126610219478607 0.0007209507748484612 0.013414480723440647 0 0 0 0
2691066880 0.113560251891613 -0.135320246219635 0.0032289503142237663 0.012582922354340553 0 0 0 0
2694788964 0.11401115357875824 -0.1426587998867035 0.005342472344636917 0.011474701575934887 0 0 0 0
2698511048 0.11255637556314468 -0.15049241483211517 0.007301311939954758 0.009870405308902264 0 0 0 0
2702233132 0.1130535751581192 -0.15655216574668884 0.008801228366792202 0.00824137032032013 0 0 0 0
2705955216 0.1082303375005722 -0.1652803272008896 0.010074430145323277 0.00622661504894495 0 0 0 0
2709677300 0.1000552549958229 -0.1727817952632904 0.01102517731487751 0.004248163662850857 0 0 0 0
2713399384 0.09242300689220428 -0.1784878522157669 0.011567162349820137 0.00196730624884367 0 0 0 0
2717121468 0.08098681271076202 -0.1816767156124115 0.011872662231326103 -0.0004896027967333794 0 0 0 0
2720843552 0.06999371945858002 -0.18180842697620392 0.011183220893144608 -0.003076307475566864 0 0 0 0
2724565636 0.05878407135605812 -0.17967797815799713 0.010164793580770493 -0.005141520872712135 0 0 0 0
2728287720 0.04753189533948898 -0.1754157841205597 0.00883322674781084 -0.006966135464608669 0 0 0 0
2732009804 0.03613727539777756 -0.16991549730300903 0.007272224873304367 -0.008312718942761421 0 0 0 0
2735731888 0.026731278747320175 -0.16115915775299072 0.005758435465395451 -0.00932781770825386 0 0 0 0
2739453972 0.019487734884023666 -0.15127122402191162 0.0038320785388350487 -0.010359331965446472 0 0 0 0
2743176056 0.01083887368440628 -0.1381537765264511 0.0017964234575629234 -0.01088545098900795 0 0 0 0
2746898140 0.006651770323514938 -0.12482090294361115 -0.00029545463621616364 -0.011248677968978882 0 0 0 0
2750620224 0.0037441179156303406 -0.10969416797161102 -0.002515912987291813 -0.011167651042342186 0 0 0 0
2754342308 0.00329667329788208 -0.09343711286783218 -0.004967214539647102 -0.010502701625227928 0 0 0 0
2758064392 0.006255032494664192 -0.07679827511310577 -0.007071627303957939 -0.009059876203536987 0 0 0 0
2761786476 0.014140168204903603 -0.060757316648960114 -0.00886734388768673 -0.007066589780151844 0 0 0 0
2765508560 0.02358105033636093 -0.046834275126457214 -0.009876946918666363 -0.00493937823921442 0 0 0 0
2769230644 0.03466668352484703 -0.03455483168363571 -0.010317563079297543 -0.0024267686530947685 0 0 0 0
2772952728 0.048037443310022354 -0.023232316598296165 -0.010089523158967495 -0.00016822293400764465 0 0 0 0
2776674812 0.06286776065826416 -0.01459855493158102 -0.00952283013612032 0.0018262891098856926 0 0 0 0
2780396896 0.07987333834171295 -0.007361017167568207 -0.008698388002812862 0.0033930279314517975 0 0 0 0
2784118980 0.09806879609823227 -0.0029602237045764923 -0.007653672248125076 0.005016421899199486 0 0 0 0
2787841064 0.11649776250123978 -0.002089502289891243 -0.006121203303337097 0.006642027758061886 0 0 0 0
2791563148 0.13627231121063232 -0.004649435169994831 -0.004176579415798187 0.007678382098674774 0 0 0 0
2795285232 0.15527549386024475 -0.008960157632827759 -0.0017329761758446693 0.007915671914815903 0 0 0 0
2799007316 0.1736307442188263 -0.015563439577817917 0.00022880733013153076 0.007500860840082169 0 0 0 0
2802729400 0.19205456972122192 -0.027132540941238403 0.001677507534623146 0.00666830874979496 0 0 0 0
2806451484 0.20837169885635376 -0.03922225534915924 0.002733878791332245 0.005741697736084461 0 0 0 0
2810173568 0.22360225021839142 -0.05337544530630112 0.003680409863591194 0.005009140819311142 0 0 0 0
2813895652 0.23633188009262085 -0.07355748862028122 0.004524110816419125 0.00394059531390667 0 0 0 0
2817617736 0.24497169256210327 -0.09700324386358261 0.005002799443900585 0.002749255858361721 0 0 0 0
2821339820 0.24872960150241852 -0.11901208013296127 0.005223040468990803 0.0016042031347751617 0 0 0 0
2825061904 0.2533813714981079 -0.1372787058353424 0.005174449644982815 0.0007282383739948273 0 0 0 0
2828783988 0.25507301092147827 -0.15852229297161102 0.005337093956768513 -0.0001082252711057663 0 0 0 0
2832506072 0.25317326188087463 -0.1840648055076599 0.005114623345434666 -0.0012999353930354118 0 0 0 0
2836228156 0.2455916553735733 -0.2086990624666214 0.004735074937343597 -0.0022729327902197838 0 0 0 0
2839950240 0.237325519323349 -0.2315901517868042 0.004196912981569767 -0.0029707979410886765 0 0 0 0
2843672324 0.22374632954597473 -0.25196582078933716 0.0035230666399002075 -0.0033974098041653633 0 0 0 0
2847394408 0.20922158658504486 -0.2714337706565857 0.0030612386763095856 -0.0038942722603678703 0 0 0 0
2851116492 0.18486008048057556 -0.29131630063056946 0.0024348394945263863 -0.004248318262398243 0 0 0 0
2854838576 0.16314774751663208 -0.3053652048110962 0.0018857913091778755 -0.004690050147473812 0 0 0 0
2858560660 0.14632825553417206 -0.3166046440601349 0.0015653939917683601 -0.005518735386431217 0 0 0 0
2862282744 0.11442462354898453 -0.3262721002101898 0.00038212817162275314 -0.005905597470700741 0 0 0 0
2866004828 0.0886780247092247 -0.3303429186344147 -0.0007393816486001015 -0.005904406309127808 0 0 0 0
2869726912 0.06163915991783142 -0.33093637228012085 -0.0018029185011982918 -0.005658152513206005 0 0 0 0
2873448996 0.041333962231874466 -0.327430784702301 -0.002792986109852791 -0.005150129087269306 0 0 0 0
2877171080 0.010280035436153412 -0.3213944137096405 -0.003663049079477787 -0.0044104596599936485 0 0 0 0
2880893164 -0.010614885948598385 -0.31354591250419617 -0.004247754812240601 -0.003400532528758049 0 0 0 0
2884615248 -0.03977160155773163 -0.2997838258743286 -0.004548473283648491 -0.002267393283545971 0 0 0 0
2888337332 -0.06014467775821686 -0.2845529317855835 -0.004466857761144638 -0.001470356248319149 0 0 0 0
2892059416 -0.07914797216653824 -0.26609259843826294 -0.00427728146314621 -0.0006536683067679405 0 0 0 0
2895781500 -0.09962403774261475 -0.2438938021659851 -0.004126894287765026 -2.822093665599823e-05 0 0 0 0
2899503584 -0.11556847393512726 -0.21933706104755402 -0.004062456078827381 0.0006863977760076523 0 0 0 0
2903225668 -0.12863442301750183 -0.19112013280391693 -0.003614874556660652 0.001513768918812275 0 0 0 0
2906947752 -0.13598167896270752 -0.16278237104415894 -0.003048054873943329 0.002108919434249401 0 0 0 0
2910669836 -0.14005009829998016 -0.13381129503250122 -0.00247225072234869 0.0026458511129021645 0 0 0 0
2914391920 -0.139060840010643 -0.10470107197761536 -0.001748519018292427 0.002930961549282074 0 0 0 0
2918114004 -0.13383090496063232 -0.07569515705108643 -0.0009891605004668236 0.003204844892024994 0 0 0 0
2921836088 -0.12536253035068512 -0.04805341735482216 -0.000432819128036499 0.003149213269352913 0 0 0 0
2925558172 -0.11484091728925705 -0.020358264446258545 0.0002869265154004097 0.003054646775126457 0 0 0 0
2929280256 -0.09982671588659286 0.004695124924182892 0.0007706852629780769 0.002792198210954666 0 0 0 0
2933002340 -0.08035360276699066 0.028243768960237503 0.00098347757011652 0.002665458247065544 0 0 0 0
2936724424 -0.05742589011788368 0.04822057858109474 0.0013534529134631157 0.002525629475712776 0 0 0 0
2940446508 -0.03251796215772629 0.06430449336767197 0.0016685687005519867 0.002641436643898487 0 0 0 0
2944168592 -0.005519471131265163 0.07666776329278946 0.002224233001470566 0.00255797803401947 0 0 0 0
2947890676 0.02116384543478489 0.08533433824777603 0.0029783891513943672 0.0026113465428352356 0 0 0 0
2951612760 0.050738926976919174 0.09018120169639587 0.0038866642862558365 0.0020978981629014015 0 0 0 0
2955334844 0.07764459401369095 0.09162882715463638 0.004484148696064949 0.0014654491096735 0 0 0 0
2959056928 0.10633072257041931 0.08907520771026611 0.005003407597541809 0.0005809059366583824 0 0 0 0
2962779012 0.134161114692688 0.0831393301486969 0.005337713286280632 -0.00037357211112976074 0 0 0 0
2966501096 0.1606975793838501 0.07097350060939789 0.005295760929584503 -0.001828477717936039 0 0 0 0
2970223180 0.1840880662202835 0.05925028398633003 0.005160671658813953 -0.00280140433460474 0 0 0 0
2973945264 0.20588010549545288 0.03994963690638542 0.004101774655282497 -0.003934520296752453 0 0 0 0
2977667348 0.22482341527938843 0.02212294563651085 0.003571176901459694 -0.004566405899822712 0 0 0 0
2981389432 0.2388458549976349 0.0008381158113479614 0.0026511987671256065 -0.005125120282173157 0 0 0 0
2985111516 0.2509808838367462 -0.026291027665138245 0.0013465611264109612 -0.0057279858738183975 0 0 0 0
2988833600 0.2588748037815094 -0.04737493395805359 1.7384067177772522e-05 -0.005815218202769756 0 0 0 0
2992555684 0.2641904950141907 -0.07096211612224579 -0.0014523351565003395 -0.00540521927177906 0 0 0 0
2996277768 0.26616421341896057 -0.09324880689382553 -0.0023350100964307785 -0.00482616201043129 0 0 0 0
2999999852 0.26631635427474976 -0.11812407523393631 -0.0034088920801877975 -0.00396107230335474 0 0 0 0
