# HZ S RI R 50
1500000000 -0.07259473204612732 -0.08857925236225128 0.0454283282160759 -0.024449525400996208 0 0 0 0
1503722084 -0.07212674617767334 -0.0689939558506012 0.04056110233068466 -0.031498733907938004 0 0 0 0
1507444168 -0.06697233021259308 -0.0463748499751091 0.03487342223525047 -0.03803098946809769 0 0 0 0
1511166252 -0.0548570416867733 -0.02262216806411743 0.02782377600669861 -0.043780215084552765 0 0 0 0
1514888336 -0.03660203143954277 0.00034799519926309586 0.018994616344571114 -0.04890863597393036 0 0 0 0
1518610420 -0.012880256399512291 0.020163968205451965 0.00867457501590252 -0.05146431177854538 0 0 0 0
1522332504 0.017093654721975327 0.036613065749406815 -0.0018863137811422348 -0.05113988369703293 0 0 0 0
1526054588 0.052630722522735596 0.04829397425055504 -0.012220549397170544 -0.04778461530804634 0 0 0 0
1529776672 0.09220388531684875 0.05331181734800339 -0.020187774673104286 -0.04197826609015465 0 0 0 0
1533498756 0.1343381255865097 0.04936034977436066 -0.025854304432868958 -0.03517427295446396 0 0 0 0
1537220840 0.17752185463905334 0.03637129068374634 -0.029442891478538513 -0.028151806443929672 0 0 0 0
1540942924 0.21718931198120117 0.015283741056919098 -0.031038442626595497 -0.02150920405983925 0 0 0 0
1544665008 0.2536015808582306 -0.013987470418214798 -0.031770527362823486 -0.015855470672249794 0 0 0 0
1548387092 0.2834930419921875 -0.04995749890804291 -0.03187187761068344 -0.010618502274155617 0 0 0 0
1552109176 0.30878204107284546 -0.08956477791070938 -0.031234607100486755 -0.005868968553841114 0 0 0 0
1555831260 0.3287169635295868 -0.13412439823150635 -0.03023499622941017 -0.0018373578786849976 0 0 0 0
1559553344 0.3421960175037384 -0.18267928063869476 -0.02944171242415905 0.001838184893131256 0 0 0 0
1563275428 0.34566208720207214 -0.23379915952682495 -0.028111331164836884 0.006152858957648277 0 0 0 0
1566997512 0.339599072933197 -0.2864440977573395 -0.025559766218066216 0.010401135310530663 0 0 0 0
1570719596 0.32644563913345337 -0.3382795751094818 -0.02222275175154209 0.01337073091417551 0 0 0 0
1574441680 0.3021165728569031 -0.3898884654045105 -0.01864047907292843 0.015212571248412132 0 0 0 0
1578163764 0.2740193009376526 -0.43320056796073914 -0.015313493087887764 0.01608024537563324 0 0 0 0
1581885848 0.23832276463508606 -0.47428107261657715 -0.012836329638957977 0.016187116503715515 0 0 0 0
1585607932 0.1980496644973755 -0.5092360377311707 -0.010928197763860226 0.01647813990712166 0 0 0 0
1589330016 0.1496608704328537 -0.5405524969100952 -0.009030338376760483 0.01713567040860653 0 0 0 0
1593052100 0.09770509600639343 -0.5640887022018433 -0.007458987645804882 0.017365185543894768 0 0 0 0
1596774184 0.04282698035240173 -0.5809128284454346 -0.005899895913898945 0.018161915242671967 0 0 0 0
1600496268 -0.017147190868854523 -0.5886939764022827 -0.0040738750249147415 0.01910676248371601 0 0 0 0
1604218352 -0.07618361711502075 -0.5879920721054077 -0.0016577336937189102 0.019951123744249344 0 0 0 0
1607940436 -0.14423909783363342 -0.5775195956230164 0.0013050185516476631 0.020404109731316566 0 0 0 0
1611662520 -0.20130576193332672 -0.5597129464149475 0.004332411102950573 0.020265161991119385 0 0 0 0
1615384604 -0.2607232928276062 -0.5308951139450073 0.007548607885837555 0.019547313451766968 0 0 0 0
1619106688 -0.3167107105255127 -0.4894123673439026 0.010664787143468857 0.018167618662118912 0 0 0 0
1622828772 -0.3662700951099396 -0.4422414302825928 0.013441241346299648 0.016199175268411636 0 0 0 0
1626550856 -0.4108476936817169 -0.38641786575317383 0.015640070661902428 0.013795707374811172 0 0 0 0
1630272940 -0.4457481801509857 -0.3208247125148773 0.01758851855993271 0.011193335056304932 0 0 0 0
1633995024 -0.4698100686073303 -0.2518802881240845 0.019051585346460342 0.008453008718788624 0 0 0 0
1637717108 -0.48381108045578003 -0.17867009341716766 0.020226331427693367 0.005532644689083099 0 0 0 0
1641439192 -0.48686742782592773 -0.10090963542461395 0.02114166133105755 0.0023216847330331802 0 0 0 0
1645161276 -0.47564762830734253 -0.02491988241672516 0.02151077426970005 -0.0015498790889978409 0 0 0 0
1648883360 -0.4534990191459656 0.05093836784362793 0.020877745002508163 -0.005194634199142456 0 0 0 0
1652605444 -0.4181269407272339 0.1231180727481842 0.019582049921154976 -0.008686831220984459 0 0 0 0
1656327528 -0.37144947052001953 0.1916879415512085 0.017682800069451332 -0.011898800730705261 0 0 0 0
1660049612 -0.31334954500198364 0.25019460916519165 0.015173086896538734 -0.014730594120919704 0 0 0 0
1663771696 -0.24956299364566803 0.29804250597953796 0.012356050312519073 -0.01725645363330841 0 0 0 0
1667493780 -0.17344197630882263 0.33833521604537964 0.008706714026629925 -0.01925058849155903 0 0 0 0
1671215864 -0.09371338039636612 0.36433324217796326 0.004670706577599049 -0.02005104534327984 0 0 0 0
1674937948 -0.011346369981765747 0.37721338868141174 0.0006997212767601013 -0.019948802888393402 0 0 0 0
1678660032 0.07434745132923126 0.376470148563385 -0.0031345272436738014 -0.018760085105895996 0 0 0 0
1682382116 0.15670298039913177 0.3620567321777344 -0.006062527187168598 -0.016530761495232582 0 0 0 0
1686104200 0.2358246147632599 0.33581340312957764 -0.007946458645164967 -0.014354592189192772 0 0 0 0
1689826284 0.30720216035842896 0.29826435446739197 -0.009382804855704308 -0.012412009760737419 0 0 0 0
1693548368 0.37338483333587646 0.2518957853317261 -0.010586785152554512 -0.010504676029086113 0 0 0 0
1697270452 0.4316764175891876 0.19446834921836853 -0.011443013325333595 -0.008511160500347614 0 0 0 0
1700992536 0.48227566480636597 0.12628695368766785 -0.012129394337534904 -0.006461836397647858 0 0 0 0
1704714620 0.519826352596283 0.057042717933654785 -0.012403585016727448 -0.004493747837841511 0 0 0 0
1708436704 0.5449370741844177 -0.02384871616959572 -0.012542925775051117 -0.002454635687172413 0 0 0 0
1712158788 0.5588479042053223 -0.10169703513383865 -0.012233433313667774 -0.0005063246935606003 0 0 0 0
1715880872 0.5603307485580444 -0.1748482882976532 -0.011516682803630829 0.0014591654762625694 0 0 0 0
1719602956 0.5471451282501221 -0.2582537531852722 -0.010437816381454468 0.003036322072148323 0 0 0 0
1723325040 0.527969241142273 -0.3306768834590912 -0.008990530855953693 0.00410836935043335 0 0 0 0
1727047124 0.4963608384132385 -0.3998003304004669 -0.007743891328573227 0.004632426425814629 0 0 0 0
1730769208 0.45262613892555237 -0.4642177224159241 -0.006776901893317699 0.004943870939314365 0 0 0 0
1734491292 0.4042859375476837 -0.5191440582275391 -0.006052338518202305 0.005262626335024834 0 0 0 0
1738213376 0.34405001997947693 -0.5687402486801147 -0.0049891844391822815 0.005497300066053867 0 0 0 0
1741935460 0.2813907563686371 -0.6053453087806702 -0.004155905917286873 0.005259551107883453 0 0 0 0
1745657544 0.21386978030204773 -0.6315663456916809 -0.0037895608693361282 0.004944108426570892 0 0 0 0
1749379628 0.13972966372966766 -0.6505293846130371 -0.003875243477523327 0.0048632994294166565 0 0 0 0
1753101712 0.07101252675056458 -0.654778242111206 -0.004027990624308586 0.005000838078558445 0 0 0 0
1756823796 -0.005185969173908234 -0.6487023234367371 -0.004317651502788067 0.0057221343740820885 0 0 0 0
1760545880 -0.07443693280220032 -0.6324082612991333 -0.004130452871322632 0.006841845810413361 0 0 0 0
1764267964 -0.13594907522201538 -0.6068553328514099 -0.0036946097388863564 0.007999727502465248 0 0 0 0
1767990048 -0.19402115046977997 -0.5706913471221924 -0.0027450667694211006 0.009215090423822403 0 0 0 0
1771712132 -0.24678169190883636 -0.5291500091552734 -0.0010862909257411957 0.010004159063100815 0 0 0 0
1775434216 -0.2925174832344055 -0.47988009452819824 0.0004870221018791199 0.010373133234679699 0 0 0 0
1779156300 -0.3289273977279663 -0.423432856798172 0.002216171473264694 0.01052592322230339 0 0 0 0
1782878384 -0.35720059275627136 -0.36491313576698303 0.003932430408895016 0.009904539212584496 0 0 0 0
1786600468 -0.3758140802383423 -0.3038342297077179 0.0050196293741464615 0.008852212689816952 0 0 0 0
1790322552 -0.38705548644065857 -0.23766158521175385 0.005567760206758976 0.008149176836013794 0 0 0 0
1794044636 -0.38700777292251587 -0.17337024211883545 0.006092902272939682 0.007951204665005207 0 0 0 0
1797766720 -0.3765224516391754 -0.11034268885850906 0.006637235172092915 0.007945436984300613 0 0 0 0
1801488804 -0.35768046975135803 -0.04806385934352875 0.0076772309839725494 0.00853883195668459 0 0 0 0
1805210888 -0.3298521339893341 0.005325049161911011 0.009705672971904278 0.009066668339073658 0 0 0 0
1808932972 -0.29465439915657043 0.056884802877902985 0.012560772709548473 0.008795022964477539 0 0 0 0
1812655056 -0.25168514251708984 0.10455896705389023 0.015879621729254723 0.006845517084002495 0 0 0 0
1816377140 -0.20089542865753174 0.14111867547035217 0.01838553696870804 0.004243357107043266 0 0 0 0
1820099224 -0.14443981647491455 0.1712581068277359 0.02049962431192398 0.0003096237778663635 0 0 0 0
1823821308 -0.08740676939487457 0.1876206398010254 0.02155214734375477 -0.0041795410215854645 0 0 0 0
1827543392 -0.026256004348397255 0.19572143256664276 0.021019358187913895 -0.008917422965168953 0 0 0 0
1831265476 0.032131437212228775 0.19282452762126923 0.01969892904162407 -0.013359333388507366 0 0 0 0
1834987560 0.08705377578735352 0.18142560124397278 0.017132002860307693 -0.017951903864741325 0 0 0 0
1838709644 0.13958287239074707 0.1618918776512146 0.01291695237159729 -0.02204817533493042 0 0 0 0
1842431728 0.18593460321426392 0.136792853474617 0.007651999592781067 -0.02391311153769493 0 0 0 0
1846153812 0.22868962585926056 0.10312285274267197 0.0029520075768232346 -0.024119282141327858 0 0 0 0
1849875896 0.2630385756492615 0.06394059956073761 -0.0006310092285275459 -0.023881632834672928 0 0 0 0
1853597980 0.29067835211753845 0.01938268542289734 -0.004472902975976467 -0.023740412667393684 0 0 0 0
1857320064 0.30933305621147156 -0.026280391961336136 -0.008358245715498924 -0.02322232909500599 0 0 0 0
1861042148 0.319079726934433 -0.07430922240018845 -0.012123281136155128 -0.02180313877761364 0 0 0 0
1864764232 0.32167571783065796 -0.12009703367948532 -0.015603618696331978 -0.020317457616329193 0 0 0 0
1868486316 0.31539851427078247 -0.1653405725955963 -0.019476840272545815 -0.018074072897434235 0 0 0 0
1872208400 0.3023107051849365 -0.20673513412475586 -0.02311575412750244 -0.01459841150790453 0 0 0 0
1875930484 0.2864752411842346 -0.24358925223350525 -0.02739754319190979 -0.012030654586851597 0 0 0 0
1879652568 0.2582409381866455 -0.2796154320240021 -0.02986755222082138 -0.005880770273506641 0 0 0 0
1883374652 0.23195908963680267 -0.30500489473342896 -0.03085429221391678 0.00016439054161310196 0 0 0 0
1887096736 0.1967855989933014 -0.3278781771659851 -0.029797956347465515 0.0064194947481155396 0 0 0 0
1890818820 0.16261565685272217 -0.34135812520980835 -0.027548233047127724 0.01122618280351162 0 0 0 0
1894540904 0.12777118384838104 -0.34894928336143494 -0.02542131394147873 0.015423459000885487 0 0 0 0
1898262988 0.09623540937900543 -0.3507816791534424 -0.023393182083964348 0.019007304683327675 0 0 0 0
1901985072 0.06040237843990326 -0.3481349050998688 -0.02013486437499523 0.023406999185681343 0 0 0 0
1905707156 0.028136633336544037 -0.3401566743850708 -0.0164897833019495 0.027227232232689857 0 0 0 0
1909429240 0.0009554624557495117 -0.32653313875198364 -0.011503325775265694 0.030492687597870827 0 0 0 0
1913151324 -0.02644295245409012 -0.3086293041706085 -0.005465034395456314 0.032963793724775314 0 0 0 0
1916873408 -0.047347087413072586 -0.286960244178772 0.0007485970854759216 0.034130651503801346 0 0 0 0
1920595492 -0.06428641825914383 -0.261827290058136 0.007654109038412571 0.03407163545489311 0 0 0 0
1924317576 -0.07815089821815491 -0.23319841921329498 0.014703861437737942 0.03228980302810669 0 0 0 0
1928039660 -0.08541345596313477 -0.20332534611225128 0.021721260622143745 0.028949562460184097 0 0 0 0
1931761744 -0.08525007963180542 -0.17342165112495422 0.027844559401273727 0.023582322522997856 0 0 0 0
1935483828 -0.07871896028518677 -0.14498238265514374 0.032156381756067276 0.01632891409099102 0 0 0 0
1939205912 -0.06799345463514328 -0.11942489445209503 0.03376304358243942 0.008477466180920601 0 0 0 0
1942927996 -0.05329419672489166 -0.0972648486495018 0.03321598470211029 0.0012605804949998856 0 0 0 0
1946650080 -0.03672925755381584 -0.07855439931154251 0.031160926446318626 -0.004614941775798798 0 0 0 0
1950372164 -0.018173426389694214 -0.0630861297249794 0.02859458699822426 -0.009717078879475594 0 0 0 0
1954094248 0.003299121744930744 -0.05051087215542793 0.025973280891776085 -0.013872655108571053 0 0 0 0
1957816332 0.025533748790621758 -0.04215328022837639 0.022838864475488663 -0.017770204693078995 0 0 0 0
1961538416 0.050066184252500534 -0.03753157705068588 0.018827440217137337 -0.02121497318148613 0 0 0 0
1965260500 0.07428386807441711 -0.03765416517853737 0.014225608669221401 -0.023603269830346107 0 0 0 0
1968982584 0.098564513027668 -0.04228515550494194 0.010204602032899857 -0.025084039196372032 0 0 0 0
1972704668 0.12122593075037003 -0.05137643218040466 0.00605351384729147 -0.025792555883526802 0 0 0 0
1976426752 0.1416967362165451 -0.06377582252025604 0.002079898491501808 -0.026577239856123924 0 0 0 0
1980148836 0.1590517908334732 -0.08064226806163788 -0.0022664153948426247 -0.02694709040224552 0 0 0 0
1983870920 0.17414352297782898 -0.09933936595916748 -0.007179835811257362 -0.02668471820652485 0 0 0 0
1987593004 0.18344715237617493 -0.12245117872953415 -0.012424631044268608 -0.02474711649119854 0 0 0 0
1991315088 0.18900534510612488 -0.14453010261058807 -0.016409561038017273 -0.022349951788783073 0 0 0 0
1995037172 0.19000144302845 -0.1681988537311554 -0.020418982952833176 -0.018829798325896263 0 0 0 0
1998759256 0.18769322335720062 -0.19063973426818848 -0.02357010915875435 -0.014599226415157318 0 0 0 0
2002481340 0.18071961402893066 -0.2130555659532547 -0.02564477175474167 -0.00968241412192583 0 0 0 0
2006203424 0.17115207016468048 -0.23192957043647766 -0.02605081908404827 -0.00493765901774168 0 0 0 0
2009925508 0.15496498346328735 -0.2508823573589325 -0.026244767010211945 -0.00042301882058382034 0 0 0 0
2013647592 0.13972677290439606 -0.2661525011062622 -0.02547474205493927 0.0035513415932655334 0 0 0 0
2017369676 0.12056388705968857 -0.277627557516098 -0.02478279545903206 0.00777672603726387 0 0 0 0
2021091760 0.09835530817508698 -0.2861177325248718 -0.023137271404266357 0.011999216862022877 0 0 0 0
2024813844 0.077437624335289 -0.2910304665565491 -0.02074599266052246 0.01602121628820896 0 0 0 0
2028535928 0.05497001111507416 -0.29167938232421875 -0.017757531255483627 0.019119959324598312 0 0 0 0
2032258012 0.028515953570604324 -0.28757452964782715 -0.01370210386812687 0.021849632263183594 0 0 0 0
2035980096 0.008308187127113342 -0.28093284368515015 -0.010103894397616386 0.023828059434890747 0 0 0 0
2039702180 -0.013041511178016663 -0.27059799432754517 -0.005372311919927597 0.02455902472138405 0 0 0 0
2043424264 -0.032586630433797836 -0.25709158182144165 -0.0018185069784522057 0.02483544312417507 0 0 0 0
2047146348 -0.050138942897319794 -0.24071365594863892 0.002418750897049904 0.02421644702553749 0 0 0 0
2050868432 -0.06626961380243301 -0.2211465686559677 0.0057165538892149925 0.02349424548447132 0 0 0 0
2054590516 -0.07938686013221741 -0.19721099734306335 0.00954682007431984 0.022388625890016556 0 0 0 0
2058312600 -0.086504265666008 -0.17248155176639557 0.013084419071674347 0.02100517228245735 0 0 0 0
2062034684 -0.09050071239471436 -0.1465517282485962 0.01660025678575039 0.01871524751186371 0 0 0 0
2065756768 -0.09081290662288666 -0.1198379248380661 0.019636617973446846 0.015323260799050331 0 0 0 0
2069478852 -0.08716528117656708 -0.0933731347322464 0.02223576232790947 0.011764083057641983 0 0 0 0
2073200936 -0.0795971155166626 -0.06574367731809616 0.02395215816795826 0.007456774823367596 0 0 0 0
2076923020 -0.06744125485420227 -0.0397222638130188 0.024545960128307343 0.0025645745918154716 0 0 0 0
2080645104 -0.050498493015766144 -0.016123319044709206 0.023838063701987267 -0.002183523029088974 0 0 0 0
2084367188 -0.03045145608484745 0.0067063383758068085 0.02225654572248459 -0.006580660119652748 0 0 0 0
2088089272 -0.005799645557999611 0.024803945794701576 0.019774334505200386 -0.009854027070105076 0 0 0 0
2091811356 0.020689262077212334 0.04002181068062782 0.017481183633208275 -0.012203272432088852 0 0 0 0
2095533440 0.05043191462755203 0.05057772621512413 0.014875783585011959 -0.01432046014815569 0 0 0 0
2099255524 0.08140324801206589 0.05874833092093468 0.012811864726245403 -0.01617761142551899 0 0 0 0
2102977608 0.11649526655673981 0.06072944030165672 0.01013187225908041 -0.01769379712641239 0 0 0 0
2106699692 0.15188519656658173 0.05516987666487694 0.0073838019743561745 -0.019502868875861168 0 0 0 0
2110421776 0.1861233115196228 0.04401492327451706 0.003999318927526474 -0.02115180902183056 0 0 0 0
2114143860 0.21826505661010742 0.025331910699605942 -9.487103670835495e-05 -0.02220902219414711 0 0 0 0
2117865944 0.24556325376033783 0.002504877746105194 -0.004726041108369827 -0.022031499072909355 0 0 0 0
2121588028 0.2676236927509308 -0.025278914719820023 -0.00907469168305397 -0.020630666986107826 0 0 0 0
2125310112 0.2831636667251587 -0.05781799554824829 -0.012926979921758175 -0.018272079527378082 0 0 0 0
2129032196 0.29360729455947876 -0.09045093506574631 -0.016056206077337265 -0.015254797413945198 0 0 0 0
2132754280 0.29859352111816406 -0.12140905112028122 -0.018763897940516472 -0.011602015234529972 0 0 0 0
2136476364 0.29901358485221863 -0.15243130922317505 -0.02027323469519615 -0.007659898139536381 0 0 0 0
2140198448 0.29544007778167725 -0.18382655084133148 -0.02069866470992565 -0.0028183404356241226 0 0 0 0
2143920532 0.28722938895225525 -0.2142159342765808 -0.01949993707239628 0.001180540770292282 0 0 0 0
2147642616 0.27502450346946716 -0.24228936433792114 -0.017446104437112808 0.003970663994550705 0 0 0 0
2151364700 0.25541606545448303 -0.2705087959766388 -0.01522843912243843 0.005939106456935406 0 0 0 0
2155086784 0.23595935106277466 -0.2914109230041504 -0.013635793700814247 0.007259482517838478 0 0 0 0
2158808868 0.21017980575561523 -0.31153836846351624 -0.012096750549972057 0.008414721116423607 0 0 0 0
2162530952 0.18402235209941864 -0.32474857568740845 -0.010874764993786812 0.009320111945271492 0 0 0 0
2166253036 0.15485647320747375 -0.3344894349575043 -0.009711181744933128 0.010618318803608418 0 0 0 0
2169975120 0.1252884864807129 -0.3418223559856415 -0.008145824074745178 0.012108753435313702 0 0 0 0
2173697204 0.09507270157337189 -0.34351682662963867 -0.005776636302471161 0.013238873332738876 0 0 0 0
2177419288 0.06597807258367538 -0.34019672870635986 -0.003640279173851013 0.013475701212882996 0 0 0 0
2181141372 0.03446170687675476 -0.3325691819190979 -0.0017902562394738197 0.01330850925296545 0 0 0 0
2184863456 0.0074851661920547485 -0.318250447511673 -0.0002978779375553131 0.013277990743517876 0 0 0 0
2188585540 -0.02008255571126938 -0.30034470558166504 0.0014787334948778152 0.013505981303751469 0 0 0 0
2192307624 -0.04099775850772858 -0.2791067957878113 0.003311232663691044 0.0135900117456913 0 0 0 0
2196029708 -0.05712279677391052 -0.25543126463890076 0.005358779802918434 0.013392692431807518 0 0 0 0
2199751792 -0.07252959161996841 -0.2287609577178955 0.007890744134783745 0.012802427634596825 0 0 0 0
2203473876 -0.07893668115139008 -0.20042800903320312 0.010322237387299538 0.011513211764395237 0 0 0 0
2207195960 -0.08874575793743134 -0.17005297541618347 0.012424303218722343 0.009295094758272171 0 0 0 0
2210918044 -0.08880189061164856 -0.14017020165920258 0.014013540931046009 0.00647599995136261 0 0 0 0
2214640128 -0.08642105758190155 -0.10861298441886902 0.014611812308430672 0.0038223257288336754 0 0 0 0
2218362212 -0.07780175656080246 -0.07916094362735748 0.014964425005018711 0.0012435847893357277 0 0 0 0
2222084296 -0.06385442614555359 -0.05027294531464577 0.014477081596851349 -0.0013351915404200554 0 0 0 0
2225806380 -0.04540696367621422 -0.021003125235438347 0.013658428564667702 -0.003710727207362652 0 0 0 0
2229528464 -0.01986667513847351 0.0037500541657209396 0.012889565899968147 -0.005603743717074394 0 0 0 0
2233250548 0.010822788812220097 0.021870635449886322 0.011860236525535583 -0.0077095627784729 0 0 0 0
2236972632 0.0439445786178112 0.03301328793168068 0.010619785636663437 -0.009838909842073917 0 0 0 0
2240694716 0.0779443010687828 0.03955189138650894 0.008561080321669579 -0.01175619661808014 0 0 0 0
2244416800 0.11126452684402466 0.04030543938279152 0.0066124796867370605 -0.01296357810497284 0 0 0 0
2248138884 0.14614854753017426 0.028874527662992477 0.003624236211180687 -0.01413838379085064 0 0 0 0
2251860968 0.17616967856884003 0.015278220176696777 -0.0001956867054104805 -0.014389757066965103 0 0 0 0
2255583052 0.20240075886249542 -0.007958568632602692 -0.003248746506869793 -0.013865253888070583 0 0 0 0
2259305136 0.22567550837993622 -0.02452755719423294 -0.005767262540757656 -0.012230970896780491 0 0 0 0
2263027220 0.2406744807958603 -0.06089393049478531 -0.007393172010779381 -0.010146896354854107 0 0 0 0
2266749304 0.2523299753665924 -0.08510606735944748 -0.007878756150603294 -0.00826411135494709 0 0 0 0
2270471388 0.26036933064460754 -0.10843449085950851 -0.007961035706102848 -0.006867281161248684 0 0 0 0
2274193472 0.2569217383861542 -0.14149877429008484 -0.008188481442630291 -0.005891596898436546 0 0 0 0
2277915556 0.25295090675354004 -0.16941553354263306 -0.008398538455367088 -0.005542878992855549 0 0 0 0
2281637640 0.24450798332691193 -0.19637885689735413 -0.009205345995724201 -0.00506691075861454 0 0 0 0
2285359724 0.2331182211637497 -0.21748358011245728 -0.010365515947341919 -0.004450548440217972 0 0 0 0
2289081808 0.21106299757957458 -0.24428515136241913 -0.011383488774299622 -0.0029678186401724815 0 0 0 0
2292803892 0.19509217143058777 -0.2582479417324066 -0.01219975482672453 -0.0014281906187534332 0 0 0 0
2296525976 0.16280364990234375 -0.27515751123428345 -0.012753291055560112 0.0003862660378217697 0 0 0 0
2300248060 0.14548812806606293 -0.28040674328804016 -0.012938320636749268 0.002560155466198921 0 0 0 0
2303970144 0.11676033586263657 -0.2873828411102295 -0.012166843749582767 0.005069104954600334 0 0 0 0
2307692228 0.08688895404338837 -0.2852492928504944 -0.01090183388441801 0.007000346668064594 0 0 0 0
2311414312 0.0640859603881836 -0.2800922691822052 -0.009333047084510326 0.008019541390240192 0 0 0 0
2315136396 0.040693916380405426 -0.2704113721847534 -0.007850920781493187 0.00928037241101265 0 0 0 0
2318858480 0.010222412645816803 -0.2589801549911499 -0.006161507219076157 0.009881850332021713 0 0 0 0
2322580564 -0.005052395164966583 -0.24049854278564453 -0.004694929346442223 0.010105634108185768 0 0 0 0
2326302648 -0.02611071616411209 -0.21881890296936035 -0.0036726659163832664 0.010205053724348545 0 0 0 0
2330024732 -0.03967399150133133 -0.19393834471702576 -0.002550330013036728 0.010385769419372082 0 0 0 0
2333746816 -0.04805994778871536 -0.1679450273513794 -0.0014008628204464912 0.010675192810595036 0 0 0 0
2337468900 -0.052934858947992325 -0.1384449005126953 0.00020462926477193832 0.010653739795088768 0 0 0 0
2341190984 -0.054802075028419495 -0.1064823716878891 0.0018998058512806892 0.01028104405850172 0 0 0 0
2344913068 -0.047148145735263824 -0.07726968079805374 0.0032836953178048134 0.009520351886749268 0 0 0 0
2348635152 -0.03591611608862877 -0.04911148548126221 0.0041836826130747795 0.008551651611924171 0 0 0 0
2352357236 -0.018118077889084816 -0.023528406396508217 0.0048080869019031525 0.007437536492943764 0 0 0 0
2356079320 0.003631051629781723 -0.0015709763392806053 0.0053652869537472725 0.006525697186589241 0 0 0 0
2359801404 0.029189912602305412 0.015530985780060291 0.006044515408575535 0.005926711484789848 0 0 0 0
2363523488 0.05568588152527809 0.027918711304664612 0.0068528978154063225 0.00474976934492588 0 0 0 0
2367245572 0.08354152739048004 0.036892689764499664 0.007069982588291168 0.0032567698508501053 0 0 0 0
2370967656 0.11270596086978912 0.040685027837753296 0.006944871507585049 0.0018250839784741402 0 0 0 0
2374689740 0.14254802465438843 0.03970601409673691 0.00630565918982029 0.0005089174956083298 0 0 0 0
2378411824 0.17165540158748627 0.034346602857112885 0.005552296526730061 -0.0001971488818526268 0 0 0 0
2382133908 0.2027217596769333 0.025660745799541473 0.0049741556867957115 -0.00060981884598732 0 0 0 0
2385855992 0.2300623059272766 0.009751051664352417 0.004376946948468685 -0.0007356908172369003 0 0 0 0
2389578076 0.2559850513935089 -0.011007186025381088 0.004057309590280056 -0.0009705489501357079 0 0 0 0
2393300160 0.2763317823410034 -0.037603288888931274 0.0038937805220484734 -0.0013331975787878036 0 0 0 0
2397022244 0.2923998236656189 -0.0651175007224083 0.003889963962137699 -0.001802787184715271 0 0 0 0
2400744328 0.3028359115123749 -0.09418816864490509 0.0034192735329270363 -0.0024026017636060715 0 0 0 0
2404466412 0.30717477202415466 -0.12768036127090454 0.002947813831269741 -0.002633758820593357 0 0 0 0
2408188496 0.30816832184791565 -0.1612442433834076 0.0025582341477274895 -0.0031305355951189995 0 0 0 0
2411910580 0.3049626052379608 -0.18864202499389648 0.002052971161901951 -0.003791090101003647 0 0 0 0
2415632664 0.2921085059642792 -0.22171595692634583 0.0013270983472466469 -0.004010229371488094 0 0 0 0
2419354748 0.2773672938346863 -0.24783144891262054 0.0002802768722176552 -0.003885575570166111 0 0 0 0
2423076832 0.2559637725353241 -0.27361470460891724 -0.0003818655386567116 -0.003473956137895584 0 0 0 0
2426798916 0.23386821150779724 -0.29275232553482056 -0.0009315917268395424 -0.0029678260907530785 0 0 0 0
2430521000 0.20899367332458496 -0.3077266812324524 -0.0018920181319117546 -0.0016738176345825195 0 0 0 0
2434243084 0.18197977542877197 -0.3202585279941559 -0.0011840956285595894 -0.0018989332020282745 0 0 0 0
2437965168 0.1560494303703308 -0.3291456401348114 -0.001081584021449089 -0.0012090988457202911 0 0 0 0
2441687252 0.12906859815120697 -0.33443450927734375 -0.0006286576390266418 -0.0008508991450071335 0 0 0 0
2445409336 0.10102489590644836 -0.3365119695663452 7.774308323860168e-05 -0.0008411705493927002 0 0 0 0
2449131420 0.07081502676010132 -0.3343043625354767 0.00041965581476688385 -0.0012536467984318733 0 0 0 0
2452853504 0.043217308819293976 -0.32928603887557983 0.0004175184294581413 -0.0016564754769206047 0 0 0 0
2456575588 0.01467883586883545 -0.3164297938346863 0.0002964204177260399 -0.002130286768078804 0 0 0 0
2460297672 -0.013675976544618607 -0.30284902453422546 -6.485451012849808e-05 -0.0024012168869376183 0 0 0 0
2464019756 -0.03354409337043762 -0.28270789980888367 -0.0003074156120419502 -0.002668066881597042 0 0 0 0
2467741840 -0.057931043207645416 -0.25907814502716064 -0.0006800377741456032 -0.002910880371928215 0 0 0 0
2471463924 -0.07711053639650345 -0.23189902305603027 -0.0008126730099320412 -0.0031383130699396133 0 0 0 0
2475186008 -0.08877971023321152 -0.20122277736663818 -0.001345979981124401 -0.003456217236816883 0 0 0 0
2478908092 -0.09572215378284454 -0.16895879805088043 -0.0018955608829855919 -0.0038285143673419952 0 0 0 0
2482630176 -0.09775694459676743 -0.13472609221935272 -0.0027169417589902878 -0.0038650957867503166 0 0 0 0
2486352260 -0.09306871891021729 -0.10304275900125504 -0.0035407915711402893 -0.003750128671526909 0 0 0 0
2490074344 -0.08328361809253693 -0.07341767847537994 -0.003959205932915211 -0.0033142995089292526 0 0 0 0
2493796428 -0.06884079426527023 -0.04541999101638794 -0.004354356788098812 -0.0032341936603188515 0 0 0 0
2497518512 -0.052347421646118164 -0.020089780911803246 -0.0052000898867845535 -0.0033299941569566727 0 0 0 0
2501240596 -0.032149847596883774 0.0018299762159585953 -0.006189708597958088 -0.002934146672487259 0 0 0 0
2504962680 -0.00852210819721222 0.020796170458197594 -0.007490960881114006 -0.0024123862385749817 0 0 0 0
2508684764 0.017502421513199806 0.035545218735933304 -0.008741514757275581 -0.0012256111949682236 0 0 0 0
2512406848 0.04535095766186714 0.04552258923649788 -0.009397258050739765 0.0006058048456907272 0 0 0 0
2516128932 0.07468767464160919 0.0523717999458313 -0.009630974382162094 0.0024760644882917404 0 0 0 0
2519851016 0.10380815714597702 0.054075293242931366 -0.00938353966921568 0.004487770609557629 0 0 0 0
2523573100 0.1333392858505249 0.04905857890844345 -0.008568460121750832 0.006579812616109848 0 0 0 0
2527295184 0.1611911654472351 0.04181245341897011 -0.006964231841266155 0.008012729696929455 0 0 0 0
2531017268 0.18768765032291412 0.030980054289102554 -0.0055977823212742805 0.009047869592905045 0 0 0 0
2534739352 0.2116217315196991 0.01155516505241394 -0.0037405705079436302 0.009711069986224174 0 0 0 0
2538461436 0.23217728734016418 -0.006765928119421005 -0.0018609100952744484 0.009957513771951199 0 0 0 0
2542183520 0.24635154008865356 -0.03291755169630051 -8.492916822433472e-05 0.009946011006832123 0 0 0 0
2545905604 0.2571166753768921 -0.058253780007362366 0.0013085445389151573 0.009476205334067345 0 0 0 0
2549627688 0.2636907994747162 -0.08371275663375854 0.0025849221274256706 0.008883314207196236 0 0 0 0
2553349772 0.2644393742084503 -0.10907921195030212 0.003992579877376556 0.008349316194653511 0 0 0 0
2557071856 0.26093119382858276 -0.1321219652891159 0.005116581916809082 0.007673467509448528 0 0 0 0
2560793940 0.25555458664894104 -0.15591385960578918 0.006211595609784126 0.006468413397669792 0 0 0 0
2564516024 0.24487736821174622 -0.1757735311985016 0.007007334381341934 0.00556066632270813 0 0 0 0
2568238108 0.2334800362586975 -0.19252458214759827 0.007855778560042381 0.004417581483721733 0 0 0 0
2571960192 0.22080489993095398 -0.20529520511627197 0.008465535938739777 0.0032811593264341354 0 0 0 0
2575682276 0.20625191926956177 -0.21694834530353546 0.009265614673495293 0.001999729312956333 0 0 0 0
2579404360 0.18888181447982788 -0.22772489488124847 0.00983471516519785 0.0003147721290588379 0 0 0 0
2583126444 0.17456696927547455 -0.23301902413368225 0.009904364123940468 -0.0017777755856513977 0 0 0 0
2586848528 0.15658435225486755 -0.23846854269504547 0.009522831067442894 -0.0037851696833968163 0 0 0 0
2590570612 0.14197567105293274 -0.2396235466003418 0.008461899124085903 -0.005654661916196346 0 0 0 0
2594292696 0.1267625093460083 -0.23874372243881226 0.007207983173429966 -0.007184265181422234 0 0 0 0
2598014780 0.11020748317241669 -0.23661774396896362 0.005655006505548954 -0.008407475426793098 0 0 0 0
2601736864 0.09673239290714264 -0.23246052861213684 0.0036424724385142326 -0.009174693375825882 0 0 0 0
2605458948 0.08616210520267487 -0.22442245483398438 0.00201443862169981 -0.009273810312151909 0 0 0 0
2609181032 0.07361007481813431 -0.21729466319084167 0.0004219403490424156 -0.009054833091795444 0 0 0 0
2612903116 0.0682438537478447 -0.20830152928829193 -0.0005473969504237175 -0.008540964685380459 0 0 0 0
2616625200 0.060815125703811646 -0.19807039201259613 -0.0014298837631940842 -0.008280618116259575 0 0 0 0
2620347284 0.05518079549074173 -0.1887940764427185 -0.002085380256175995 -0.008086828514933586 0 0 0 0
2624069368 0.05211608484387398 -0.17859938740730286 -0.0030361218377947807 -0.008116425015032291 0 0 0 0
2627791452 0.0508996844291687 -0.16916660964488983 -0.004559826105833054 -0.007730952464044094 0 0 0 0
2631513536 0.05036928877234459 -0.15960876643657684 -0.005444721318781376 -0.007178321480751038 0 0 0 0
2635235620 0.04999091476202011 -0.150526762008667 -0.006463914178311825 -0.006799335591495037 0 0 0 0
2638957704 0.05324802175164223 -0.14244087040424347 -0.0072981202974915504 -0.0063165416941046715 0 0 0 0
2642679788 0.05787479132413864 -0.1339816153049469 -0.008477660827338696 -0.005537313409149647 0 0 0 0
2646401872 0.06275108456611633 -0.12744197249412537 -0.009499892592430115 -0.0043370844796299934 0 0 0 0
2650123956 0.07005397975444794 -0.12170753628015518 -0.010304552502930164 -0.0032287277281284332 0 0 0 0
2653846040 0.07621726393699646 -0.11831992119550705 -0.011365956626832485 -0.0017702821642160416 0 0 0 0
2657568124 0.0842168852686882 -0.11756167560815811 -0.011885227635502815 0.00034228619188070297 0 0 0 0
2661290208 0.0906953439116478 -0.1188584417104721 -0.011999930255115032 0.0028131231665611267 0 0 0 0
2665012292 0.09818433970212936 -0.12045803666114807 -0.011430106125772 0.0048683155328035355 0 0 0 0
2668734376 0.10157561302185059 -0.12423300743103027 -0.010193540714681149 0.006951932795345783 0 0 0 0
2672456460 0.10572610050439835 -0.12846645712852478 -0.008566745556890965 0.008404167369008064 0 0 0 0
2676178544 0.10749168694019318 -0.13320495188236237 -0.007069001905620098 0.009599711745977402 0 0 0 0
2679900628 0.10867690294981003 -0.13709571957588196 -0.005417805165052414 0.010781747289001942 0 0 0 0
2683622712 0.10938508808612823 -0.14166048169136047 -0.0031000645831227303 0.011826090514659882 0 0 0 0
2687344796 0.10972720384597778 -0.1452879011631012 -0.0007825344800949097 0.01200124155730009 0 0 0 0
2691066880 0.1083514392375946 -0.1512085348367691 0.0017911065369844437 0.011684378609061241 0 0 0 0
2694788964 0.10638168454170227 -0.1563795506954193 0.00415229145437479 0.010694627650082111 0 0 0 0
2698511048 0.10328622907400131 -0.1614418476819992 0.005618634633719921 0.009426133707165718 0 0 0 0
2702233132 0.09930256754159927 -0.16700054705142975 0.006868409924209118 0.007963329553604126 0 0 0 0
2705955216 0.09598054736852646 -0.1706436425447464 0.008025242947041988 0.006747688166797161 0 0 0 0
2709677300 0.08745582401752472 -0.175724595785141 0.009145483374595642 0.005271707661449909 0 0 0 0
2713399384 0.07710127532482147 -0.17906665802001953 0.010322488844394684 0.00354616716504097 0 0 0 0
2717121468 0.06603095680475235 -0.1805296540260315 0.011048694141209126 0.001368846744298935 0 0 0 0
2720843552 0.056449830532073975 -0.17861321568489075 0.011425990611314774 -0.0008741691708564758 0 0 0 0
2724565636 0.04607517644762993 -0.17466217279434204 0.010990554466843605 -0.003146704286336899 0 0 0 0
2728287720 0.034626781940460205 -0.16830572485923767 0.010214300826191902 -0.005688048899173737 0 0 0 0
2732009804 0.026585154235363007 -0.16062894463539124 0.00892263650894165 -0.007572559639811516 0 0 0 0
2735731888 0.01703731343150139 -0.15096788108348846 0.007146317511796951 -0.00918806903064251 0 0 0 0
2739453972 0.010965708643198013 -0.13932421803474426 0.005036715418100357 -0.01043732836842537 0 0 0 0
2743176056 0.006487291306257248 -0.12469610571861267 0.003139597363770008 -0.011154287494719028 0 0 0 0
2746898140 0.004380777478218079 -0.10980676114559174 0.0010353149846196175 -0.011576438322663307 0 0 0 0
2750620224 0.004719262942671776 -0.0943131074309349 -0.0015509417280554771 -0.01146412268280983 0 0 0 0
2754342308 0.008357256650924683 -0.07850787788629532 -0.0040343692526221275 -0.010889063589274883 0 0 0 0
2758064392 0.01477523148059845 -0.06309977173805237 -0.005988456308841705 -0.009558198042213917 0 0 0 0
2761786476 0.02377496287226677 -0.04996052384376526 -0.007566390559077263 -0.007720920257270336 0 0 0 0
2765508560 0.034635141491889954 -0.037989359349012375 -0.008823002688586712 -0.005702691152691841 0 0 0 0
2769230644 0.04725201055407524 -0.02798370085656643 -0.009269032627344131 -0.003741152584552765 0 0 0 0
2772952728 0.06096440926194191 -0.01928386464715004 -0.009484953247010708 -0.002034256234765053 0 0 0 0
2776674812 0.07719968259334564 -0.012875692918896675 -0.009417075663805008 -0.00017768889665603638 0 0 0 0
2780396896 0.09408672153949738 -0.00886104628443718 -0.009249217808246613 0.0013922713696956635 0 0 0 0
2784118980 0.11096339672803879 -0.007090073078870773 -0.00872536189854145 0.003261944279074669 0 0 0 0
2787841064 0.129411980509758 -0.007854480296373367 -0.0077099427580833435 0.0052939848974347115 0 0 0 0
2791563148 0.14726479351520538 -0.012132956646382809 -0.006061113439500332 0.006988108158111572 0 0 0 0
2795285232 0.1644013524055481 -0.018178602680563927 -0.0037258565425872803 0.007945388555526733 0 0 0 0
2799007316 0.18232500553131104 -0.027571218088269234 -0.001380964182317257 0.00810865219682455 0 0 0 0
2802729400 0.19717755913734436 -0.038701850920915604 0.0004372866824269295 0.007464421913027763 0 0 0 0
2806451484 0.2106771469116211 -0.054646868258714676 0.00191506277769804 0.0065333107486367226 0 0 0 0
2810173568 0.2229103147983551 -0.06842485815286636 0.002845793031156063 0.005639192648231983 0 0 0 0
2813895652 0.23271216452121735 -0.08659429848194122 0.003651754930615425 0.0047146473079919815 0 0 0 0
2817617736 0.24125589430332184 -0.10385860502719879 0.004310815595090389 0.003720782697200775 0 0 0 0
2821339820 0.24202783405780792 -0.13002239167690277 0.004729321226477623 0.002543770708143711 0 0 0 0
2825061904 0.24448232352733612 -0.1470043957233429 0.004683961160480976 0.0016899527981877327 0 0 0 0
2828783988 0.24151164293289185 -0.17127874493598938 0.004836888983845711 0.0011881077662110329 0 0 0 0
2832506072 0.23969043791294098 -0.18771666288375854 0.005171021446585655 0.0004296349361538887 0 0 0 0
2836228156 0.2323223501443863 -0.20894892513751984 0.005309600383043289 -0.0006085718050599098 0 0 0 0
2839950240 0.2217133343219757 -0.23217275738716125 0.005061428062617779 -0.0017153844237327576 0 0 0 0
2843672324 0.2096749097108841 -0.24878022074699402 0.004673118703067303 -0.002385544590651989 0 0 0 0
2847394408 0.19595642387866974 -0.26716673374176025 0.004346013069152832 -0.003077358938753605 0 0 0 0
2851116492 0.17958223819732666 -0.28193414211273193 0.003982395865023136 -0.003862617537379265 0 0 0 0
2854838576 0.15688671171665192 -0.29494327306747437 0.003414936363697052 -0.004596284590661526 0 0 0 0
2858560660 0.1422666758298874 -0.3057965040206909 0.0029614828526973724 -0.005629310384392738 0 0 0 0
2862282744 0.11019499599933624 -0.3147146999835968 0.0017511248588562012 -0.006355796940624714 0 0 0 0
2866004828 0.09099408984184265 -0.31668755412101746 0.0005450909957289696 -0.006694522686302662 0 0 0 0
2869726912 0.06645532697439194 -0.31889021396636963 -0.0007936088368296623 -0.006650902330875397 0 0 0 0
2873448996 0.04008658975362778 -0.3168313503265381 -0.002155482769012451 -0.006250555627048016 0 0 0 0
2877171080 0.014555098488926888 -0.3113325536251068 -0.0031800363212823868 -0.00554145872592926 0 0 0 0
2880893164 -0.007042549550533295 -0.30435341596603394 -0.004037957638502121 -0.0045212507247924805 0 0 0 0
2884615248 -0.03214150667190552 -0.2915073037147522 -0.0045560868456959724 -0.0035387128591537476 0 0 0 0
2888337332 -0.050159648060798645 -0.27785900235176086 -0.00473528727889061 -0.002526119351387024 0 0 0 0
2892059416 -0.07135279476642609 -0.2609625458717346 -0.004828185774385929 -0.0017835414037108421 0 0 0 0
2895781500 -0.0895632654428482 -0.2402050495147705 -0.004814949817955494 -0.0007735295221209526 0 0 0 0
2899503584 -0.10196949541568756 -0.2178880125284195 -0.00478727463632822 7.058493793010712e-05 0 0 0 0
2903225668 -0.11562217772006989 -0.1929314136505127 -0.004482322372496128 0.0010080626234412193 0 0 0 0
2906947752 -0.12416491657495499 -0.16710561513900757 -0.004070584662258625 0.0019127028062939644 0 0 0 0
2910669836 -0.12790322303771973 -0.14032182097434998 -0.003503488376736641 0.002641920931637287 0 0 0 0
2914391920 -0.13062775135040283 -0.11171884089708328 -0.002735137939453125 0.0033452361822128296 0 0 0 0
2918114004 -0.12650331854820251 -0.08352138847112656 -0.0017063170671463013 0.0037115830928087234 0 0 0 0
2921836088 -0.11956878751516342 -0.0563829205930233 -0.0009015006944537163 0.003847045823931694 0 0 0 0
2925558172 -0.10988324880599976 -0.030484149232506752 7.033254951238632e-05 0.0036907410249114037 0 0 0 0
2929280256 -0.09638190269470215 -0.006754672154784203 0.0007123323157429695 0.0033522406592965126 0 0 0 0
2933002340 -0.07909440994262695 0.015826581045985222 0.0011718729510903358 0.003043869510293007 0 0 0 0
2936724424 -0.059042200446128845 0.03648725524544716 0.001630089245736599 0.002869795076549053 0 0 0 0
2940446508 -0.036637380719184875 0.052634622901678085 0.002159424126148224 0.0027029691264033318 0 0 0 0
2944168592 -0.012412701733410358 0.06629450619220734 0.0025486089289188385 0.002501583658158779 0 0 0 0
2947890676 0.013986289501190186 0.07681019604206085 0.0030326945707201958 0.002111894078552723 0 0 0 0
2951612760 0.04059264808893204 0.08367709815502167 0.003556724637746811 0.0016507627442479134 0 0 0 0
2955334844 0.06765541434288025 0.0881766527891159 0.0038335900753736496 0.001168712042272091 0 0 0 0
2959056928 0.0963393971323967 0.08698517829179764 0.004148419015109539 0.0006877696141600609 0 0 0 0
2962779012 0.12495952844619751 0.08114881813526154 0.004432040266692638 0.000164729543030262 0 0 0 0
2966501096 0.15157896280288696 0.07143264263868332 0.004942825064063072 -0.0007651327177882195 0 0 0 0
2970223180 0.17515841126441956 0.060185398906469345 0.005172626115381718 -0.0018459707498550415 0 0 0 0
2973945264 0.19726905226707458 0.04274740070104599 0.0046323854476213455 -0.0030881548300385475 0 0 0 0
2977667348 0.21694836020469666 0.02345222979784012 0.004046057350933552 -0.0040773656219244 0 0 0 0
2981389432 0.23275668919086456 0.00520678237080574 0.003323609009385109 -0.004788464866578579 0 0 0 0
2985111516 0.24565404653549194 -0.01979169249534607 0.002211345359683037 -0.005619176663458347 0 0 0 0
2988833600 0.25377941131591797 -0.041538089513778687 0.0009703943505883217 -0.005791864357888699 0 0 0 0
2992555684 0.260700523853302 -0.06334996968507767 -0.00018648337572813034 -0.005837282165884972 0 0 0 0
2996277768 0.26372087001800537 -0.08790794014930725 -0.0014871805906295776 -0.005682489834725857 0 0 0 0
2999999852 0.26433128118515015 -0.10988421738147736 -0.002896049991250038 -0.004916856996715069 0 0 0 0
