# HZ S RI R 50
1500000000 -0.10407820343971252 -0.006594501435756683 0.03877896070480347 -0.028684750199317932 0 0 0 0
1503722084 -0.08449837565422058 0.019773228093981743 0.032792385667562485 -0.03356087580323219 0 0 0 0
1507444168 -0.05733548849821091 0.043095093220472336 0.0269198939204216 -0.03714136779308319 0 0 0 0
1511166252 -0.024787668138742447 0.06021448224782944 0.021183349192142487 -0.03987930715084076 0 0 0 0
1514888336 0.009836649522185326 0.07222995162010193 0.014890857972204685 -0.04269122704863548 0 0 0 0
1518610420 0.04743817821145058 0.0782075896859169 0.007955234497785568 -0.044573139399290085 0 0 0 0
1522332504 0.08502905070781708 0.07968167960643768 0.0005985423922538757 -0.04596430063247681 0 0 0 0
1526054588 0.12515006959438324 0.07547396421432495 -0.00833926536142826 -0.04562583565711975 0 0 0 0
1529776672 0.16610902547836304 0.06557817757129669 -0.01698499731719494 -0.04214492067694664 0 0 0 0
1533498756 0.2076094001531601 0.04834020882844925 -0.0237641092389822 -0.036371227353811264 0 0 0 0
1537220840 0.2468189299106598 0.020700933411717415 -0.028238149359822273 -0.030276788398623466 0 0 0 0
1540942924 0.28020572662353516 -0.013483479619026184 -0.03145385533571243 -0.023663802072405815 0 0 0 0
1544665008 0.30951598286628723 -0.052150655537843704 -0.03319636732339859 -0.01734342984855175 0 0 0 0
1548387092 0.33159470558166504 -0.09709928184747696 -0.033673591911792755 -0.011058324947953224 0 0 0 0
1552109176 0.34580937027931213 -0.1441371887922287 -0.0329013392329216 -0.0054238224402070045 0 0 0 0
1555831260 0.35111990571022034 -0.1958339363336563 -0.031243417412042618 -0.00030467472970485687 0 0 0 0
1559553344 0.3524881601333618 -0.2436533272266388 -0.0291946642100811 0.003414875827729702 0 0 0 0
1563275428 0.34508299827575684 -0.29523688554763794 -0.027091385796666145 0.0066187214106321335 0 0 0 0
1566997512 0.3279148042201996 -0.34601813554763794 -0.024835262447595596 0.009542993269860744 0 0 0 0
1570719596 0.3033609688282013 -0.39382749795913696 -0.022368591278791428 0.01196617353707552 0 0 0 0
1574441680 0.27013099193573 -0.43474677205085754 -0.019751444458961487 0.013632658869028091 0 0 0 0
1578163764 0.23685961961746216 -0.4694294035434723 -0.017795657739043236 0.014949630945920944 0 0 0 0
1581885848 0.19565799832344055 -0.5033794045448303 -0.015796996653079987 0.016571631655097008 0 0 0 0
1585607932 0.1494075059890747 -0.5302283763885498 -0.013607220724225044 0.017977623268961906 0 0 0 0
1589330016 0.10149560868740082 -0.550795316696167 -0.011196598410606384 0.0190441757440567 0 0 0 0
1593052100 0.044399380683898926 -0.5648830533027649 -0.008993888273835182 0.019871069118380547 0 0 0 0
1596774184 -0.01014775037765503 -0.5723351240158081 -0.006750291213393211 0.020592978224158287 0 0 0 0
1600496268 -0.06667429208755493 -0.568669319152832 -0.004573888145387173 0.021413303911685944 0 0 0 0
1604218352 -0.12122797966003418 -0.5589994788169861 -0.0018038982525467873 0.02212599292397499 0 0 0 0
1607940436 -0.17497618496418 -0.5406844615936279 0.0007969057187438011 0.022684667259454727 0 0 0 0
1611662520 -0.22774522006511688 -0.5152684450149536 0.0036553097888827324 0.02319897711277008 0 0 0 0
1615384604 -0.27734610438346863 -0.4828560948371887 0.007381192408502102 0.023205742239952087 0 0 0 0
1619106688 -0.32286471128463745 -0.44170111417770386 0.011363261379301548 0.022502776235342026 0 0 0 0
1622828772 -0.3600890040397644 -0.3970010280609131 0.015338221564888954 0.021258380264043808 0 0 0 0
1626550856 -0.39426708221435547 -0.3420563340187073 0.01937357895076275 0.01860031858086586 0 0 0 0
1630272940 -0.4198342263698578 -0.2835608720779419 0.022785088047385216 0.015408760868012905 0 0 0 0
1633995024 -0.43764662742614746 -0.2227497696876526 0.025918342173099518 0.011445964686572552 0 0 0 0
1637717108 -0.44731712341308594 -0.15626047551631927 0.028390711173415184 0.006606093607842922 0 0 0 0
1641439192 -0.446566104888916 -0.08994419872760773 0.030146513134241104 0.0011744191870093346 0 0 0 0
1645161276 -0.43505778908729553 -0.021658584475517273 0.030780266970396042 -0.005410364829003811 0 0 0 0
1648883360 -0.4135999381542206 0.04528346657752991 0.029203403741121292 -0.012589354068040848 0 0 0 0
1652605444 -0.38322213292121887 0.10791753232479095 0.025097718462347984 -0.01875411719083786 0 0 0 0
1656327528 -0.344127893447876 0.1661221981048584 0.020019715651869774 -0.023065034300088882 0 0 0 0
1660049612 -0.2949717044830322 0.2223050594329834 0.014655033126473427 -0.025905078276991844 0 0 0 0
1663771696 -0.23729661107063293 0.2700342833995819 0.008883707225322723 -0.027913030236959457 0 0 0 0
1667493780 -0.1698337197303772 0.3094857931137085 0.002555304206907749 -0.028622206300497055 0 0 0 0
1671215864 -0.09681951254606247 0.3373720049858093 -0.003609416075050831 -0.02771729789674282 0 0 0 0
1674937948 -0.018341705203056335 0.35359954833984375 -0.009412208572030067 -0.024815138429403305 0 0 0 0
1678660032 0.06053898483514786 0.3575335443019867 -0.013765288516879082 -0.02088305726647377 0 0 0 0
1682382116 0.13740131258964539 0.34932440519332886 -0.016374634578824043 -0.016387056559324265 0 0 0 0
1686104200 0.21788468956947327 0.32869938015937805 -0.017828309908509254 -0.01165018230676651 0 0 0 0
1689826284 0.2930509150028229 0.29413890838623047 -0.01790478266775608 -0.007397817447781563 0 0 0 0
1693548368 0.3609108626842499 0.25092196464538574 -0.01720154471695423 -0.004096868447959423 0 0 0 0
1697270452 0.419895738363266 0.19581927359104156 -0.016327382996678352 -0.0012551043182611465 0 0 0 0
1700992536 0.47085341811180115 0.1305903196334839 -0.01505930908024311 0.001313513144850731 0 0 0 0
1704714620 0.5103130340576172 0.05751281976699829 -0.013546528294682503 0.003481912426650524 0 0 0 0
1708436704 0.53647381067276 -0.01684209704399109 -0.011865091510117054 0.005150932818651199 0 0 0 0
1712158788 0.5523175001144409 -0.09200164675712585 -0.009990961290895939 0.006230083294212818 0 0 0 0
1715880872 0.5564573407173157 -0.17027321457862854 -0.008044421672821045 0.006892385892570019 0 0 0 0
1719602956 0.5469018816947937 -0.2500132918357849 -0.006419534794986248 0.0070498427376151085 0 0 0 0
1723325040 0.5251036882400513 -0.3262729346752167 -0.005287187173962593 0.007127545773983002 0 0 0 0
1727047124 0.4951789975166321 -0.39473095536231995 -0.004072953946888447 0.007119353860616684 0 0 0 0
1730769208 0.4542568325996399 -0.4591708481311798 -0.002764367498457432 0.007003280334174633 0 0 0 0
1734491292 0.40226033329963684 -0.5164126753807068 -0.0018015960231423378 0.006270069628953934 0 0 0 0
1738213376 0.344046413898468 -0.5638583898544312 -0.0013716816902160645 0.005653565749526024 0 0 0 0
1741935460 0.27934730052948 -0.6015508770942688 -0.0014317873865365982 0.005217709578573704 0 0 0 0
1745657544 0.21459800004959106 -0.6272526979446411 -0.001578490249812603 0.005376090295612812 0 0 0 0
1749379628 0.14452368021011353 -0.6439767479896545 -0.0016119414940476418 0.00607325229793787 0 0 0 0
1753101712 0.06922951340675354 -0.6504495143890381 -0.0008896440267562866 0.006839827634394169 0 0 0 0
1756823796 5.747377872467041e-05 -0.6462933421134949 0.00016901735216379166 0.007353884167969227 0 0 0 0
1760545880 -0.0694538950920105 -0.6278846859931946 0.0014345832169055939 0.0073862019926309586 0 0 0 0
1764267964 -0.13326838612556458 -0.602763295173645 0.0025306809693574905 0.00717428233474493 0 0 0 0
1767990048 -0.19302354753017426 -0.5682010054588318 0.003806176595389843 0.006706432439386845 0 0 0 0
1771712132 -0.24165454506874084 -0.5260555744171143 0.004572838544845581 0.005662178620696068 0 0 0 0
1775434216 -0.2882518172264099 -0.47414442896842957 0.004969884641468525 0.0047008562833070755 0 0 0 0
1779156300 -0.32441040873527527 -0.4192919433116913 0.005188130773603916 0.003685201518237591 0 0 0 0
1782878384 -0.35033267736434937 -0.3615274131298065 0.004892510361969471 0.002867075614631176 0 0 0 0
1786600468 -0.3688945174217224 -0.30144500732421875 0.004324990324676037 0.0026070866733789444 0 0 0 0
1790322552 -0.3772083520889282 -0.2377510517835617 0.004015270620584488 0.0029827402904629707 0 0 0 0
1794044636 -0.37665653228759766 -0.17481262981891632 0.004241210408508778 0.003277929499745369 0 0 0 0
1797766720 -0.36573219299316406 -0.11346088349819183 0.004684635438024998 0.0034419717267155647 0 0 0 0
1801488804 -0.3465232849121094 -0.053347960114479065 0.00514077115803957 0.003894250839948654 0 0 0 0
1805210888 -0.318848580121994 0.0011089295148849487 0.0062017180025577545 0.00459408201277256 0 0 0 0
1808932972 -0.28451213240623474 0.048877838999032974 0.008240160532295704 0.00509183295071125 0 0 0 0
1812655056 -0.24142438173294067 0.09159903228282928 0.011183541268110275 0.0043814536184072495 0 0 0 0
1816377140 -0.1937040239572525 0.12594790756702423 0.013826750218868256 0.0020159119740128517 0 0 0 0
1820099224 -0.14069461822509766 0.1520555019378662 0.01568986475467682 -0.0015100138261914253 0 0 0 0
1823821308 -0.08642299473285675 0.1678285002708435 0.016135044395923615 -0.006164273247122765 0 0 0 0
1827543392 -0.032282907515764236 0.1746247112751007 0.014624141156673431 -0.010077668353915215 0 0 0 0
1831265476 0.02141951024532318 0.17384091019630432 0.012122150510549545 -0.01343044638633728 0 0 0 0
1834987560 0.07228695601224899 0.16435636579990387 0.008913149125874043 -0.015632685273885727 0 0 0 0
1838709644 0.11941102892160416 0.14870798587799072 0.005465785041451454 -0.017007648944854736 0 0 0 0
1842431728 0.1636732965707779 0.12741655111312866 0.0023864172399044037 -0.01764996349811554 0 0 0 0
1846153812 0.2034597396850586 0.0991978794336319 -0.0006840135902166367 -0.017550691962242126 0 0 0 0
1849875896 0.23785008490085602 0.06692276895046234 -0.0034328391775488853 -0.017272833734750748 0 0 0 0
1853597980 0.2667491137981415 0.02831932157278061 -0.0062836334109306335 -0.016558479517698288 0 0 0 0
1857320064 0.2878614366054535 -0.011578135192394257 -0.00899287685751915 -0.015274671837687492 0 0 0 0
1861042148 0.3012099266052246 -0.05529916286468506 -0.011054245755076408 -0.013859685510396957 0 0 0 0
1864764232 0.30796393752098083 -0.09688080847263336 -0.013133671134710312 -0.012575631961226463 0 0 0 0
1868486316 0.3075316548347473 -0.14139112830162048 -0.01560540497303009 -0.010829031467437744 0 0 0 0
1872208400 0.29920488595962524 -0.18325702846050262 -0.017871305346488953 -0.008372357115149498 0 0 0 0
1875930484 0.2872326374053955 -0.22079497575759888 -0.01983884535729885 -0.007115192711353302 0 0 0 0
1879652568 0.2659147083759308 -0.2554686367511749 -0.021041786298155785 -0.0033757248893380165 0 0 0 0
1883374652 0.2387569397687912 -0.2863302230834961 -0.02179379016160965 0.00045185815542936325 0 0 0 0
1887096736 0.21300438046455383 -0.3082602024078369 -0.021788781508803368 0.004274341277778149 0 0 0 0
1890818820 0.18290549516677856 -0.32592809200286865 -0.02105840854346752 0.008042912930250168 0 0 0 0
1894540904 0.152579203248024 -0.3377857804298401 -0.0199087206274271 0.011613807640969753 0 0 0 0
1898262988 0.12020234763622284 -0.3444252610206604 -0.018037904053926468 0.015203566290438175 0 0 0 0
1901985072 0.08643381297588348 -0.3466219902038574 -0.015325985848903656 0.018592888489365578 0 0 0 0
1905707156 0.054005369544029236 -0.34482651948928833 -0.01210557296872139 0.021566320210695267 0 0 0 0
1909429240 0.024801351130008698 -0.3355109393596649 -0.008253240026533604 0.024302469566464424 0 0 0 0
1913151324 -0.003082275390625 -0.32168450951576233 -0.0032791364938020706 0.02611994929611683 0 0 0 0
1916873408 -0.028853897005319595 -0.3034408688545227 0.0025151437148451805 0.026542630046606064 0 0 0 0
1920595492 -0.04679236561059952 -0.28236788511276245 0.007470828481018543 0.02538089081645012 0 0 0 0
1924317576 -0.06374155730009079 -0.25793489813804626 0.012049416080117226 0.023473726585507393 0 0 0 0
1928039660 -0.07653503119945526 -0.23202404379844666 0.016497811302542686 0.020889392122626305 0 0 0 0
1931761744 -0.08217615634202957 -0.20425119996070862 0.020970851182937622 0.017333190888166428 0 0 0 0
1935483828 -0.08324716240167618 -0.17697741091251373 0.02434520795941353 0.012357745319604874 0 0 0 0
1939205912 -0.08091676235198975 -0.15070362389087677 0.025998370721936226 0.006526255048811436 0 0 0 0
1942927996 -0.07414903491735458 -0.12374155968427658 0.026234600692987442 0.0005659135058522224 0 0 0 0
1946650080 -0.06330415606498718 -0.09827978909015656 0.025172939524054527 -0.005147733725607395 0 0 0 0
1950372164 -0.04603499174118042 -0.0757201686501503 0.02266627922654152 -0.009913817048072815 0 0 0 0
1954094248 -0.025351110845804214 -0.056860990822315216 0.01908539980649948 -0.01402905024588108 0 0 0 0
1957816332 -0.0026394929736852646 -0.04257878661155701 0.015368171967566013 -0.016580214723944664 0 0 0 0
1961538416 0.022923283278942108 -0.03329360857605934 0.011360572651028633 -0.017877964302897453 0 0 0 0
1965260500 0.04893362149596214 -0.027667947113513947 0.007749538868665695 -0.018455496057868004 0 0 0 0
1968982584 0.07541530579328537 -0.028073377907276154 0.005053918808698654 -0.018330490216612816 0 0 0 0
1972704668 0.10245765745639801 -0.03251189738512039 0.0029688114300370216 -0.01833425462245941 0 0 0 0
1976426752 0.12750834226608276 -0.04285603389143944 0.0011612903326749802 -0.018507419154047966 0 0 0 0
1980148836 0.1501425802707672 -0.05696140229701996 -0.0010183854028582573 -0.019358567893505096 0 0 0 0
1983870920 0.16945157945156097 -0.07619356364011765 -0.00425077136605978 -0.020208725705742836 0 0 0 0
1987593004 0.1836809366941452 -0.09896525740623474 -0.008185395039618015 -0.020092766731977463 0 0 0 0
1991315088 0.19354893267154694 -0.12272213399410248 -0.012394683435559273 -0.018912773579359055 0 0 0 0
1995037172 0.1985013633966446 -0.14736804366111755 -0.0159470122307539 -0.01684970036149025 0 0 0 0
1998759256 0.19976834952831268 -0.1720726490020752 -0.019179143011569977 -0.013561232015490532 0 0 0 0
2002481340 0.19581693410873413 -0.1979455202817917 -0.02145986445248127 -0.009956197813153267 0 0 0 0
2006203424 0.18829350173473358 -0.22023926675319672 -0.022931309416890144 -0.006050903350114822 0 0 0 0
2009925508 0.17671723663806915 -0.24297989904880524 -0.02420862391591072 -0.0024463925510644913 0 0 0 0
2013647592 0.15956935286521912 -0.262020081281662 -0.024491729214787483 0.002312175929546356 0 0 0 0
2017369676 0.14018209278583527 -0.2784123122692108 -0.024073002859950066 0.006811833009123802 0 0 0 0
2021091760 0.11783158779144287 -0.29019325971603394 -0.02261306345462799 0.011233234778046608 0 0 0 0
2024813844 0.09381340444087982 -0.29900211095809937 -0.019960034638643265 0.015242762863636017 0 0 0 0
2028535928 0.0686718076467514 -0.30291324853897095 -0.016864309087395668 0.018246829509735107 0 0 0 0
2032258012 0.04125499725341797 -0.30094242095947266 -0.014001177623867989 0.020442666485905647 0 0 0 0
2035980096 0.015197478234767914 -0.29638543725013733 -0.010953998193144798 0.022762706503272057 0 0 0 0
2039702180 -0.008364364504814148 -0.28742361068725586 -0.007181686349213123 0.025625456124544144 0 0 0 0
2043424264 -0.03320010006427765 -0.27258747816085815 -0.001828715205192566 0.027378415688872337 0 0 0 0
2047146348 -0.05219702050089836 -0.2551895081996918 0.0040033357217907906 0.026967531070113182 0 0 0 0
2050868432 -0.0681721419095993 -0.2341444045305252 0.009176569059491158 0.02566973678767681 0 0 0 0
2054590516 -0.08341711759567261 -0.21041381359100342 0.013626649044454098 0.023088347166776657 0 0 0 0
2058312600 -0.09328801929950714 -0.18433216214179993 0.017684705555438995 0.020016862079501152 0 0 0 0
2062034684 -0.09852220118045807 -0.1577126383781433 0.020845502614974976 0.01609489694237709 0 0 0 0
2065756768 -0.10187928378582001 -0.1289319545030594 0.02329793944954872 0.011782480403780937 0 0 0 0
2069478852 -0.1004161387681961 -0.10024064779281616 0.02481887862086296 0.007161060348153114 0 0 0 0
2073200936 -0.09424138814210892 -0.06976822763681412 0.02519538253545761 0.0024712812155485153 0 0 0 0
2076923020 -0.08247304707765579 -0.039745111018419266 0.024799328297376633 -0.002110883593559265 0 0 0 0
2080645104 -0.06621412932872772 -0.011041402816772461 0.023722633719444275 -0.006617703475058079 0 0 0 0
2084367188 -0.0444626659154892 0.014899682253599167 0.0217142291367054 -0.010973084717988968 0 0 0 0
2088089272 -0.01678501069545746 0.03790397197008133 0.01857883110642433 -0.014400091022253036 0 0 0 0
2091811356 0.015582846477627754 0.0545864962041378 0.015353497117757797 -0.016967207193374634 0 0 0 0
2095533440 0.050164707005023956 0.06534558534622192 0.01175512745976448 -0.018894461914896965 0 0 0 0
2099255524 0.0859905257821083 0.06997108459472656 0.008028696291148663 -0.020027007907629013 0 0 0 0
2102977608 0.12318477034568787 0.06812682002782822 0.003841804340481758 -0.02020464465022087 0 0 0 0
2106699692 0.15827801823616028 0.061330754309892654 0.00048558879643678665 -0.019551942124962807 0 0 0 0
2110421776 0.19199630618095398 0.04795420169830322 -0.0021613603457808495 -0.018971765413880348 0 0 0 0
2114143860 0.22315528988838196 0.027512550354003906 -0.005268504843115807 -0.017958208918571472 0 0 0 0
2117865944 0.249872624874115 0.0032770559191703796 -0.00815941859036684 -0.01651381328701973 0 0 0 0
2121588028 0.2706586718559265 -0.02394765615463257 -0.010923856869339943 -0.014816893264651299 0 0 0 0
2125310112 0.28766530752182007 -0.055896319448947906 -0.013341161422431469 -0.012463368475437164 0 0 0 0
2129032196 0.2984982430934906 -0.09029451757669449 -0.015356292948126793 -0.009386236779391766 0 0 0 0
2132754280 0.30515995621681213 -0.12027783691883087 -0.016653256490826607 -0.006259542889893055 0 0 0 0
2136476364 0.3041660189628601 -0.1558559536933899 -0.017596766352653503 -0.0025339536368846893 0 0 0 0
2140198448 0.30068439245224 -0.18695035576820374 -0.01719238981604576 0.0013359850272536278 0 0 0 0
2143920532 0.289876788854599 -0.2201274335384369 -0.015504228882491589 0.005155894905328751 0 0 0 0
2147642616 0.27532145380973816 -0.2496967315673828 -0.012957468628883362 0.007327772676944733 0 0 0 0
2151364700 0.25594860315322876 -0.27474579215049744 -0.010460024699568748 0.008647989481687546 0 0 0 0
2155086784 0.23024116456508636 -0.29802513122558594 -0.008134664967656136 0.00922352820634842 0 0 0 0
2158808868 0.20646879076957703 -0.31457120180130005 -0.006557743065059185 0.009294036775827408 0 0 0 0
2162530952 0.17908838391304016 -0.32895541191101074 -0.005249612033367157 0.009274161420762539 0 0 0 0
2166253036 0.1528862714767456 -0.33598971366882324 -0.004543492570519447 0.009708553552627563 0 0 0 0
2169975120 0.1206575334072113 -0.3403862714767456 -0.003049716353416443 0.010479260236024857 0 0 0 0
2173697204 0.09249087423086166 -0.3408145010471344 -0.0011466341093182564 0.010738377459347248 0 0 0 0
2177419288 0.06352473795413971 -0.33698275685310364 0.0007029790431261063 0.010379590094089508 0 0 0 0
2181141372 0.036056406795978546 -0.3281865119934082 0.002066977322101593 0.009437298402190208 0 0 0 0
2184863456 0.011944800615310669 -0.31542572379112244 0.0028948327526450157 0.008614174090325832 0 0 0 0
2188585540 -0.014337912201881409 -0.299960732460022 0.0035233357921242714 0.008117452263832092 0 0 0 0
2192307624 -0.03784766048192978 -0.27893686294555664 0.004675639793276787 0.007886487059295177 0 0 0 0
2196029708 -0.05722609907388687 -0.2558155059814453 0.006386767141520977 0.007154235616326332 0 0 0 0
2199751792 -0.07290937751531601 -0.22944271564483643 0.007547216489911079 0.005479892715811729 0 0 0 0
2203473876 -0.08188697695732117 -0.19948548078536987 0.007815781980752945 0.003835609182715416 0 0 0 0
2207195960 -0.08655582368373871 -0.16843736171722412 0.007635046727955341 0.002387410029768944 0 0 0 0
2210918044 -0.0858454629778862 -0.1364883929491043 0.007470406591892242 0.0014427825808525085 0 0 0 0
2214640128 -0.081363745033741 -0.10501490533351898 0.007420065812766552 0.000330556184053421 0 0 0 0
2218362212 -0.06925496459007263 -0.07657691091299057 0.007163669914007187 -0.0008261268958449364 0 0 0 0
2222084296 -0.05322309955954552 -0.049782656133174896 0.006548562087118626 -0.0019351150840520859 0 0 0 0
2225806380 -0.03290857374668121 -0.02616032399237156 0.005837848410010338 -0.003044756129384041 0 0 0 0
2229528464 -0.008345674723386765 -0.0072695231065154076 0.004649655893445015 -0.0037624407559633255 0 0 0 0
2233250548 0.01841331273317337 0.006293216720223427 0.0035238806158304214 -0.003926660865545273 0 0 0 0
2236972632 0.045944925397634506 0.015280289575457573 0.0025782017037272453 -0.003822924569249153 0 0 0 0
2240694716 0.07306969165802002 0.019898947328329086 0.0019338475540280342 -0.003369465470314026 0 0 0 0
2244416800 0.10124872624874115 0.021268032491207123 0.0020476756617426872 -0.0030829990282654762 0 0 0 0
2248138884 0.13011902570724487 0.01618674397468567 0.002306915819644928 -0.003310916945338249 0 0 0 0
2251860968 0.15894149243831635 0.0075346119701862335 0.0026945630088448524 -0.0046274857595562935 0 0 0 0
2255583052 0.1850808709859848 -0.006180766969919205 0.001964423805475235 -0.005792153999209404 0 0 0 0
2259305136 0.20697465538978577 -0.025522381067276 0.0005911746993660927 -0.006475362926721573 0 0 0 0
2263027220 0.22510385513305664 -0.047966763377189636 -0.0003664623945951462 -0.006508549675345421 0 0 0 0
2266749304 0.23913875222206116 -0.07213083654642105 -0.0011105472221970558 -0.006676141172647476 0 0 0 0
2270471388 0.24356065690517426 -0.1075729951262474 -0.0022356202825903893 -0.006833003833889961 0 0 0 0
2274193472 0.24914169311523438 -0.12562239170074463 -0.0033023012802004814 -0.006662717089056969 0 0 0 0
2277915556 0.24636155366897583 -0.15479226410388947 -0.004386070184409618 -0.006239438429474831 0 0 0 0
2281637640 0.23849374055862427 -0.180998757481575 -0.005276289768517017 -0.005751157179474831 0 0 0 0
2285359724 0.22685158252716064 -0.20455914735794067 -0.006226548925042152 -0.005315784364938736 0 0 0 0
2289081808 0.21393626928329468 -0.22329764068126678 -0.0072241490706801414 -0.004678450524806976 0 0 0 0
2292803892 0.19496604800224304 -0.24253451824188232 -0.008055347949266434 -0.003978211432695389 0 0 0 0
2296525976 0.1754845529794693 -0.25399574637413025 -0.008915319107472897 -0.0030398592352867126 0 0 0 0
2300248060 0.15393708646297455 -0.26629096269607544 -0.009748617187142372 -0.001852443441748619 0 0 0 0
2303970144 0.12941327691078186 -0.2759094834327698 -0.010516240261495113 -0.0004036584869027138 0 0 0 0
2307692228 0.10907267034053802 -0.27444764971733093 -0.010642836801707745 0.0013908641412854195 0 0 0 0
2311414312 0.07784722745418549 -0.27424857020378113 -0.01002230029553175 0.0029659513384103775 0 0 0 0
2315136396 0.05659189820289612 -0.2667429447174072 -0.00920567661523819 0.004109007306396961 0 0 0 0
2318858480 0.035445209592580795 -0.2586372494697571 -0.00851315539330244 0.00476184394210577 0 0 0 0
2322580564 0.007091991603374481 -0.24387267231941223 -0.00806488934904337 0.0055051399394869804 0 0 0 0
2326302648 -0.008936412632465363 -0.22528362274169922 -0.007556247524917126 0.006382536143064499 0 0 0 0
2330024732 -0.0256941020488739 -0.203928604722023 -0.006804713048040867 0.007109830155968666 0 0 0 0
2333746816 -0.03844809532165527 -0.17896850407123566 -0.005825855769217014 0.007921822369098663 0 0 0 0
2337468900 -0.04552800580859184 -0.15128187835216522 -0.00516877043992281 0.008579907938838005 0 0 0 0
2341190984 -0.04639202356338501 -0.12380525469779968 -0.004253805615007877 0.009655032306909561 0 0 0 0
2344913068 -0.04481984302401543 -0.09374883025884628 -0.0029388945549726486 0.01037841010838747 0 0 0 0
2348635152 -0.035171523690223694 -0.06720468401908875 -0.0011332128196954727 0.010663619264960289 0 0 0 0
2352357236 -0.02229548804461956 -0.04142723232507706 0.0005424665287137032 0.010535474866628647 0 0 0 0
2356079320 -0.004859848879277706 -0.017631419003009796 0.0018491912633180618 0.010098258033394814 0 0 0 0
2359801404 0.016499733552336693 0.0031400704756379128 0.003233375959098339 0.009702056646347046 0 0 0 0
2363523488 0.04193483665585518 0.01991043984889984 0.004699493758380413 0.009255709126591682 0 0 0 0
2367245572 0.06976760923862457 0.032235294580459595 0.006127595901489258 0.008428716100752354 0 0 0 0
2370967656 0.09934868663549423 0.04001470282673836 0.007402658462524414 0.006950957700610161 0 0 0 0
2374689740 0.13169051706790924 0.042017702013254166 0.008280308917164803 0.0049973586574196815 0 0 0 0
2378411824 0.16435782611370087 0.03772163391113281 0.008039972744882107 0.0030716555193066597 0 0 0 0
2382133908 0.1953578144311905 0.029274024069309235 0.007506758905947208 0.0017923684790730476 0 0 0 0
2385855992 0.22469784319400787 0.01299305260181427 0.007120572961866856 0.001117628999054432 0 0 0 0
2389578076 0.2503085136413574 -0.007943578064441681 0.006755733862519264 0.0005766106769442558 0 0 0 0
2393300160 0.2710355520248413 -0.03382633626461029 0.0065092239528894424 3.0084513127803802e-05 0 0 0 0
2397022244 0.28744855523109436 -0.06199149787425995 0.0066583482548594475 -0.00026847608387470245 0 0 0 0
2400744328 0.29803916811943054 -0.09589015692472458 0.007064317353069782 -0.001149635761976242 0 0 0 0
2404466412 0.30206963419914246 -0.12405943870544434 0.007086374796926975 -0.0025130780413746834 0 0 0 0
2408188496 0.30132269859313965 -0.15534844994544983 0.00648849830031395 -0.003845755010843277 0 0 0 0
2411910580 0.2952772080898285 -0.1835830807685852 0.005693743005394936 -0.0049171363934874535 0 0 0 0
2415632664 0.2864578664302826 -0.2130875140428543 0.004729533568024635 -0.006013683043420315 0 0 0 0
2419354748 0.2725895941257477 -0.23478755354881287 0.0035481583327054977 -0.006804099306464195 0 0 0 0
2423076832 0.25509530305862427 -0.25867506861686707 0.0017802705988287926 -0.007361241616308689 0 0 0 0
2426798916 0.2348218858242035 -0.27945685386657715 0.0002276962623000145 -0.0072256531566381454 0 0 0 0
2430521000 0.2129945158958435 -0.29768291115760803 -0.0012297909706830978 -0.006655077449977398 0 0 0 0
2434243084 0.19291532039642334 -0.31202808022499084 -0.002251303754746914 -0.005990658886730671 0 0 0 0
2437965168 0.1660803109407425 -0.3232118785381317 -0.003056746907532215 -0.004752246662974358 0 0 0 0
2441687252 0.13580523431301117 -0.3313402235507965 -0.0032612886279821396 -0.003658793866634369 0 0 0 0
2445409336 0.1073768213391304 -0.3345576524734497 -0.002834375947713852 -0.0029076412320137024 0 0 0 0
2449131420 0.07748840749263763 -0.33253708481788635 -0.002424519509077072 -0.0026972079649567604 0 0 0 0
2452853504 0.04906367510557175 -0.32517945766448975 -0.002293112687766552 -0.0027383435517549515 0 0 0 0
2456575588 0.02372470498085022 -0.31791025400161743 -0.0025860583409667015 -0.0029841214418411255 0 0 0 0
2460297672 -0.00570341944694519 -0.29931801557540894 -0.002938823774456978 -0.0027545178309082985 0 0 0 0
2464019756 -0.029544249176979065 -0.2789962589740753 -0.0031674327328801155 -0.0025937817990779877 0 0 0 0
2467741840 -0.049487560987472534 -0.25656917691230774 -0.003390571102499962 -0.0021449411287903786 0 0 0 0
2471463924 -0.06455916911363602 -0.23052705824375153 -0.0035325800999999046 -0.0020002005621790886 0 0 0 0
2475186008 -0.07542899250984192 -0.2019990086555481 -0.0036793509498238564 -0.0016185352578759193 0 0 0 0
2478908092 -0.08138060569763184 -0.17370373010635376 -0.004470529966056347 -0.0013674814254045486 0 0 0 0
2482630176 -0.08343660086393356 -0.14463965594768524 -0.003603460267186165 -0.0011590830981731415 0 0 0 0
2486352260 -0.08101058006286621 -0.11666832864284515 -0.0036777397617697716 -0.000980493612587452 0 0 0 0
2490074344 -0.07424960285425186 -0.08998671919107437 -0.003793553449213505 -0.0009531574323773384 0 0 0 0
2493796428 -0.065142422914505 -0.06451725214719772 -0.0041142236441373825 -0.0009739603847265244 0 0 0 0
2497518512 -0.05295689031481743 -0.04078136757016182 -0.004512574523687363 -0.0006469236686825752 0 0 0 0
2501240596 -0.037271156907081604 -0.019107287749648094 -0.0049650175496935844 -0.0004487251862883568 0 0 0 0
2504962680 -0.019102759659290314 0.001672954298555851 -0.00536094605922699 5.976296961307526e-06 0 0 0 0
2508684764 0.0032651852816343307 0.020256925374269485 -0.005650474689900875 0.0006673485040664673 0 0 0 0
2512406848 0.027990419417619705 0.034518949687480927 -0.006046263501048088 0.0014362195506691933 0 0 0 0
2516128932 0.05646540969610214 0.04400472715497017 -0.0064980629831552505 0.002360772341489792 0 0 0 0
2519851016 0.08537924289703369 0.04928620904684067 -0.006603915244340897 0.0036980416625738144 0 0 0 0
2523573100 0.11526628583669662 0.0478157177567482 -0.0061076050624251366 0.0052620479837059975 0 0 0 0
2527295184 0.14308787882328033 0.04255502671003342 -0.00501707848161459 0.0061769308522343636 0 0 0 0
2531017268 0.16850566864013672 0.03092368319630623 -0.004071437753736973 0.006784321740269661 0 0 0 0
2534739352 0.1898663341999054 0.01746697723865509 -0.0032416488975286484 0.007409144192934036 0 0 0 0
2538461436 0.20956961810588837 0.0008017793297767639 -0.002054392360150814 0.00799693912267685 0 0 0 0
2542183520 0.2254699319601059 -0.01712651364505291 -0.0006350334733724594 0.008369142189621925 0 0 0 0
2545905604 0.23872163891792297 -0.03706544637680054 0.0006226114928722382 0.008237779140472412 0 0 0 0
2549627688 0.24840854108333588 -0.05829571932554245 0.0014800429344177246 0.008164939470589161 0 0 0 0
2553349772 0.25655603408813477 -0.07772431522607803 0.002870100550353527 0.00810763705521822 0 0 0 0
2557071856 0.2597495913505554 -0.09947219491004944 0.0041572460904717445 0.007981544360518456 0 0 0 0
2560793940 0.2615911066532135 -0.12187661975622177 0.005816544406116009 0.007525663822889328 0 0 0 0
2564516024 0.2590871751308441 -0.14390277862548828 0.007273286581039429 0.006447874009609222 0 0 0 0
2568238108 0.2543569505214691 -0.1634209305047989 0.008651413954794407 0.005090958438813686 0 0 0 0
2571960192 0.246481254696846 -0.18345747888088226 0.00965173915028572 0.003418256528675556 0 0 0 0
2575682276 0.23720362782478333 -0.20135322213172913 0.01018321793526411 0.0016970401629805565 0 0 0 0
2579404360 0.2235046923160553 -0.2188449203968048 0.01061063539236784 -0.00018104258924722672 0 0 0 0
2583126444 0.20874859392642975 -0.23359601199626923 0.010710998438298702 -0.0022203102707862854 0 0 0 0
2586848528 0.1913478821516037 -0.24424980580806732 0.01037844829261303 -0.0043357862159609795 0 0 0 0
2590570612 0.17459800839424133 -0.2512853443622589 0.009444274008274078 -0.0062421634793281555 0 0 0 0
2594292696 0.15673542022705078 -0.2563132643699646 0.008267631754279137 -0.008283557370305061 0 0 0 0
2598014780 0.13957862555980682 -0.2588128447532654 0.006627826020121574 -0.009843247011303902 0 0 0 0
2601736864 0.1215888187289238 -0.25787588953971863 0.004393863491714001 -0.010929776355624199 0 0 0 0
2605458948 0.1046687439084053 -0.2555127739906311 0.002211911603808403 -0.01131941843777895 0 0 0 0
2609181032 0.08731530606746674 -0.2522399127483368 -9.909644722938538e-05 -0.011451933532953262 0 0 0 0
2612903116 0.07073919475078583 -0.24550361931324005 -0.0020857779309153557 -0.011055715382099152 0 0 0 0
2616625200 0.057183973491191864 -0.2352801263332367 -0.003851320594549179 -0.010200155898928642 0 0 0 0
2620347284 0.04664577543735504 -0.2247707098722458 -0.005041829310357571 -0.009137393906712532 0 0 0 0
2624069368 0.034497931599617004 -0.21326503157615662 -0.005962138995528221 -0.008249770849943161 0 0 0 0
2627791452 0.026346802711486816 -0.20029699802398682 -0.006874985992908478 -0.007558824494481087 0 0 0 0
2631513536 0.02148168534040451 -0.18495331704616547 -0.007924113422632217 -0.006715142168104649 0 0 0 0
2635235620 0.01707543432712555 -0.16914159059524536 -0.008603197522461414 -0.005692717619240284 0 0 0 0
2638957704 0.014850984327495098 -0.15476581454277039 -0.009497715160250664 -0.004683969542384148 0 0 0 0
2642679788 0.01883028820157051 -0.13805465400218964 -0.01056632213294506 -0.003305494785308838 0 0 0 0
2646401872 0.024081919342279434 -0.12480542063713074 -0.011315323412418365 -0.001778801903128624 0 0 0 0
2650123956 0.030455607920885086 -0.11281582713127136 -0.011520608328282833 0.000569663941860199 0 0 0 0
2653846040 0.03998900577425957 -0.10206723213195801 -0.0113594401627779 0.0024256017059087753 0 0 0 0
2657568124 0.051796458661556244 -0.09274394810199738 -0.01083979569375515 0.004377891309559345 0 0 0 0
2661290208 0.0640513151884079 -0.08768905699253082 -0.009895066730678082 0.0061394693329930305 0 0 0 0
2665012292 0.07647858560085297 -0.08537796139717102 -0.008430580608546734 0.00782446376979351 0 0 0 0
2668734376 0.08943769335746765 -0.08501266688108444 -0.006660121493041515 0.009157317690551281 0 0 0 0
2672456460 0.10258515924215317 -0.08622045814990997 -0.004826686345040798 0.00986087042838335 0 0 0 0
2676178544 0.11185097694396973 -0.09296740591526031 -0.0026029199361801147 0.010138566605746746 0 0 0 0
2679900628 0.12249349057674408 -0.09850706160068512 -0.0008645514026284218 0.009942008182406425 0 0 0 0
2683622712 0.13081973791122437 -0.10687991976737976 0.0008691214025020599 0.009530436247587204 0 0 0 0
2687344796 0.1364108771085739 -0.11814551055431366 0.0023021986708045006 0.008848156780004501 0 0 0 0
2691066880 0.14060240983963013 -0.13031713664531708 0.0037977006286382675 0.007896806113421917 0 0 0 0
2694788964 0.13992951810359955 -0.14382119476795197 0.0048880064859986305 0.006749369204044342 0 0 0 0
2698511048 0.13748928904533386 -0.1561281383037567 0.0056491149589419365 0.0056705353781580925 0 0 0 0
2702233132 0.13353586196899414 -0.16734915971755981 0.006235366687178612 0.004502503201365471 0 0 0 0
2705955216 0.1253366470336914 -0.17697694897651672 0.006817643530666828 0.0031554540619254112 0 0 0 0
2709677300 0.11462107300758362 -0.18644627928733826 0.00714617595076561 0.0018699178472161293 0 0 0 0
2713399384 0.10260231792926788 -0.19229909777641296 0.00719861127436161 0.0007284637540578842 0 0 0 0
2717121468 0.09078185260295868 -0.19540487229824066 0.007428037002682686 -0.0002840254455804825 0 0 0 0
2720843552 0.07637631148099899 -0.19856153428554535 0.007269328460097313 -0.0020177336409687996 0 0 0 0
2724565636 0.06045138090848923 -0.1977376490831375 0.006671126000583172 -0.003344177268445492 0 0 0 0
2728287720 0.04635288566350937 -0.19287410378456116 0.005819466896355152 -0.004442381672561169 0 0 0 0
2732009804 0.03301449120044708 -0.18500986695289612 0.005143460817635059 -0.005412389524281025 0 0 0 0
2735731888 0.02078068256378174 -0.1753205955028534 0.004151650704443455 -0.0064964694902300835 0 0 0 0
2739453972 0.011307386681437492 -0.1634594202041626 0.0028663193807005882 -0.007319946773350239 0 0 0 0
2743176056 0.0015096496790647507 -0.14945293962955475 0.0014303261414170265 -0.007936119101941586 0 0 0 0
2746898140 -0.004886168986558914 -0.1344355195760727 -5.517341196537018e-05 -0.008356142789125443 0 0 0 0
2750620224 -0.009533308446407318 -0.11721618473529816 -0.0019107190892100334 -0.008541173301637173 0 0 0 0
2754342308 -0.010973446071147919 -0.09826704859733582 -0.0040301429107785225 -0.007991134189069271 0 0 0 0
2758064392 -0.007776026614010334 -0.07953042536973953 -0.005946356803178787 -0.006536008790135384 0 0 0 0
2761786476 -0.0008402718231081963 -0.06120840460062027 -0.0069791292771697044 -0.004848522134125233 0 0 0 0
2765508560 0.008793056942522526 -0.044119250029325485 -0.007691903971135616 -0.0029360083863139153 0 0 0 0
2769230644 0.020661525428295135 -0.028945662081241608 -0.007817779667675495 -0.0010266192257404327 0 0 0 0
2772952728 0.034869417548179626 -0.01551745180040598 -0.007369535975158215 0.000746571458876133 0 0 0 0
2776674812 0.051363617181777954 -0.004336390644311905 -0.00673171691596508 0.002205398865044117 0 0 0 0
2780396896 0.07018043100833893 0.005887503735721111 -0.005761943757534027 0.0035414723679423332 0 0 0 0
2784118980 0.09176718443632126 0.013138197362422943 -0.004435271956026554 0.004684964194893837 0 0 0 0
2787841064 0.11441890895366669 0.01580851525068283 -0.0029256315901875496 0.005264433100819588 0 0 0 0
2791563148 0.13805116713047028 0.01282862201333046 -0.001214589923620224 0.0054075149819254875 0 0 0 0
2795285232 0.16192659735679626 0.0075223855674266815 0.00016692839562892914 0.005065641365945339 0 0 0 0
2799007316 0.18482860922813416 -0.0009284541010856628 0.0014706067740917206 0.0043741194531321526 0 0 0 0
2802729400 0.20552480220794678 -0.015239827334880829 0.0023025311529636383 0.003396608866751194 0 0 0 0
2806451484 0.22313007712364197 -0.032350748777389526 0.002591910772025585 0.0025321869179606438 0 0 0 0
2810173568 0.23845520615577698 -0.049615900963544846 0.002684534527361393 0.0018610619008541107 0 0 0 0
2813895652 0.25177550315856934 -0.07167361676692963 0.002887011505663395 0.0013976022601127625 0 0 0 0
2817617736 0.2618353068828583 -0.09617768228054047 0.0033738771453499794 0.0008149072527885437 0 0 0 0
2821339820 0.26757532358169556 -0.12234441936016083 0.0034485450014472008 -0.00020617805421352386 0 0 0 0
2825061904 0.26787441968917847 -0.1488686352968216 0.003004143014550209 -0.0010098377242684364 0 0 0 0
2828783988 0.2675609290599823 -0.17455607652664185 0.0026168087497353554 -0.0014352798461914062 0 0 0 0
2832506072 0.25928640365600586 -0.20387452840805054 0.0023734988644719124 -0.0017941929399967194 0 0 0 0
2836228156 0.24764201045036316 -0.2284928262233734 0.0020897677168250084 -0.0020169569179415703 0 0 0 0
2839950240 0.23529815673828125 -0.2506891191005707 0.001810351386666298 -0.002191096544265747 0 0 0 0
2843672324 0.21559053659439087 -0.2716468870639801 0.0018031354993581772 -0.002308039925992489 0 0 0 0
2847394408 0.1941377818584442 -0.29008451104164124 0.0016047907993197441 -0.002793963998556137 0 0 0 0
2851116492 0.17064602673053741 -0.3025883436203003 0.0013903966173529625 -0.0032759355381131172 0 0 0 0
2854838576 0.14652886986732483 -0.3128412365913391 0.0007489249110221863 -0.0036313915625214577 0 0 0 0
2858560660 0.12676651775836945 -0.3193597197532654 0.00035857968032360077 -0.004134891554713249 0 0 0 0
2862282744 0.09942226856946945 -0.3255840837955475 -0.00025966018438339233 -0.004206463694572449 0 0 0 0
2866004828 0.07678644359111786 -0.32590019702911377 -0.0007941173389554024 -0.004194068722426891 0 0 0 0
2869726912 0.04800110310316086 -0.32372477650642395 -0.0015363097190856934 -0.003951900638639927 0 0 0 0
2873448996 0.025314845144748688 -0.31765687465667725 -0.001988581381738186 -0.0037681665271520615 0 0 0 0
2877171080 -0.001439698040485382 -0.3104737401008606 -0.0026171840727329254 -0.0035235797986388206 0 0 0 0
2880893164 -0.02327897399663925 -0.30010077357292175 -0.0033392850309610367 -0.0031358040869235992 0 0 0 0
2884615248 -0.048722390085458755 -0.2836235463619232 -0.003969896584749222 -0.0022742701694369316 0 0 0 0
2888337332 -0.06689316779375076 -0.2658495008945465 -0.004244483076035976 -0.0015057101845741272 0 0 0 0
2892059416 -0.08460482209920883 -0.24525350332260132 -0.004343223758041859 -0.0005003474652767181 0 0 0 0
2895781500 -0.09775999188423157 -0.22318166494369507 -0.004205472767353058 0.0003786543384194374 0 0 0 0
2899503584 -0.10920915007591248 -0.1973622888326645 -0.004001827910542488 0.0011917026713490486 0 0 0 0
2903225668 -0.11776399612426758 -0.1710718423128128 -0.00366057176142931 0.0020409459248185158 0 0 0 0
2906947752 -0.1193545013666153 -0.14627104997634888 -0.0030941618606448174 0.002847393974661827 0 0 0 0
2910669836 -0.11991799622774124 -0.11967345327138901 -0.002341248095035553 0.0037417421117424965 0 0 0 0
2914391920 -0.11502984166145325 -0.0944676399230957 -0.0012466562911868095 0.004085456021130085 0 0 0 0
2918114004 -0.10893518477678299 -0.06998740136623383 1.9094906747341156e-05 0.004237488843500614 0 0 0 0
2921836088 -0.09963545203208923 -0.04844401776790619 0.0009581008926033974 0.003880435600876808 0 0 0 0
2925558172 -0.0880858302116394 -0.026207495480775833 0.0018012598156929016 0.0034177256748080254 0 0 0 0
2929280256 -0.07458952814340591 -0.007100338116288185 0.0022441381588578224 0.002930445596575737 0 0 0 0
2933002340 -0.058812886476516724 0.010014232248067856 0.0025603091344237328 0.0025115730240941048 0 0 0 0
2936724424 -0.0415644496679306 0.024940645322203636 0.003073830157518387 0.0021111005917191505 0 0 0 0
2940446508 -0.022902656346559525 0.03826971724629402 0.0034920265898108482 0.0014919126406311989 0 0 0 0
2944168592 -0.002124291844666004 0.04977552965283394 0.0036549847573041916 0.000873291864991188 0 0 0 0
2947890676 0.018861649557948112 0.05838276073336601 0.0037610558792948723 0.00034987926483154297 0 0 0 0
2951612760 0.042680032551288605 0.06511678546667099 0.0038500959053635597 -2.968776971101761e-05 0 0 0 0
2955334844 0.06522441655397415 0.06843182444572449 0.0040029194205999374 -0.00020307209342718124 0 0 0 0
2959056928 0.08825881779193878 0.06965891271829605 0.004295719787478447 -0.0009071845561265945 0 0 0 0
2962779012 0.11161711066961288 0.06749649345874786 0.004623102024197578 -0.0015375614166259766 0 0 0 0
2966501096 0.13539890944957733 0.06156943365931511 0.004448549821972847 -0.0024864058941602707 0 0 0 0
2970223180 0.15821470320224762 0.05235004797577858 0.004177343100309372 -0.0038314806297421455 0 0 0 0
2973945264 0.17950914800167084 0.04164736717939377 0.003066089004278183 -0.0047599757090210915 0 0 0 0
2977667348 0.19922572374343872 0.02787042036652565 0.0020318813621997833 -0.005288360640406609 0 0 0 0
2981389432 0.21535366773605347 0.011595368385314941 0.0007001617923378944 -0.005291814915835857 0 0 0 0
2985111516 0.2322535365819931 -0.007381349802017212 -0.000499689020216465 -0.0051063476130366325 0 0 0 0
2988833600 0.24457859992980957 -0.027925334870815277 -0.001598629169166088 -0.004688497632741928 0 0 0 0
2992555684 0.2552729845046997 -0.046481337398290634 -0.002323342487215996 -0.003842327743768692 0 0 0 0
2996277768 0.2630877196788788 -0.06870025396347046 -0.003046768717467785 -0.003107530064880848 0 0 0 0
2999999852 0.26655927300453186 -0.09349515289068222 -0.003292165696620941 -0.0020662946626544 0 0 0 0
