# HZ S RI R 50
1500000000 -0.08061112463474274 -0.09851355105638504 0.045948825776576996 -0.021293241530656815 0 0 0 0
1503722084 -0.08242709189653397 -0.07779408991336823 0.04186027869582176 -0.027240119874477386 0 0 0 0
1507444168 -0.07921180129051208 -0.052982576191425323 0.03749743476510048 -0.03301435708999634 0 0 0 0
1511166252 -0.06857714802026749 -0.026076994836330414 0.03234994411468506 -0.03909162059426308 0 0 0 0
1514888336 -0.05044908821582794 -0.0005805753171443939 0.025178860872983932 -0.044930215924978256 0 0 0 0
1518610420 -0.025653479620814323 0.022011417895555496 0.016636259853839874 -0.049134232103824615 0 0 0 0
1522332504 0.004821177572011948 0.04083971306681633 0.007042674347758293 -0.05096503347158432 0 0 0 0
1526054588 0.04018864035606384 0.05427638813853264 -0.0032130805775523186 -0.04990381374955177 0 0 0 0
1529776672 0.08046222478151321 0.061426788568496704 -0.012247294187545776 -0.04690277576446533 0 0 0 0
1533498756 0.12529824674129486 0.059780020266771317 -0.01971587724983692 -0.04205480217933655 0 0 0 0
1537220840 0.17062263190746307 0.049128465354442596 -0.025626983493566513 -0.036024339497089386 0 0 0 0
1540942924 0.21329645812511444 0.028946682810783386 -0.02958502247929573 -0.02966928295791149 0 0 0 0
1544665008 0.2522599697113037 7.063150405883789e-06 -0.03231260925531387 -0.023107687011361122 0 0 0 0
1548387092 0.2855404317378998 -0.03696038946509361 -0.03358042612671852 -0.01691550575196743 0 0 0 0
1552109176 0.3134552240371704 -0.07691342383623123 -0.03368000313639641 -0.011328567750751972 0 0 0 0
1555831260 0.3364742696285248 -0.12157690525054932 -0.03340604156255722 -0.0068158479407429695 0 0 0 0
1559553344 0.3522123694419861 -0.1720847487449646 -0.033073630183935165 -0.0021904148161411285 0 0 0 0
1563275428 0.35762515664100647 -0.2265128791332245 -0.03201103210449219 0.0030098510906100273 0 0 0 0
1566997512 0.3526865839958191 -0.283223032951355 -0.02989400550723076 0.007860595360398293 0 0 0 0
1570719596 0.3417723476886749 -0.3362148106098175 -0.026766818016767502 0.011537929065525532 0 0 0 0
1574441680 0.31943076848983765 -0.3896048069000244 -0.023166963830590248 0.014344839379191399 0 0 0 0
1578163764 0.2882901430130005 -0.4394107460975647 -0.019780289381742477 0.016122862696647644 0 0 0 0
1581885848 0.25337013602256775 -0.4839244484901428 -0.01700388640165329 0.017161814495921135 0 0 0 0
1585607932 0.20740754902362823 -0.5225170850753784 -0.014646793715655804 0.017972830682992935 0 0 0 0
1589330016 0.15201032161712646 -0.5551763772964478 -0.011833155527710915 0.019005700945854187 0 0 0 0
1593052100 0.0954509824514389 -0.5788978934288025 -0.009581170976161957 0.019357869401574135 0 0 0 0
1596774184 0.04037642478942871 -0.5940672159194946 -0.00766016636043787 0.019923340529203415 0 0 0 0
1600496268 -0.025446228682994843 -0.5996415615081787 -0.005585403181612492 0.02064366266131401 0 0 0 0
1604218352 -0.08816106617450714 -0.5967826843261719 -0.0032754791900515556 0.021350793540477753 0 0 0 0
1607940436 -0.15116606652736664 -0.5843673944473267 -0.00046896375715732574 0.021927813068032265 0 0 0 0
1611662520 -0.21306616067886353 -0.5621565580368042 0.002488715574145317 0.02218616008758545 0 0 0 0
1615384604 -0.2706082761287689 -0.5312831997871399 0.005667205899953842 0.021931352093815804 0 0 0 0
1619106688 -0.32447299361228943 -0.4900359809398651 0.009105468168854713 0.021131861954927444 0 0 0 0
1622828772 -0.3766758143901825 -0.43779271841049194 0.012767842970788479 0.019458025693893433 0 0 0 0
1626550856 -0.41796159744262695 -0.38200801610946655 0.01577780768275261 0.017049703747034073 0 0 0 0
1630272940 -0.44947105646133423 -0.31830477714538574 0.01803525909781456 0.014346708543598652 0 0 0 0
1633995024 -0.47550851106643677 -0.24468852579593658 0.01993735507130623 0.010780938901007175 0 0 0 0
1637717108 -0.4870845079421997 -0.17141717672348022 0.021011414006352425 0.007662834599614143 0 0 0 0
1641439192 -0.4876224398612976 -0.09509941935539246 0.021825237199664116 0.004550079815089703 0 0 0 0
1645161276 -0.4763084053993225 -0.015876367688179016 0.022339588031172752 0.0009606946259737015 0 0 0 0
1648883360 -0.4513053297996521 0.05841986835002899 0.021953312680125237 -0.0027055228129029274 0 0 0 0
1652605444 -0.4151586890220642 0.12831245362758636 0.02083459496498108 -0.005824742838740349 0 0 0 0
1656327528 -0.3678267002105713 0.1951369345188141 0.019621435552835464 -0.00871286541223526 0 0 0 0
1660049612 -0.3098607659339905 0.25381535291671753 0.018255796283483505 -0.011687564663589 0 0 0 0
1663771696 -0.2441297173500061 0.30071601271629333 0.01647091656923294 -0.014769626781344414 0 0 0 0
1667493780 -0.17088933289051056 0.3393113315105438 0.013464871793985367 -0.017622578889131546 0 0 0 0
1671215864 -0.08774712681770325 0.36620548367500305 0.009708262979984283 -0.019672611728310585 0 0 0 0
1674937948 -0.007109597325325012 0.3778732120990753 0.005583113059401512 -0.020689744502305984 0 0 0 0
1678660032 0.07621435821056366 0.3769211173057556 0.0015154918655753136 -0.02025672420859337 0 0 0 0
1682382116 0.15778082609176636 0.3624359965324402 -0.0013867057859897614 -0.018934858962893486 0 0 0 0
1686104200 0.2386893928050995 0.3358098864555359 -0.0037626419216394424 -0.01775844395160675 0 0 0 0
1689826284 0.31124040484428406 0.29845958948135376 -0.005761818028986454 -0.017042983323335648 0 0 0 0
1693548368 0.3784775137901306 0.24915915727615356 -0.008467297069728374 -0.01585339941084385 0 0 0 0
1697270452 0.43508514761924744 0.19270285964012146 -0.010863196104764938 -0.013954916968941689 0 0 0 0
1700992536 0.4846911132335663 0.12449760735034943 -0.012557570822536945 -0.011560490354895592 0 0 0 0
1704714620 0.5226713418960571 0.05172176659107208 -0.013668551109731197 -0.008994056843221188 0 0 0 0
1708436704 0.5471725463867188 -0.024535775184631348 -0.014260172843933105 -0.006719229742884636 0 0 0 0
1712158788 0.5597068071365356 -0.10539527237415314 -0.014843371696770191 -0.004431508481502533 0 0 0 0
1715880872 0.5606788992881775 -0.18309426307678223 -0.01514393836259842 -0.0018392344936728477 0 0 0 0
1719602956 0.549717366695404 -0.26098331809043884 -0.014530816115438938 0.0009319242089986801 0 0 0 0
1723325040 0.5277411341667175 -0.33276212215423584 -0.013148525729775429 0.0030716555193066597 0 0 0 0
1727047124 0.4963655173778534 -0.4006394147872925 -0.011713997460901737 0.0043917084112763405 0 0 0 0
1730769208 0.45271390676498413 -0.46765610575675964 -0.010592035949230194 0.005340861156582832 0 0 0 0
1734491292 0.3976992666721344 -0.5251978039741516 -0.009506338275969028 0.006328838877379894 0 0 0 0
1738213376 0.34244731068611145 -0.5706403851509094 -0.008163032121956348 0.00746538583189249 0 0 0 0
1741935460 0.2753268778324127 -0.6087210774421692 -0.006445320323109627 0.007790862582623959 0 0 0 0
1745657544 0.2096022367477417 -0.6343239545822144 -0.004998132586479187 0.007632685825228691 0 0 0 0
1749379628 0.13817408680915833 -0.6513780355453491 -0.004193795844912529 0.0072756120935082436 0 0 0 0
1753101712 0.06479902565479279 -0.6555436849594116 -0.0036505842581391335 0.006700173951685429 0 0 0 0
1756823796 -0.007154911756515503 -0.6504169702529907 -0.003738807514309883 0.006532192230224609 0 0 0 0
1760545880 -0.07323560118675232 -0.6339570879936218 -0.0038875583559274673 0.006943258456885815 0 0 0 0
1764267964 -0.14085280895233154 -0.6064675450325012 -0.004004960879683495 0.007708004675805569 0 0 0 0
1767990048 -0.20044942200183868 -0.5690596699714661 -0.0032932665199041367 0.00873431097716093 0 0 0 0
1771712132 -0.2523084282875061 -0.5260757207870483 -0.0023847976699471474 0.009706714190542698 0 0 0 0
1775434216 -0.29860758781433105 -0.4730045795440674 -0.001214960590004921 0.010427712462842464 0 0 0 0
1779156300 -0.33183377981185913 -0.41959160566329956 0.00021439697593450546 0.010888739489018917 0 0 0 0
1782878384 -0.359125018119812 -0.3607197403907776 0.0014288509264588356 0.010786192491650581 0 0 0 0
1786600468 -0.3764089345932007 -0.2988603711128235 0.002276402898132801 0.010810812935233116 0 0 0 0
1790322552 -0.3891463577747345 -0.2299121767282486 0.003235001116991043 0.011325478553771973 0 0 0 0
1794044636 -0.3869735300540924 -0.16693741083145142 0.004883309826254845 0.01213681511580944 0 0 0 0
1797766720 -0.3758949637413025 -0.10348192602396011 0.006911388598382473 0.01218575332313776 0 0 0 0
1801488804 -0.35479724407196045 -0.04406188428401947 0.0089289965108037 0.012156041339039803 0 0 0 0
1805210888 -0.3268314003944397 0.009270187467336655 0.01150457188487053 0.011936160735785961 0 0 0 0
1808932972 -0.2897059917449951 0.06370555609464645 0.014509744010865688 0.010973935946822166 0 0 0 0
1812655056 -0.24573077261447906 0.10749004781246185 0.017343608662486076 0.00923976395279169 0 0 0 0
1816377140 -0.19364133477210999 0.14436957240104675 0.020199421793222427 0.006757041439414024 0 0 0 0
1820099224 -0.1385297328233719 0.17114433646202087 0.0229925736784935 0.003336838446557522 0 0 0 0
1823821308 -0.07804155349731445 0.18794307112693787 0.025111064314842224 -0.0015508327633142471 0 0 0 0
1827543392 -0.017729151993989944 0.19400203227996826 0.02541637420654297 -0.007256504148244858 0 0 0 0
1831265476 0.03815365582704544 0.18994146585464478 0.02446308732032776 -0.012412495911121368 0 0 0 0
1834987560 0.09303195774555206 0.1767585128545761 0.022119572386145592 -0.017821738496422768 0 0 0 0
1838709644 0.1440417617559433 0.15662483870983124 0.018141521140933037 -0.02292071282863617 0 0 0 0
1842431728 0.19005976617336273 0.13018015027046204 0.012843688018620014 -0.02623378112912178 0 0 0 0
1846153812 0.2302509993314743 0.09600356966257095 0.007738014683127403 -0.027664946392178535 0 0 0 0
1849875896 0.2632344961166382 0.05767786130309105 0.0029817894101142883 -0.028611736372113228 0 0 0 0
1853597980 0.2900592088699341 0.015282884240150452 -0.0020571425557136536 -0.028975043445825577 0 0 0 0
1857320064 0.3073950409889221 -0.033245351165533066 -0.007119995541870594 -0.028259936720132828 0 0 0 0
1861042148 0.3188374638557434 -0.07563979923725128 -0.01157999038696289 -0.026652971282601357 0 0 0 0
1864764232 0.3195025622844696 -0.12432712316513062 -0.015825388953089714 -0.024827701970934868 0 0 0 0
1868486316 0.3135733902454376 -0.16930848360061646 -0.020060226321220398 -0.02281794510781765 0 0 0 0
1872208400 0.30098390579223633 -0.2102375030517578 -0.024603981524705887 -0.01950683817267418 0 0 0 0
1875930484 0.28239428997039795 -0.24867311120033264 -0.028231007978320122 -0.015220686793327332 0 0 0 0
1879652568 0.255241334438324 -0.28287017345428467 -0.030827758833765984 -0.009497109800577164 0 0 0 0
1883374652 0.2261604368686676 -0.30868616700172424 -0.03190135955810547 -0.003825782798230648 0 0 0 0
1887096736 0.19250020384788513 -0.32932066917419434 -0.03160547465085983 0.0018528737127780914 0 0 0 0
1890818820 0.15881478786468506 -0.3420668840408325 -0.0309431292116642 0.006682001054286957 0 0 0 0
1894540904 0.12556985020637512 -0.34967732429504395 -0.030269574373960495 0.011311205103993416 0 0 0 0
1898262988 0.09041851758956909 -0.3525629937648773 -0.028815848752856255 0.016326066106557846 0 0 0 0
1901985072 0.057324863970279694 -0.3485931158065796 -0.026441993191838264 0.021380797028541565 0 0 0 0
1905707156 0.023298844695091248 -0.3384062349796295 -0.022916452959179878 0.02645806036889553 0 0 0 0
1909429240 -0.003140851855278015 -0.32489269971847534 -0.018548142164945602 0.030988387763500214 0 0 0 0
1913151324 -0.02932068705558777 -0.30608558654785156 -0.01275135949254036 0.03484882041811943 0 0 0 0
1916873408 -0.0507403202354908 -0.2835986614227295 -0.005617332644760609 0.037270981818437576 0 0 0 0
1920595492 -0.06959939002990723 -0.2573089599609375 0.0015427153557538986 0.03796626999974251 0 0 0 0
1924317576 -0.08059695363044739 -0.22896450757980347 0.008650142699480057 0.03755651041865349 0 0 0 0
1928039660 -0.08755823969841003 -0.19800931215286255 0.01648126170039177 0.03591274097561836 0 0 0 0
1931761744 -0.0873972624540329 -0.1672617495059967 0.023866206407546997 0.03269226849079132 0 0 0 0
1935483828 -0.079595185816288 -0.13824377954006195 0.030703246593475342 0.0266641303896904 0 0 0 0
1939205912 -0.06733981519937515 -0.11165700107812881 0.03489404544234276 0.019268594682216644 0 0 0 0
1942927996 -0.050810009241104126 -0.0896955206990242 0.03661442920565605 0.01151036936789751 0 0 0 0
1946650080 -0.032193269580602646 -0.0721314549446106 0.036623772233724594 0.00426530372351408 0 0 0 0
1950372164 -0.011536628007888794 -0.057793132960796356 0.03569107875227928 -0.0025695525109767914 0 0 0 0
1954094248 0.009825816377997398 -0.04628470540046692 0.034136343747377396 -0.008833748288452625 0 0 0 0
1957816332 0.034073807299137115 -0.03926093131303787 0.03198504447937012 -0.014371384866535664 0 0 0 0
1961538416 0.0581284798681736 -0.03677592799067497 0.028843939304351807 -0.019595440477132797 0 0 0 0
1965260500 0.08293367922306061 -0.03893696516752243 0.025120990350842476 -0.023583944886922836 0 0 0 0
1968982584 0.10724539309740067 -0.04475131258368492 0.02095852978527546 -0.026975151151418686 0 0 0 0
1972704668 0.12901146709918976 -0.05633639916777611 0.0163861196488142 -0.029331861063838005 0 0 0 0
1976426752 0.14742447435855865 -0.0702551007270813 0.011339802294969559 -0.03130248561501503 0 0 0 0
1980148836 0.1639733910560608 -0.08815371245145798 0.005628098733723164 -0.033124662935733795 0 0 0 0
1983870920 0.17629624903202057 -0.10879230499267578 -0.000810437835752964 -0.03429669886827469 0 0 0 0
1987593004 0.18430840969085693 -0.13039597868919373 -0.007360650226473808 -0.033314049243927 0 0 0 0
1991315088 0.1867157220840454 -0.15350496768951416 -0.013379369862377644 -0.031131764873862267 0 0 0 0
1995037172 0.18523655831813812 -0.17642027139663696 -0.01874319650232792 -0.028432218357920647 0 0 0 0
1998759256 0.18050409853458405 -0.1970636546611786 -0.023835912346839905 -0.02427605353295803 0 0 0 0
2002481340 0.17336544394493103 -0.21635864675045013 -0.027819151058793068 -0.019473381340503693 0 0 0 0
2006203424 0.16473346948623657 -0.2336011528968811 -0.030728233978152275 -0.014317777007818222 0 0 0 0
2009925508 0.14879456162452698 -0.2515813410282135 -0.0329519659280777 -0.00817958265542984 0 0 0 0
2013647592 0.13293929398059845 -0.26364341378211975 -0.034036532044410706 -0.0026102568954229355 0 0 0 0
2017369676 0.11483929306268692 -0.2749967575073242 -0.03392871841788292 0.0036489088088274 0 0 0 0
2021091760 0.09431018680334091 -0.28274261951446533 -0.032877448946237564 0.009769252501428127 0 0 0 0
2024813844 0.07055293023586273 -0.2868398427963257 -0.030402032658457756 0.015923770144581795 0 0 0 0
2028535928 0.048856377601623535 -0.2870103120803833 -0.02698606438934803 0.021171152591705322 0 0 0 0
2032258012 0.02549297735095024 -0.28323251008987427 -0.022297250106930733 0.025439508259296417 0 0 0 0
2035980096 0.005368940532207489 -0.2754650413990021 -0.016969099640846252 0.028905246406793594 0 0 0 0
2039702180 -0.012373652309179306 -0.2652937173843384 -0.01131406519562006 0.03083040565252304 0 0 0 0
2043424264 -0.03070913255214691 -0.2516621947288513 -0.005533980205655098 0.0317327044904232 0 0 0 0
2047146348 -0.04768016189336777 -0.23694711923599243 -0.00034901872277259827 0.031523145735263824 0 0 0 0
2050868432 -0.062414105981588364 -0.2181011289358139 0.004715319722890854 0.030461736023426056 0 0 0 0
2054590516 -0.07347842305898666 -0.1967378705739975 0.009061031974852085 0.02922671288251877 0 0 0 0
2058312600 -0.08335764706134796 -0.17206980288028717 0.013618427328765392 0.027446802705526352 0 0 0 0
2062034684 -0.08744478225708008 -0.1464487910270691 0.018012244254350662 0.025080565363168716 0 0 0 0
2065756768 -0.08791828900575638 -0.11978664994239807 0.02236863411962986 0.021665656939148903 0 0 0 0
2069478852 -0.08346028625965118 -0.09309861063957214 0.025747425854206085 0.017360325902700424 0 0 0 0
2073200936 -0.07507423311471939 -0.06812767684459686 0.028428826481103897 0.012406629510223866 0 0 0 0
2076923020 -0.06395170837640762 -0.04246072098612785 0.029619377106428146 0.006824083626270294 0 0 0 0
2080645104 -0.04820115864276886 -0.01967284455895424 0.02980923280119896 0.0018526660278439522 0 0 0 0
2084367188 -0.028982697054743767 0.0016485527157783508 0.029226934537291527 -0.0034289592877030373 0 0 0 0
2088089272 -0.005620356649160385 0.02058866061270237 0.027823666110634804 -0.00859321653842926 0 0 0 0
2091811356 0.0206304881721735 0.03536336123943329 0.025310738012194633 -0.013243788853287697 0 0 0 0
2095533440 0.04845939204096794 0.04714909940958023 0.02266392856836319 -0.017081402242183685 0 0 0 0
2099255524 0.07911093533039093 0.054169680923223495 0.019204800948500633 -0.020618919283151627 0 0 0 0
2102977608 0.11238202452659607 0.058045607060194016 0.015261907130479813 -0.023708190768957138 0 0 0 0
2106699692 0.14697469770908356 0.053554777055978775 0.010833268985152245 -0.025907939299941063 0 0 0 0
2110421776 0.18177568912506104 0.041717879474163055 0.0058933040127158165 -0.027606509625911713 0 0 0 0
2114143860 0.21319682896137238 0.0257205069065094 0.0003384612500667572 -0.028256313875317574 0 0 0 0
2117865944 0.24052125215530396 0.002767808735370636 -0.005024433135986328 -0.02750208228826523 0 0 0 0
2121588028 0.26322656869888306 -0.024204984307289124 -0.01023980975151062 -0.025519484654068947 0 0 0 0
2125310112 0.2794233560562134 -0.053198955953121185 -0.01460789330303669 -0.022530972957611084 0 0 0 0
2129032196 0.2908128499984741 -0.08385811746120453 -0.018435224890708923 -0.0190499946475029 0 0 0 0
2132754280 0.2973678708076477 -0.1143488958477974 -0.021146727725863457 -0.01536223292350769 0 0 0 0
2136476364 0.29959866404533386 -0.14711947739124298 -0.02338576689362526 -0.010583167895674706 0 0 0 0
2140198448 0.2959882915019989 -0.1800086349248886 -0.0242291372269392 -0.005158969201147556 0 0 0 0
2143920532 0.289203941822052 -0.21041132509708405 -0.023285740986466408 -0.0005003092810511589 0 0 0 0
2147642616 0.27566856145858765 -0.241106316447258 -0.021778753027319908 0.003179054707288742 0 0 0 0
2151364700 0.2615511417388916 -0.2667100429534912 -0.02023070491850376 0.006167873740196228 0 0 0 0
2155086784 0.2385929971933365 -0.291965126991272 -0.018560834228992462 0.00878142286092043 0 0 0 0
2158808868 0.21329836547374725 -0.3108358681201935 -0.01651880517601967 0.011189337819814682 0 0 0 0
2162530952 0.18576878309249878 -0.32612425088882446 -0.014138661324977875 0.013270219787955284 0 0 0 0
2166253036 0.15735438466072083 -0.33691805601119995 -0.01172125805169344 0.014916445128619671 0 0 0 0
2169975120 0.12871581315994263 -0.34291279315948486 -0.009512855671346188 0.016102949157357216 0 0 0 0
2173697204 0.09688982367515564 -0.34503698348999023 -0.0065273502841591835 0.016889695078134537 0 0 0 0
2177419288 0.06593849509954453 -0.34134936332702637 -0.004027438350021839 0.016923366114497185 0 0 0 0
2181141372 0.03846854716539383 -0.33318907022476196 -0.0019192639738321304 0.016757013276219368 0 0 0 0
2184863456 0.010164305567741394 -0.32056376338005066 -6.442703306674957e-05 0.017032405361533165 0 0 0 0
2188585540 -0.016258560121059418 -0.30436283349990845 0.002371682785451412 0.017398875206708908 0 0 0 0
2192307624 -0.039644330739974976 -0.28332051634788513 0.005270068533718586 0.01717759668827057 0 0 0 0
2196029708 -0.059191495180130005 -0.2589420676231384 0.008238984271883965 0.01639520563185215 0 0 0 0
2199751792 -0.07291033118963242 -0.23263320326805115 0.011302695609629154 0.015039680525660515 0 0 0 0
2203473876 -0.08294492959976196 -0.20383793115615845 0.014300914481282234 0.01253596693277359 0 0 0 0
2207195960 -0.09221766889095306 -0.17222583293914795 0.016406532377004623 0.009026863612234592 0 0 0 0
2210918044 -0.09217038750648499 -0.1415095329284668 0.01712392270565033 0.005566413514316082 0 0 0 0
2214640128 -0.08803443610668182 -0.11005964875221252 0.017067890614271164 0.0022921105846762657 0 0 0 0
2218362212 -0.08044426143169403 -0.07828501611948013 0.016545269638299942 -0.0005746511742472649 0 0 0 0
2222084296 -0.06575239449739456 -0.048304591327905655 0.015533877536654472 -0.0031429147347807884 0 0 0 0
2225806380 -0.04563961923122406 -0.020701181143522263 0.014529678970575333 -0.005044762045145035 0 0 0 0
2229528464 -0.01990373246371746 0.0031202035024762154 0.01326583418995142 -0.006886507384479046 0 0 0 0
2233250548 0.009898398071527481 0.021393515169620514 0.01208155695348978 -0.008862827904522419 0 0 0 0
2236972632 0.04157579690217972 0.03325226157903671 0.01071125641465187 -0.010610649362206459 0 0 0 0
2240694716 0.07595160603523254 0.038486406207084656 0.009097944013774395 -0.012215016409754753 0 0 0 0
2244416800 0.11033102124929428 0.038101185113191605 0.0069839563220739365 -0.013737707398831844 0 0 0 0
2248138884 0.14295098185539246 0.030586309731006622 0.004503815434873104 -0.01523315068334341 0 0 0 0
2251860968 0.17322003841400146 0.01673838496208191 0.0011405861005187035 -0.015909384936094284 0 0 0 0
2255583052 0.20078524947166443 -0.004421167075634003 -0.0021581118926405907 -0.015722250565886497 0 0 0 0
2259305136 0.2244889736175537 -0.021567463874816895 -0.005171420052647591 -0.014295096509158611 0 0 0 0
2263027220 0.2408931702375412 -0.05232232064008713 -0.007416790351271629 -0.01218700222671032 0 0 0 0
2266749304 0.25128984451293945 -0.08379631489515305 -0.008408661931753159 -0.010025382041931152 0 0 0 0
2270471388 0.25803515315055847 -0.10878489166498184 -0.00883682444691658 -0.008568482473492622 0 0 0 0
2274193472 0.2577376365661621 -0.13904094696044922 -0.00926351547241211 -0.00743496511131525 0 0 0 0
2277915556 0.25379523634910583 -0.16583149135112762 -0.009729688987135887 -0.006704565137624741 0 0 0 0
2281637640 0.24574291706085205 -0.1933496594429016 -0.010690048336982727 -0.006036041304469109 0 0 0 0
2285359724 0.2298494428396225 -0.2190769463777542 -0.011896214447915554 -0.004912673495709896 0 0 0 0
2289081808 0.2150338888168335 -0.23980611562728882 -0.013031519949436188 -0.003455338068306446 0 0 0 0
2292803892 0.19601655006408691 -0.2563380002975464 -0.013821575790643692 -0.0016221897676587105 0 0 0 0
2296525976 0.16684547066688538 -0.27247804403305054 -0.0146294254809618 0.00034648366272449493 0 0 0 0
2300248060 0.14549711346626282 -0.27933600544929504 -0.014542674645781517 0.0029057739302515984 0 0 0 0
2303970144 0.11675906181335449 -0.28685450553894043 -0.013631190173327923 0.0056523410603404045 0 0 0 0
2307692228 0.0897751897573471 -0.28481820225715637 -0.012572775594890118 0.007440701127052307 0 0 0 0
2311414312 0.06895162165164948 -0.28066426515579224 -0.011030510067939758 0.009142021648585796 0 0 0 0
2315136396 0.038643237203359604 -0.27240288257598877 -0.00943709909915924 0.010358455590903759 0 0 0 0
2318858480 0.016913965344429016 -0.26020926237106323 -0.007719114422798157 0.01110661681741476 0 0 0 0
2322580564 -0.007516533136367798 -0.24246209859848022 -0.006263713352382183 0.011584601365029812 0 0 0 0
2326302648 -0.023559480905532837 -0.21989741921424866 -0.004943635314702988 0.012260767631232738 0 0 0 0
2330024732 -0.0380588173866272 -0.19550460577011108 -0.0033177118748426437 0.012896827422082424 0 0 0 0
2333746816 -0.04964261129498482 -0.1683969348669052 -0.0012884307652711868 0.013542341068387032 0 0 0 0
2337468900 -0.05291711911559105 -0.13906489312648773 0.0005757492035627365 0.013694285415112972 0 0 0 0
2341190984 -0.05349448323249817 -0.10925158113241196 0.003325113095343113 0.013326359912753105 0 0 0 0
2344913068 -0.0455622635781765 -0.08037540316581726 0.005385637283325195 0.012310552410781384 0 0 0 0
2348635152 -0.035094935446977615 -0.05210059508681297 0.0074152350425720215 0.010377244092524052 0 0 0 0
2352357236 -0.018849890679121017 -0.026484452188014984 0.008595017716288567 0.00848971027880907 0 0 0 0
2356079320 0.0023979954421520233 -0.004207571968436241 0.009635809808969498 0.006326310336589813 0 0 0 0
2359801404 0.027637289837002754 0.013645954430103302 0.010114995762705803 0.004214265383780003 0 0 0 0
2363523488 0.05454707890748978 0.026109136641025543 0.010040209628641605 0.0016589919105172157 0 0 0 0
2367245572 0.08300581574440002 0.034273773431777954 0.009338941425085068 -0.000561349093914032 0 0 0 0
2370967656 0.11179561167955399 0.03766622766852379 0.007834401912987232 -0.002653215080499649 0 0 0 0
2374689740 0.1402139663696289 0.03687099739909172 0.0057363808155059814 -0.004010241478681564 0 0 0 0
2378411824 0.16888080537319183 0.03319377452135086 0.0032247109338641167 -0.0040338290855288506 0 0 0 0
2382133908 0.19776055216789246 0.023569457232952118 0.0014948733150959015 -0.0031796470284461975 0 0 0 0
2385855992 0.22535982728004456 0.00878337025642395 0.0007402710616588593 -0.0017274729907512665 0 0 0 0
2389578076 0.2508993446826935 -0.009704448282718658 0.0010021235793828964 -0.0006295116618275642 0 0 0 0
2393300160 0.2715851366519928 -0.034017693251371384 0.0014607524499297142 -0.00013426877558231354 0 0 0 0
2397022244 0.28814896941185 -0.060838669538497925 0.002036825753748417 -0.0003187144175171852 0 0 0 0
2400744328 0.3004462718963623 -0.08898654580116272 0.0021850410848855972 -0.0006838338449597359 0 0 0 0
2404466412 0.3051379919052124 -0.12303702533245087 0.002113847993314266 -0.0007983315736055374 0 0 0 0
2408188496 0.3065749704837799 -0.1550849974155426 0.0021616602316498756 -0.0009864205494523048 0 0 0 0
2411910580 0.3026809096336365 -0.1859550178050995 0.00208419281989336 -0.001389303244650364 0 0 0 0
2415632664 0.2916439473628998 -0.21610605716705322 0.0018191840499639511 -0.0017671575769782066 0 0 0 0
2419354748 0.2793509364128113 -0.24038928747177124 0.0014285529032349586 -0.0019632531329989433 0 0 0 0
2423076832 0.2594720125198364 -0.26761069893836975 0.0011614635586738586 -0.0019841883331537247 0 0 0 0
2426798916 0.2357276827096939 -0.2912486791610718 0.0010408228263258934 -0.0019865697249770164 0 0 0 0
2430521000 0.21316909790039062 -0.30620720982551575 0.0008589494973421097 -0.0017568105831742287 0 0 0 0
2434243084 0.18798980116844177 -0.31742414832115173 0.0005507702007889748 -0.0017392272129654884 0 0 0 0
2437965168 0.16494721174240112 -0.3282057046890259 0.0008522113785147667 -0.001489195041358471 0 0 0 0
2441687252 0.13762910664081573 -0.33480384945869446 0.0013178540393710136 -0.00160985067486763 0 0 0 0
2445409336 0.10586560517549515 -0.3392123579978943 0.0017387140542268753 -0.0021128393709659576 0 0 0 0
2449131420 0.07850975543260574 -0.33786633610725403 0.0018679415807127953 -0.0031400062143802643 0 0 0 0
2452853504 0.04970609024167061 -0.3330709934234619 0.0014029191806912422 -0.003795156255364418 0 0 0 0
2456575588 0.015673339366912842 -0.32123345136642456 0.0008569331839680672 -0.004552117548882961 0 0 0 0
2460297672 -0.010088864713907242 -0.30803853273391724 -4.7587789595127106e-05 -0.005287914536893368 0 0 0 0
2464019756 -0.03521987795829773 -0.2880134582519531 -0.0010582106187939644 -0.005546431057155132 0 0 0 0
2467741840 -0.05892162770032883 -0.26411858201026917 -0.0019280863925814629 -0.005586189217865467 0 0 0 0
2471463924 -0.07727669179439545 -0.2371319681406021 -0.0027683712542057037 -0.005497857928276062 0 0 0 0
2475186008 -0.09134763479232788 -0.20599277317523956 -0.003811628557741642 -0.005355909466743469 0 0 0 0
2478908092 -0.09933450818061829 -0.172316774725914 -0.004860782064497471 -0.004970072768628597 0 0 0 0
2482630176 -0.10087037086486816 -0.1390545517206192 -0.005702415481209755 -0.004369167611002922 0 0 0 0
2486352260 -0.09746428579092026 -0.10549728572368622 -0.006269427016377449 -0.0035440856590867043 0 0 0 0
2490074344 -0.0891696885228157 -0.07276631891727448 -0.007112203165888786 -0.0027752863243222237 0 0 0 0
2493796428 -0.07432116568088531 -0.04496650770306587 -0.00753446202725172 -0.0019315704703330994 0 0 0 0
2497518512 -0.057419516146183014 -0.018908530473709106 -0.008123635314404964 -0.001010737381875515 0 0 0 0
2501240596 -0.03553341329097748 0.0038055945187807083 -0.008429424837231636 0.00043799541890621185 0 0 0 0
2504962680 -0.011418617330491543 0.02366592548787594 -0.008555169217288494 0.001550372689962387 0 0 0 0
2508684764 0.01585901342332363 0.03895053267478943 -0.008470268920063972 0.002798893488943577 0 0 0 0
2512406848 0.04479244351387024 0.04922418296337128 -0.008200926706194878 0.004189621657133102 0 0 0 0
2516128932 0.07461316883563995 0.05508130416274071 -0.0075696054846048355 0.005631324835121632 0 0 0 0
2519851016 0.10473492741584778 0.056211311370134354 -0.006483177654445171 0.007256723940372467 0 0 0 0
2523573100 0.13375568389892578 0.051583707332611084 -0.004779350943863392 0.008120610378682613 0 0 0 0
2527295184 0.1624993532896042 0.04288581386208534 -0.003220507875084877 0.008260058239102364 0 0 0 0
2531017268 0.18861894309520721 0.03197520971298218 -0.00206184946000576 0.008148477412760258 0 0 0 0
2534739352 0.212080180644989 0.012860827147960663 -0.0008610794320702553 0.008109030313789845 0 0 0 0
2538461436 0.23206762969493866 -0.008074432611465454 0.00036488939076662064 0.007921624928712845 0 0 0 0
2542183520 0.24655933678150177 -0.03103787451982498 0.0014079473912715912 0.007594220340251923 0 0 0 0
2545905604 0.2571187913417816 -0.055741533637046814 0.002322087064385414 0.007119746878743172 0 0 0 0
2549627688 0.26331016421318054 -0.08337689191102982 0.003214755095541477 0.0066374968737363815 0 0 0 0
2553349772 0.26463592052459717 -0.10688944905996323 0.003928200341761112 0.006087330169975758 0 0 0 0
2557071856 0.2620489001274109 -0.13208162784576416 0.004766174592077732 0.005545292980968952 0 0 0 0
2560793940 0.25607791543006897 -0.1529397815465927 0.005470709875226021 0.004496919922530651 0 0 0 0
2564516024 0.24462313950061798 -0.17501871287822723 0.006131775677204132 0.003625001758337021 0 0 0 0
2568238108 0.23481664061546326 -0.1901002824306488 0.006572251208126545 0.002983374521136284 0 0 0 0
2571960192 0.22153760492801666 -0.2022358626127243 0.007050530053675175 0.0021794578060507774 0 0 0 0
2575682276 0.20847353339195251 -0.21523872017860413 0.007532747462391853 0.0010059438645839691 0 0 0 0
2579404360 0.19233451783657074 -0.22483015060424805 0.007814357057213783 -0.00029579922556877136 0 0 0 0
2583126444 0.1772083342075348 -0.23281683027744293 0.007847568951547146 -0.0017236452549695969 0 0 0 0
2586848528 0.1590878665447235 -0.23728466033935547 0.007538970559835434 -0.003233344294130802 0 0 0 0
2590570612 0.14590267837047577 -0.23920390009880066 0.006992322392761707 -0.004782180301845074 0 0 0 0
2594292696 0.1299019604921341 -0.2398155927658081 0.005984196439385414 -0.006038726307451725 0 0 0 0
2598014780 0.11544443666934967 -0.23815055191516876 0.004745384678244591 -0.006885627284646034 0 0 0 0
2601736864 0.10321590304374695 -0.23396937549114227 0.0032885922119021416 -0.0075326235964894295 0 0 0 0
2605458948 0.0890902727842331 -0.2280329018831253 0.0019455589354038239 -0.007734071463346481 0 0 0 0
2609181032 0.07801590114831924 -0.22162936627864838 0.0007124505937099457 -0.007600194774568081 0 0 0 0
2612903116 0.06965164840221405 -0.21265378594398499 -6.0521066188812256e-05 -0.0073532769456505775 0 0 0 0
2616625200 0.05962179973721504 -0.20434407889842987 -0.0007479563355445862 -0.007059126161038876 0 0 0 0
2620347284 0.05424995720386505 -0.1935950666666031 -0.0010117096826434135 -0.007284634746611118 0 0 0 0
2624069368 0.049537524580955505 -0.18247689306735992 -0.0017469972372055054 -0.007641071453690529 0 0 0 0
2627791452 0.04620677977800369 -0.17270231246948242 -0.0024968869984149933 -0.007761489599943161 0 0 0 0
2631513536 0.04591384530067444 -0.16277296841144562 -0.003752274438738823 -0.007688252255320549 0 0 0 0
2635235620 0.04676305130124092 -0.15261958539485931 -0.004591596312820911 -0.007582485675811768 0 0 0 0
2638957704 0.04604879394173622 -0.1443052440881729 -0.005878811702132225 -0.007336333394050598 0 0 0 0
2642679788 0.05245906487107277 -0.1325288563966751 -0.007203654386103153 -0.006818847730755806 0 0 0 0
2646401872 0.05779224634170532 -0.12490970641374588 -0.008603861555457115 -0.0062844837084412575 0 0 0 0
2650123956 0.06456846743822098 -0.1184435710310936 -0.010242436081171036 -0.005183269269764423 0 0 0 0
2653846040 0.07299818098545074 -0.11446180939674377 -0.011893510818481445 -0.0036451946943998337 0 0 0 0
2657568124 0.08128243684768677 -0.11357933282852173 -0.013097453862428665 -0.001166539266705513 0 0 0 0
2661290208 0.09050104767084122 -0.1133599579334259 -0.013574439100921154 0.0014112712815403938 0 0 0 0
2665012292 0.0966358408331871 -0.11696985363960266 -0.01322229579091072 0.004263179376721382 0 0 0 0
2668734376 0.10325087606906891 -0.11954540014266968 -0.012006591074168682 0.006943364627659321 0 0 0 0
2672456460 0.10728992521762848 -0.12577688694000244 -0.010284312069416046 0.00930329691618681 0 0 0 0
2676178544 0.11033753305673599 -0.1306728720664978 -0.008200478740036488 0.010992025956511497 0 0 0 0
2679900628 0.11203700304031372 -0.13585913181304932 -0.005614207126200199 0.012377928011119366 0 0 0 0
2683622712 0.11297642439603806 -0.1405269205570221 -0.002930103801190853 0.013148256577551365 0 0 0 0
2687344796 0.11354109644889832 -0.14653846621513367 -2.2431835532188416e-05 0.01312958262860775 0 0 0 0
2691066880 0.11304429918527603 -0.15261806547641754 0.0024157529696822166 0.01259623747318983 0 0 0 0
2694788964 0.10992763936519623 -0.15849068760871887 0.004882724955677986 0.011143462732434273 0 0 0 0
2698511048 0.10671941936016083 -0.16478076577186584 0.006707285530865192 0.00949868094176054 0 0 0 0
2702233132 0.10108619928359985 -0.17023184895515442 0.008021216839551926 0.007900793105363846 0 0 0 0
2705955216 0.09668543934822083 -0.1740546077489853 0.009037536568939686 0.006289258599281311 0 0 0 0
2709677300 0.08641590923070908 -0.17888928949832916 0.009804888628423214 0.0044851647689938545 0 0 0 0
2713399384 0.07637780159711838 -0.18211334943771362 0.010539831593632698 0.002408183179795742 0 0 0 0
2717121468 0.06512570381164551 -0.18234801292419434 0.010737622156739235 0.0003742380067706108 0 0 0 0
2720843552 0.05575927346944809 -0.18052512407302856 0.01057470217347145 -0.0019005481153726578 0 0 0 0
2724565636 0.04337087646126747 -0.17631012201309204 0.01009160466492176 -0.00380496121942997 0 0 0 0
2728287720 0.03424502909183502 -0.16908451914787292 0.008922804147005081 -0.005594152957201004 0 0 0 0
2732009804 0.024822339415550232 -0.1601991504430771 0.007588825188577175 -0.007307618856430054 0 0 0 0
2735731888 0.015361219644546509 -0.1495421677827835 0.006064244545996189 -0.008589663542807102 0 0 0 0
2739453972 0.010547079145908356 -0.1381341814994812 0.004577907733619213 -0.009771935641765594 0 0 0 0
2743176056 0.005493471398949623 -0.12393079698085785 0.0023515094071626663 -0.010403229855000973 0 0 0 0
2746898140 0.002911131829023361 -0.10911986231803894 0.000317281112074852 -0.010713733732700348 0 0 0 0
2750620224 0.0032886741682887077 -0.0941387414932251 -0.0018042521551251411 -0.010592306032776833 0 0 0 0
2754342308 0.005941096693277359 -0.07825592905282974 -0.004046918824315071 -0.010085182264447212 0 0 0 0
2758064392 0.01213335432112217 -0.06305857002735138 -0.006151254288852215 -0.008872123435139656 0 0 0 0
2761786476 0.021680455654859543 -0.048495642840862274 -0.00764565821737051 -0.007257822901010513 0 0 0 0
2765508560 0.03344801813364029 -0.03602493554353714 -0.008830930106341839 -0.0053749606013298035 0 0 0 0
2769230644 0.046504177153110504 -0.025627411901950836 -0.009323504753410816 -0.003277774900197983 0 0 0 0
2772952728 0.061082981526851654 -0.017633937299251556 -0.009442075155675411 -0.0011845063418149948 0 0 0 0
2776674812 0.0765770673751831 -0.010849511250853539 -0.009088502265512943 0.0006701992824673653 0 0 0 0
2780396896 0.09362638741731644 -0.007083866745233536 -0.008540160953998566 0.0023658862337470055 0 0 0 0
2784118980 0.11143109947443008 -0.0035993941128253937 -0.007769948802888393 0.003977440297603607 0 0 0 0
2787841064 0.13022489845752716 -0.004030691459774971 -0.0065872641280293465 0.005507844500243664 0 0 0 0
2791563148 0.149165540933609 -0.008028708398342133 -0.004852871410548687 0.006865742616355419 0 0 0 0
2795285232 0.16736674308776855 -0.01479572057723999 -0.0027213944122195244 0.007480982691049576 0 0 0 0
2799007316 0.18487665057182312 -0.02535022795200348 -0.0004580477252602577 0.007438234053552151 0 0 0 0
2802729400 0.20147386193275452 -0.03946144878864288 0.0011708196252584457 0.006612440571188927 0 0 0 0
2806451484 0.2162448912858963 -0.05342203378677368 0.0024509206414222717 0.0055002085864543915 0 0 0 0
2810173568 0.2263830453157425 -0.07171359658241272 0.0031839655712246895 0.004465451464056969 0 0 0 0
2813895652 0.23699714243412018 -0.08828145265579224 0.003668283112347126 0.0035973424091935158 0 0 0 0
2817617736 0.24372272193431854 -0.10716591030359268 0.0039052311331033707 0.0025133714079856873 0 0 0 0
2821339820 0.24627453088760376 -0.13137856125831604 0.004071621224284172 0.0016512749716639519 0 0 0 0
2825061904 0.24765928089618683 -0.15185663104057312 0.003954245708882809 0.0009992606937885284 0 0 0 0
2828783988 0.2449154257774353 -0.17297561466693878 0.0038887718692421913 0.000614912249147892 0 0 0 0
2832506072 0.24260389804840088 -0.19106382131576538 0.004094896838068962 -2.2742897272109985e-06 0 0 0 0
2836228156 0.23452582955360413 -0.21436898410320282 0.004067949950695038 -0.0007952824234962463 0 0 0 0
2839950240 0.22149929404258728 -0.235458105802536 0.0038296766579151154 -0.001294041983783245 0 0 0 0
2843672324 0.2093743234872818 -0.25411683320999146 0.0036273952573537827 -0.0018094005063176155 0 0 0 0
2847394408 0.19153979420661926 -0.27163225412368774 0.003506273031234741 -0.0021934323012828827 0 0 0 0
2851116492 0.17104516923427582 -0.2882007360458374 0.0033437050879001617 -0.0028599565848708153 0 0 0 0
2854838576 0.1525806337594986 -0.29963916540145874 0.0032071955502033234 -0.003720272332429886 0 0 0 0
2858560660 0.13661760091781616 -0.3080538511276245 0.0027887076139450073 -0.0047138528898358345 0 0 0 0
2862282744 0.1059853807091713 -0.3161543905735016 0.0018057683482766151 -0.005579420365393162 0 0 0 0
2866004828 0.08544256538152695 -0.31995177268981934 0.0006258571520447731 -0.005905395373702049 0 0 0 0
2869726912 0.06356970965862274 -0.3183320164680481 -0.0005927141755819321 -0.005754469893872738 0 0 0 0
2873448996 0.03366200625896454 -0.31612566113471985 -0.001687922514975071 -0.005483582615852356 0 0 0 0
2877171080 0.00796663761138916 -0.30864423513412476 -0.002613280899822712 -0.004899832420051098 0 0 0 0
2880893164 -0.012370962649583817 -0.300002783536911 -0.0032332921400666237 -0.004064794629812241 0 0 0 0
2884615248 -0.0378805473446846 -0.28699710965156555 -0.0037387721240520477 -0.003096267580986023 0 0 0 0
2888337332 -0.05195828527212143 -0.27284809947013855 -0.0038931546732783318 -0.002492787316441536 0 0 0 0
2892059416 -0.0729614794254303 -0.2539557218551636 -0.003944037482142448 -0.0017892774194478989 0 0 0 0
2895781500 -0.09120471775531769 -0.23231367766857147 -0.0040944041684269905 -0.0011029690504074097 0 0 0 0
2899503584 -0.10364516079425812 -0.21014413237571716 -0.004105484113097191 -0.00036104582250118256 0 0 0 0
2903225668 -0.11414620280265808 -0.18565616011619568 -0.004094737581908703 0.0004105987027287483 0 0 0 0
2906947752 -0.1209653839468956 -0.15975412726402283 -0.003786880522966385 0.0012339688837528229 0 0 0 0
2910669836 -0.12270976603031158 -0.1341320425271988 -0.0033160243183374405 0.0021817144006490707 0 0 0 0
2914391920 -0.12332423776388168 -0.10669732838869095 -0.0025677932426333427 0.002776816487312317 0 0 0 0
2918114004 -0.11915759742259979 -0.08010321110486984 -0.001678241416811943 0.0031909439712762833 0 0 0 0
2921836088 -0.1117623895406723 -0.05559782311320305 -0.0007741209119558334 0.0031744884327054024 0 0 0 0
2925558172 -0.10213159024715424 -0.030559269711375237 4.614517092704773e-05 0.0031010014936327934 0 0 0 0
2929280256 -0.0884917825460434 -0.007679220288991928 0.0006882147863507271 0.0028072241693735123 0 0 0 0
2933002340 -0.07229642570018768 0.01288428995758295 0.0010070959106087685 0.002707473933696747 0 0 0 0
2936724424 -0.05249955505132675 0.032091863453388214 0.0014168666675686836 0.0024382853880524635 0 0 0 0
2940446508 -0.031891025602817535 0.04717065393924713 0.0018481798470020294 0.002370263449847698 0 0 0 0
2944168592 -0.008638214319944382 0.06009088084101677 0.0022609559819102287 0.002009730786085129 0 0 0 0
2947890676 0.014911768957972527 0.07041478902101517 0.0027628066018223763 0.0018234066665172577 0 0 0 0
2951612760 0.04094614461064339 0.07670912146568298 0.0032919375225901604 0.00136601272970438 0 0 0 0
2955334844 0.06696465611457825 0.08043597638607025 0.0037084734067320824 0.0008531631901860237 0 0 0 0
2959056928 0.09400196373462677 0.08053770661354065 0.003931031562387943 9.038764983415604e-05 0 0 0 0
2962779012 0.12133156508207321 0.07414475083351135 0.004230894148349762 -0.0006046220660209656 0 0 0 0
2966501096 0.1454814374446869 0.06780269742012024 0.0043010348454117775 -0.0014814240857958794 0 0 0 0
2970223180 0.16925297677516937 0.05521903932094574 0.004108645021915436 -0.0026445379480719566 0 0 0 0
2973945264 0.19031067192554474 0.04202055186033249 0.003384518437087536 -0.0033768918365240097 0 0 0 0
2977667348 0.20984026789665222 0.024792775511741638 0.0027222130447626114 -0.0040388647466897964 0 0 0 0
2981389432 0.22638651728630066 0.004749126732349396 0.001819501630961895 -0.004306330345571041 0 0 0 0
2985111516 0.23973169922828674 -0.014587245881557465 0.0009988006204366684 -0.004543251357972622 0 0 0 0
2988833600 0.25002679228782654 -0.03778262063860893 7.204525172710419e-05 -0.004692914895713329 0 0 0 0
2992555684 0.2565995752811432 -0.061470113694667816 -0.0011900635436177254 -0.004556675441563129 0 0 0 0
2996277768 0.2617614269256592 -0.08163568377494812 -0.0021638665348291397 -0.004105140455067158 0 0 0 0
2999999852 0.2635756731033325 -0.1038011983036995 -0.0031002257019281387 -0.0031500179320573807 0 0 0 0
