# HZ S RI R 50
1500000000 -0.08872605860233307 -0.10241429507732391 0.04696328192949295 -0.025059062987565994 0 0 0 0
1503722084 -0.0907701700925827 -0.07764482498168945 0.04160347953438759 -0.031864430755376816 0 0 0 0
1507444168 -0.08621831238269806 -0.049920424818992615 0.03573589771986008 -0.037507135421037674 0 0 0 0
1511166252 -0.07337282598018646 -0.021169956773519516 0.029535992071032524 -0.04261907562613487 0 0 0 0
1514888336 -0.05297490581870079 0.004832683131098747 0.021495085209608078 -0.047402866184711456 0 0 0 0
1518610420 -0.02677609585225582 0.027182698249816895 0.012348945252597332 -0.05043714866042137 0 0 0 0
1522332504 0.004817649722099304 0.04550669342279434 0.001958131790161133 -0.05109766870737076 0 0 0 0
1526054588 0.041526392102241516 0.05911046639084816 -0.007685532793402672 -0.049003396183252335 0 0 0 0
1529776672 0.08322328329086304 0.0658964067697525 -0.01593300886452198 -0.0444505512714386 0 0 0 0
1533498756 0.12938137352466583 0.06347019970417023 -0.022275350987911224 -0.03873569518327713 0 0 0 0
1537220840 0.17623543739318848 0.05123041197657585 -0.026968393474817276 -0.03284566104412079 0 0 0 0
1540942924 0.2200336903333664 0.028622880578041077 -0.030263449996709824 -0.026540083810687065 0 0 0 0
1544665008 0.258531779050827 -0.0030014310032129288 -0.03237078711390495 -0.02036944404244423 0 0 0 0
1548387092 0.2901771664619446 -0.040972620248794556 -0.033016104251146317 -0.014159044250845909 0 0 0 0
1552109176 0.3147428631782532 -0.08322834223508835 -0.03235886991024017 -0.008635018020868301 0 0 0 0
1555831260 0.33511045575141907 -0.12687081098556519 -0.031237304210662842 -0.004747194238007069 0 0 0 0
1559553344 0.3480042815208435 -0.17725703120231628 -0.030752841383218765 -0.0008435631170868874 0 0 0 0
1563275428 0.3529396057128906 -0.2295210212469101 -0.029762664809823036 0.003486895002424717 0 0 0 0
1566997512 0.3498781621456146 -0.28346505761146545 -0.027640972286462784 0.00783490389585495 0 0 0 0
1570719596 0.33727332949638367 -0.3371095061302185 -0.024979427456855774 0.010942780412733555 0 0 0 0
1574441680 0.3147563934326172 -0.390517920255661 -0.021869035437703133 0.013538598082959652 0 0 0 0
1578163764 0.2882425785064697 -0.4356890022754669 -0.01890488713979721 0.015083827078342438 0 0 0 0
1581885848 0.24879984557628632 -0.48215746879577637 -0.01611342839896679 0.016398156061768532 0 0 0 0
1585607932 0.20254752039909363 -0.5194661021232605 -0.013639550656080246 0.01714886724948883 0 0 0 0
1589330016 0.15289294719696045 -0.5505886077880859 -0.01111622154712677 0.01780812442302704 0 0 0 0
1593052100 0.09867855906486511 -0.5740309953689575 -0.009153703227639198 0.01804920844733715 0 0 0 0
1596774184 0.04005875065922737 -0.5901665687561035 -0.007290235720574856 0.01834842376410961 0 0 0 0
1600496268 -0.022214174270629883 -0.596576452255249 -0.005819885991513729 0.018870068714022636 0 0 0 0
1604218352 -0.08303457498550415 -0.5964570045471191 -0.0038534896448254585 0.019667046144604683 0 0 0 0
1607940436 -0.14326845109462738 -0.5849165916442871 -0.0016833776608109474 0.02038981020450592 0 0 0 0
1611662520 -0.2074955701828003 -0.5637163519859314 0.0008367421105504036 0.021123915910720825 0 0 0 0
1615384604 -0.2695580720901489 -0.5327594876289368 0.003967374563217163 0.021627170965075493 0 0 0 0
1619106688 -0.32360655069351196 -0.4925484359264374 0.007486865855753422 0.021360842511057854 0 0 0 0
1622828772 -0.37421926856040955 -0.4437677562236786 0.011067180894315243 0.020421912893652916 0 0 0 0
1626550856 -0.4163975715637207 -0.3855147957801819 0.014462746679782867 0.01845911145210266 0 0 0 0
1630272940 -0.4502224922180176 -0.3196614682674408 0.017631344497203827 0.015902521088719368 0 0 0 0
1633995024 -0.4752711057662964 -0.2483719289302826 0.020237406715750694 0.01256268285214901 0 0 0 0
1637717108 -0.4879221022129059 -0.1734708547592163 0.02195822447538376 0.008988168090581894 0 0 0 0
1641439192 -0.4893052577972412 -0.09866875410079956 0.023121647536754608 0.005355754867196083 0 0 0 0
1645161276 -0.47855764627456665 -0.017704255878925323 0.02382035180926323 0.0013200370594859123 0 0 0 0
1648883360 -0.4541051983833313 0.05712665617465973 0.023559780791401863 -0.002549579367041588 0 0 0 0
1652605444 -0.41885384917259216 0.1287270188331604 0.022938326001167297 -0.006244112737476826 0 0 0 0
1656327528 -0.3715789020061493 0.19599302113056183 0.021724022924900055 -0.010376807302236557 0 0 0 0
1660049612 -0.3129727244377136 0.25451895594596863 0.019731035456061363 -0.014323529787361622 0 0 0 0
1663771696 -0.24564111232757568 0.30356281995773315 0.01686086878180504 -0.01799752376973629 0 0 0 0
1667493780 -0.170646533370018 0.34267938137054443 0.012451368384063244 -0.020976118743419647 0 0 0 0
1671215864 -0.09062588214874268 0.3680562674999237 0.007796920835971832 -0.022378958761692047 0 0 0 0
1674937948 -0.004718884825706482 0.3804715871810913 0.0029661431908607483 -0.022630546241998672 0 0 0 0
1678660032 0.07875224947929382 0.37855663895606995 -0.0013841642066836357 -0.021454835310578346 0 0 0 0
1682382116 0.16121983528137207 0.36380186676979065 -0.004735550843179226 -0.019526192918419838 0 0 0 0
1686104200 0.23963473737239838 0.335726261138916 -0.006978169083595276 -0.01735624670982361 0 0 0 0
1689826284 0.31327325105667114 0.2959103584289551 -0.008993754163384438 -0.015401066280901432 0 0 0 0
1693548368 0.37892985343933105 0.24677549302577972 -0.010735425166785717 -0.013261537067592144 0 0 0 0
1697270452 0.43525430560112 0.1908215582370758 -0.012164408341050148 -0.01097158994525671 0 0 0 0
1700992536 0.48421820998191833 0.12184661626815796 -0.013196469284594059 -0.008351827971637249 0 0 0 0
1704714620 0.5205808281898499 0.049642015248537064 -0.013537202030420303 -0.005896623246371746 0 0 0 0
1708436704 0.5441982746124268 -0.027165502309799194 -0.013493920676410198 -0.003473663702607155 0 0 0 0
1712158788 0.5577692985534668 -0.10377714037895203 -0.013035651296377182 -0.0013871416449546814 0 0 0 0
1715880872 0.5583822727203369 -0.18363794684410095 -0.012282183393836021 0.0005524763837456703 0 0 0 0
1719602956 0.545610785484314 -0.2612086236476898 -0.011185046285390854 0.0023772679269313812 0 0 0 0
1723325040 0.5251449346542358 -0.3332464396953583 -0.00991230271756649 0.00369301438331604 0 0 0 0
1727047124 0.49287572503089905 -0.4019082486629486 -0.00862668827176094 0.004585277289152145 0 0 0 0
1730769208 0.45110663771629333 -0.46485185623168945 -0.007512153126299381 0.005131014622747898 0 0 0 0
1734491292 0.3983953595161438 -0.5213662981987 -0.006369772367179394 0.005472375079989433 0 0 0 0
1738213376 0.340445339679718 -0.5676295161247253 -0.0052004652097821236 0.005938946269452572 0 0 0 0
1741935460 0.27743852138519287 -0.6060905456542969 -0.004034597426652908 0.005786077119410038 0 0 0 0
1745657544 0.20742185413837433 -0.6323627233505249 -0.0032642045989632607 0.005158143118023872 0 0 0 0
1749379628 0.137831449508667 -0.647773265838623 -0.0029670782387256622 0.0046980297192931175 0 0 0 0
1753101712 0.06530380249023438 -0.6534313559532166 -0.003089047037065029 0.004185025580227375 0 0 0 0
1756823796 -0.010175943374633789 -0.6480667591094971 -0.0037165628746151924 0.0039045317098498344 0 0 0 0
1760545880 -0.07065586745738983 -0.6315648555755615 -0.004542903043329716 0.004469811916351318 0 0 0 0
1764267964 -0.1403755098581314 -0.6048521399497986 -0.004905341193079948 0.005597337149083614 0 0 0 0
1767990048 -0.1930345594882965 -0.568476140499115 -0.004865654744207859 0.007158560678362846 0 0 0 0
1771712132 -0.24770329892635345 -0.526645302772522 -0.0041393619030714035 0.008874654769897461 0 0 0 0
1775434216 -0.2924991250038147 -0.47700855135917664 -0.002925705164670944 0.010347236879169941 0 0 0 0
1779156300 -0.3303086757659912 -0.4198198616504669 -0.0009231921285390854 0.01145725417882204 0 0 0 0
1782878384 -0.35622990131378174 -0.36299028992652893 0.0009911824017763138 0.011854107491672039 0 0 0 0
1786600468 -0.3757275640964508 -0.30174532532691956 0.002702300436794758 0.011762375943362713 0 0 0 0
1790322552 -0.38644319772720337 -0.23622073233127594 0.004246577620506287 0.011568320915102959 0 0 0 0
1794044636 -0.38746732473373413 -0.1723979264497757 0.005883052013814449 0.011393530294299126 0 0 0 0
1797766720 -0.3780113458633423 -0.106275275349617 0.007224433124065399 0.011146372184157372 0 0 0 0
1801488804 -0.35882917046546936 -0.0470123291015625 0.009133927524089813 0.011340871453285217 0 0 0 0
1805210888 -0.33056098222732544 0.007394030690193176 0.011683309450745583 0.011036496609449387 0 0 0 0
1808932972 -0.29460084438323975 0.060078904032707214 0.014511646702885628 0.009730144403874874 0 0 0 0
1812655056 -0.25069043040275574 0.10568510740995407 0.01708660088479519 0.0074742622673511505 0 0 0 0
1816377140 -0.19960589706897736 0.14333830773830414 0.018953990191221237 0.005004303529858589 0 0 0 0
1820099224 -0.1435983031988144 0.17188005149364471 0.020757324993610382 0.0021514100953936577 0 0 0 0
1823821308 -0.08425818383693695 0.18992501497268677 0.022541845217347145 -0.0015144171193242073 0 0 0 0
1827543392 -0.024324320256710052 0.19705139100551605 0.023138917982578278 -0.0059640128165483475 0 0 0 0
1831265476 0.033423811197280884 0.1941077709197998 0.023077629506587982 -0.010764497332274914 0 0 0 0
1834987560 0.08862672746181488 0.18220971524715424 0.021681446582078934 -0.015944771468639374 0 0 0 0
1838709644 0.14154699444770813 0.16229939460754395 0.01825825497508049 -0.020925916731357574 0 0 0 0
1842431728 0.1891373097896576 0.13592460751533508 0.01338725071400404 -0.02434150129556656 0 0 0 0
1846153812 0.2298997938632965 0.10323773324489594 0.009186831302940845 -0.025698920711874962 0 0 0 0
1849875896 0.2650855779647827 0.0629071295261383 0.005337554030120373 -0.026854228228330612 0 0 0 0
1853597980 0.2919939160346985 0.021360982209444046 0.0010434528812766075 -0.027863141149282455 0 0 0 0
1857320064 0.31019824743270874 -0.028775863349437714 -0.0037517324090003967 -0.027988042682409286 0 0 0 0
1861042148 0.3211350440979004 -0.07550695538520813 -0.00844317115843296 -0.027578620240092278 0 0 0 0
1864764232 0.3234987258911133 -0.12160412967205048 -0.012938781641423702 -0.026468291878700256 0 0 0 0
1868486316 0.31646454334259033 -0.1691446602344513 -0.01793930120766163 -0.02474047616124153 0 0 0 0
1872208400 0.3046095371246338 -0.2096482664346695 -0.02299371175467968 -0.02170467935502529 0 0 0 0
1875930484 0.281886488199234 -0.24942810833454132 -0.02934018336236477 -0.016927672550082207 0 0 0 0
1879652568 0.25369325280189514 -0.28509321808815 -0.03256114572286606 -0.01078791357576847 0 0 0 0
1883374652 0.22629475593566895 -0.30929842591285706 -0.033977244049310684 -0.0042954497039318085 0 0 0 0
1887096736 0.18995149433612823 -0.3303499221801758 -0.03347426652908325 0.0024023698642849922 0 0 0 0
1890818820 0.1579393446445465 -0.34263962507247925 -0.031853534281253815 0.007081665098667145 0 0 0 0
1894540904 0.12252087146043777 -0.350480318069458 -0.030250757932662964 0.011849583126604557 0 0 0 0
1898262988 0.088663250207901 -0.3519883453845978 -0.028733571991324425 0.016035791486501694 0 0 0 0
1901985072 0.0552738755941391 -0.3478836119174957 -0.026794910430908203 0.020687829703092575 0 0 0 0
1905707156 0.022307395935058594 -0.3388981223106384 -0.023845583200454712 0.025674808770418167 0 0 0 0
1909429240 -0.006610054522752762 -0.32321009039878845 -0.019758975133299828 0.03050004132091999 0 0 0 0
1913151324 -0.03389135003089905 -0.3033931851387024 -0.013979116454720497 0.034791119396686554 0 0 0 0
1916873408 -0.05286107212305069 -0.2807551622390747 -0.007452373392879963 0.037775032222270966 0 0 0 0
1920595492 -0.07082255184650421 -0.25414711236953735 -0.00017304904758930206 0.03944035992026329 0 0 0 0
1924317576 -0.08104876428842545 -0.22548972070217133 0.007629274390637875 0.0398128367960453 0 0 0 0
1928039660 -0.08533117920160294 -0.1957816481590271 0.015970628708600998 0.03868994116783142 0 0 0 0
1931761744 -0.08657317608594894 -0.16397079825401306 0.02504771761596203 0.03465024754405022 0 0 0 0
1935483828 -0.07732747495174408 -0.13546477258205414 0.03235751390457153 0.02773682028055191 0 0 0 0
1939205912 -0.06445032358169556 -0.11039317399263382 0.03647320345044136 0.019607406109571457 0 0 0 0
1942927996 -0.04894005134701729 -0.08877743780612946 0.03804533928632736 0.010829363949596882 0 0 0 0
1946650080 -0.03098488226532936 -0.07197839766740799 0.037772148847579956 0.003251464106142521 0 0 0 0
1950372164 -0.01034839078783989 -0.05759463459253311 0.03664737567305565 -0.0029459837824106216 0 0 0 0
1954094248 0.01128442957997322 -0.047009699046611786 0.03492613509297371 -0.00906510278582573 0 0 0 0
1957816332 0.03512291982769966 -0.039822086691856384 0.03212941065430641 -0.015166770666837692 0 0 0 0
1961538416 0.05914662033319473 -0.03777298703789711 0.028132470324635506 -0.020154103636741638 0 0 0 0
1965260500 0.08351670205593109 -0.039021335542201996 0.023890215903520584 -0.023902714252471924 0 0 0 0
1968982584 0.10707464069128036 -0.0464567169547081 0.01902320608496666 -0.02727366052567959 0 0 0 0
1972704668 0.12992572784423828 -0.05615098401904106 0.01453881710767746 -0.029747916385531425 0 0 0 0
1976426752 0.14841309189796448 -0.071134552359581 0.009538251906633377 -0.03195958584547043 0 0 0 0
1980148836 0.16474908590316772 -0.08963882923126221 0.003885396756231785 -0.03391256183385849 0 0 0 0
1983870920 0.1771458089351654 -0.10911794006824493 -0.0026554930955171585 -0.03435695171356201 0 0 0 0
1987593004 0.18364298343658447 -0.13135656714439392 -0.009058468043804169 -0.03298381343483925 0 0 0 0
1991315088 0.1868591606616974 -0.15312977135181427 -0.014917848631739616 -0.030636988580226898 0 0 0 0
1995037172 0.186223104596138 -0.17514291405677795 -0.01993354968726635 -0.027692798525094986 0 0 0 0
1998759256 0.1807706505060196 -0.1974438577890396 -0.025084931403398514 -0.02292666956782341 0 0 0 0
2002481340 0.17300871014595032 -0.21585200726985931 -0.028777925297617912 -0.017959721386432648 0 0 0 0
2006203424 0.16141963005065918 -0.23312905430793762 -0.03103082999587059 -0.012336773797869682 0 0 0 0
2009925508 0.14885661005973816 -0.2483614683151245 -0.03236611932516098 -0.006708765402436256 0 0 0 0
2013647592 0.13085205852985382 -0.2633671462535858 -0.03286302462220192 -0.0004450026899576187 0 0 0 0
2017369676 0.11414434760808945 -0.27290910482406616 -0.03248905763030052 0.005117954686284065 0 0 0 0
2021091760 0.09693002700805664 -0.2808544635772705 -0.030529780313372612 0.010856841690838337 0 0 0 0
2024813844 0.07582759112119675 -0.2855212092399597 -0.028029516339302063 0.01593819446861744 0 0 0 0
2028535928 0.051528822630643845 -0.28754863142967224 -0.024592194706201553 0.020343130454421043 0 0 0 0
2032258012 0.02969203144311905 -0.2859666347503662 -0.020387673750519753 0.024083128198981285 0 0 0 0
2035980096 0.009657688438892365 -0.27863869071006775 -0.015630638226866722 0.026756327599287033 0 0 0 0
2039702180 -0.012085717171430588 -0.2701641023159027 -0.010123347863554955 0.02851736731827259 0 0 0 0
2043424264 -0.03320609778165817 -0.25699394941329956 -0.005320362746715546 0.029063962399959564 0 0 0 0
2047146348 -0.051304273307323456 -0.24029237031936646 -0.0009756926447153091 0.029144203290343285 0 0 0 0
2050868432 -0.0671750158071518 -0.21908175945281982 0.0031164633110165596 0.02863525040447712 0 0 0 0
2054590516 -0.0785413533449173 -0.19557872414588928 0.007168100215494633 0.027982762083411217 0 0 0 0
2058312600 -0.08597567677497864 -0.16988499462604523 0.010887734591960907 0.026913385838270187 0 0 0 0
2062034684 -0.08922216296195984 -0.14256902039051056 0.015507484786212444 0.025255989283323288 0 0 0 0
2065756768 -0.08744027465581894 -0.11640764772891998 0.019712338224053383 0.02279764786362648 0 0 0 0
2069478852 -0.08215111494064331 -0.0896291583776474 0.023712093010544777 0.019316699355840683 0 0 0 0
2073200936 -0.07256019860506058 -0.06540688127279282 0.026839978992938995 0.014993615448474884 0 0 0 0
2076923020 -0.060646094381809235 -0.04256628826260567 0.029536277055740356 0.010014940053224564 0 0 0 0
2080645104 -0.04579740762710571 -0.01998145505785942 0.031020965427160263 0.004366368055343628 0 0 0 0
2084367188 -0.02752652019262314 0.00047192536294460297 0.030941192060709 -0.0014236317947506905 0 0 0 0
2088089272 -0.005503981374204159 0.01842339336872101 0.029776033014059067 -0.007031646557152271 0 0 0 0
2091811356 0.020397605374455452 0.03402336314320564 0.027353014796972275 -0.01235657837241888 0 0 0 0
2095533440 0.04854036867618561 0.045522160828113556 0.024219272658228874 -0.016674980521202087 0 0 0 0
2099255524 0.07922624796628952 0.052410516887903214 0.02011546865105629 -0.020229097455739975 0 0 0 0
2102977608 0.11152145266532898 0.05510514974594116 0.016096560284495354 -0.022993071004748344 0 0 0 0
2106699692 0.14538677036762238 0.05235234275460243 0.012070992961525917 -0.024863718077540398 0 0 0 0
2110421776 0.17901113629341125 0.04270214959979057 0.007347016595304012 -0.02687813714146614 0 0 0 0
2114143860 0.21181246638298035 0.025911390781402588 0.0022622793912887573 -0.027592768892645836 0 0 0 0
2117865944 0.24032026529312134 0.0033845677971839905 -0.0030696457251906395 -0.02716798335313797 0 0 0 0
2121588028 0.263295441865921 -0.0231940820813179 -0.007861200720071793 -0.025801142677664757 0 0 0 0
2125310112 0.28007832169532776 -0.05347511172294617 -0.012627048417925835 -0.023390915244817734 0 0 0 0
2129032196 0.29142504930496216 -0.08483926206827164 -0.01641811989247799 -0.020482582971453667 0 0 0 0
2132754280 0.29745209217071533 -0.1162591278553009 -0.019680004566907883 -0.016666339710354805 0 0 0 0
2136476364 0.29929807782173157 -0.14898581802845 -0.022300975397229195 -0.01218109019100666 0 0 0 0
2140198448 0.2962530255317688 -0.18142686784267426 -0.023646540939807892 -0.006776639260351658 0 0 0 0
2143920532 0.28807491064071655 -0.21142518520355225 -0.02285078354179859 -0.0020984867587685585 0 0 0 0
2147642616 0.27446916699409485 -0.24199232459068298 -0.021377697587013245 0.0012582503259181976 0 0 0 0
2151364700 0.2592134177684784 -0.266099750995636 -0.020272184163331985 0.0037884730845689774 0 0 0 0
2155086784 0.2377733290195465 -0.2889971435070038 -0.019451018422842026 0.006363061256706715 0 0 0 0
2158808868 0.21215546131134033 -0.30810460448265076 -0.017929112538695335 0.00907289981842041 0 0 0 0
2162530952 0.18752619624137878 -0.3223355710506439 -0.01633302867412567 0.011502590030431747 0 0 0 0
2166253036 0.15768148005008698 -0.3338308036327362 -0.01458725705742836 0.013894597068428993 0 0 0 0
2169975120 0.12864989042282104 -0.3397250771522522 -0.012128076516091824 0.016396524384617805 0 0 0 0
2173697204 0.09891124069690704 -0.34203654527664185 -0.0089284498244524 0.01808633655309677 0 0 0 0
2177419288 0.07119673490524292 -0.3406503200531006 -0.005627555772662163 0.018939239904284477 0 0 0 0
2181141372 0.04002993181347847 -0.3338026702404022 -0.0024131862446665764 0.019051922485232353 0 0 0 0
2184863456 0.012315556406974792 -0.32140135765075684 0.00028803758323192596 0.01882118731737137 0 0 0 0
2188585540 -0.01610386371612549 -0.30517148971557617 0.0031371237710118294 0.018655138090252876 0 0 0 0
2192307624 -0.03790631517767906 -0.2843242883682251 0.005783527158200741 0.01806405931711197 0 0 0 0
2196029708 -0.055390067398548126 -0.26063162088394165 0.008374953642487526 0.017220882698893547 0 0 0 0
2199751792 -0.07417881488800049 -0.23364977538585663 0.011675224639475346 0.016001533716917038 0 0 0 0
2203473876 -0.08515214174985886 -0.20333561301231384 0.01488594152033329 0.013603664003312588 0 0 0 0
2207195960 -0.09165138751268387 -0.1724705845117569 0.01729038543999195 0.010424747131764889 0 0 0 0
2210918044 -0.09431245923042297 -0.13937270641326904 0.018635369837284088 0.006530242972075939 0 0 0 0
2214640128 -0.08847253769636154 -0.10951477289199829 0.019086232408881187 0.0027869045734405518 0 0 0 0
2218362212 -0.07860022038221359 -0.07965335994958878 0.018616879358887672 -0.0006438158452510834 0 0 0 0
2222084296 -0.06653843075037003 -0.04761176183819771 0.017397528514266014 -0.003952682949602604 0 0 0 0
2225806380 -0.04625428467988968 -0.021105635911226273 0.015873707830905914 -0.006728976033627987 0 0 0 0
2229528464 -0.020962156355381012 0.002819230780005455 0.01427051704376936 -0.008971539326012135 0 0 0 0
2233250548 0.009108501486480236 0.021310701966285706 0.012492290697991848 -0.01097949966788292 0 0 0 0
2236972632 0.04095818102359772 0.033872511237859726 0.010573135688900948 -0.012676031328737736 0 0 0 0
2240694716 0.07553476095199585 0.039025139063596725 0.007807502523064613 -0.014383786357939243 0 0 0 0
2244416800 0.11055144667625427 0.038658373057842255 0.005556186661124229 -0.015356420539319515 0 0 0 0
2248138884 0.14371635019779205 0.031799912452697754 0.0025803297758102417 -0.016244297847151756 0 0 0 0
2251860968 0.17235979437828064 0.017640046775341034 0.00024922657757997513 -0.01635013334453106 0 0 0 0
2255583052 0.19968156516551971 -0.0001761913299560547 -0.003652971237897873 -0.016012202948331833 0 0 0 0
2259305136 0.22274968028068542 -0.027592025697231293 -0.006861034780740738 -0.014222400262951851 0 0 0 0
2263027220 0.24011054635047913 -0.05283685773611069 -0.008849170058965683 -0.011663337238132954 0 0 0 0
2266749304 0.252923846244812 -0.0778345987200737 -0.009839970618486404 -0.008985891938209534 0 0 0 0
2270471388 0.2570379078388214 -0.11057381331920624 -0.009919068776071072 -0.007401440292596817 0 0 0 0
2274193472 0.2591423988342285 -0.1352604627609253 -0.010133212432265282 -0.006105655804276466 0 0 0 0
2277915556 0.25640445947647095 -0.16212743520736694 -0.010526333004236221 -0.004914148710668087 0 0 0 0
2281637640 0.2471340298652649 -0.19073541462421417 -0.010843360796570778 -0.004216944798827171 0 0 0 0
2285359724 0.23827572166919708 -0.21180109679698944 -0.011604943312704563 -0.003069991245865822 0 0 0 0
2289081808 0.22139066457748413 -0.23486100137233734 -0.011941331438720226 -0.0018388079479336739 0 0 0 0
2292803892 0.19432328641414642 -0.25907474756240845 -0.012430907227098942 -0.0004600035026669502 0 0 0 0
2296525976 0.17439846694469452 -0.2697541415691376 -0.012965784408152103 0.0013526352122426033 0 0 0 0
2300248060 0.14682064950466156 -0.28015902638435364 -0.012883096933364868 0.0035669440403580666 0 0 0 0
2303970144 0.12069918215274811 -0.2888282835483551 -0.012021095491945744 0.005827347747981548 0 0 0 0
2307692228 0.0965227484703064 -0.2845301926136017 -0.010992196388542652 0.007280300371348858 0 0 0 0
2311414312 0.06301090121269226 -0.28222882747650146 -0.009622190147638321 0.008495616726577282 0 0 0 0
2315136396 0.03861888498067856 -0.27250874042510986 -0.00829804502427578 0.009669892489910126 0 0 0 0
2318858480 0.01593272015452385 -0.260554701089859 -0.006565184332430363 0.010518288239836693 0 0 0 0
2322580564 -0.006980337202548981 -0.24219664931297302 -0.005158161744475365 0.010999538004398346 0 0 0 0
2326302648 -0.023802096024155617 -0.2203371822834015 -0.003804546780884266 0.011426746845245361 0 0 0 0
2330024732 -0.03386188670992851 -0.19691957533359528 -0.00218765065073967 0.011712789535522461 0 0 0 0
2333746816 -0.048005372285842896 -0.1689760386943817 -0.0004752613604068756 0.011906817555427551 0 0 0 0
2337468900 -0.05429863929748535 -0.13940761983394623 0.0013398798182606697 0.011583119630813599 0 0 0 0
2341190984 -0.05089176818728447 -0.11179447919130325 0.0029526129364967346 0.011130581609904766 0 0 0 0
2344913068 -0.04839985817670822 -0.08024962246417999 0.004753303714096546 0.010244796983897686 0 0 0 0
2348635152 -0.03609754890203476 -0.052963655441999435 0.006051497533917427 0.008743466809391975 0 0 0 0
2352357236 -0.020884348079562187 -0.026604656130075455 0.007063277997076511 0.007325365208089352 0 0 0 0
2356079320 0.00038598012179136276 -0.0035302620381116867 0.00764783751219511 0.0058084651827812195 0 0 0 0
2359801404 0.02569972723722458 0.01437076274305582 0.008293278515338898 0.004444412887096405 0 0 0 0
2363523488 0.05251070111989975 0.028065653517842293 0.008568849414587021 0.0026103565469384193 0 0 0 0
2367245572 0.08079354465007782 0.03721623122692108 0.008260398171842098 0.000867137685418129 0 0 0 0
2370967656 0.11011454463005066 0.0404784232378006 0.007354912348091602 -0.0007100217044353485 0 0 0 0
2374689740 0.1403191089630127 0.03950854763388634 0.006041910499334335 -0.0019300300627946854 0 0 0 0
2378411824 0.16941314935684204 0.035787347704172134 0.004562894813716412 -0.002435578964650631 0 0 0 0
2382133908 0.19836778938770294 0.027650736272335052 0.0031487075611948967 -0.002166180871427059 0 0 0 0
2385855992 0.22632798552513123 0.01162052433937788 0.0023903530091047287 -0.001776278018951416 0 0 0 0
2389578076 0.25247228145599365 -0.00800187885761261 0.0017949454486370087 -0.0014503933489322662 0 0 0 0
2393300160 0.2740549147129059 -0.03060813806951046 0.0019076289609074593 -0.0009456900879740715 0 0 0 0
2397022244 0.28999578952789307 -0.05932643264532089 0.002261771820485592 -0.0010567111894488335 0 0 0 0
2400744328 0.30303168296813965 -0.09053532034158707 0.0022741826251149178 -0.0013435790315270424 0 0 0 0
2404466412 0.30665990710258484 -0.12401760369539261 0.0024056490510702133 -0.001332838088274002 0 0 0 0
2408188496 0.30934223532676697 -0.15399734675884247 0.002670673653483391 -0.0016870135441422462 0 0 0 0
2411910580 0.3050685524940491 -0.1881115883588791 0.0026307078078389168 -0.0022438894957304 0 0 0 0
2415632664 0.2956039011478424 -0.21525105834007263 0.0022152699530124664 -0.002916056662797928 0 0 0 0
2419354748 0.27987298369407654 -0.24384987354278564 0.0014037881046533585 -0.0030225059017539024 0 0 0 0
2423076832 0.2615886628627777 -0.2694079875946045 0.0007141903042793274 -0.0028854459524154663 0 0 0 0
2426798916 0.23996645212173462 -0.2894498109817505 0.00024905893951654434 -0.0023862188681960106 0 0 0 0
2430521000 0.21538102626800537 -0.30741438269615173 -0.00011681020259857178 -0.002086404711008072 0 0 0 0
2434243084 0.19060373306274414 -0.32037028670310974 -0.000256149098277092 -0.0017363587394356728 0 0 0 0
2437965168 0.16424980759620667 -0.3296409845352173 -0.000658797100186348 -0.000976821407675743 0 0 0 0
2441687252 0.13458475470542908 -0.3362504839897156 -6.892811506986618e-05 -0.0012465361505746841 0 0 0 0
2445409336 0.1048014685511589 -0.3396686017513275 0.000542711466550827 -0.0015302570536732674 0 0 0 0
2449131420 0.07676862180233002 -0.33835768699645996 0.0008512809872627258 -0.0020847804844379425 0 0 0 0
2452853504 0.04804614931344986 -0.3335140645503998 0.0006742682307958603 -0.0025970740243792534 0 0 0 0
2456575588 0.01851513981819153 -0.3223637342453003 0.00028727296739816666 -0.0034508155658841133 0 0 0 0
2460297672 -0.010280415415763855 -0.30555641651153564 -0.0003678947687149048 -0.0037960633635520935 0 0 0 0
2464019756 -0.03540472686290741 -0.28650444746017456 -0.0009772321209311485 -0.004138217307627201 0 0 0 0
2467741840 -0.05865912884473801 -0.2633433938026428 -0.0017931433394551277 -0.00414855033159256 0 0 0 0
2471463924 -0.07808567583560944 -0.23575790226459503 -0.0024200044572353363 -0.003980631940066814 0 0 0 0
2475186008 -0.09199284017086029 -0.2044127881526947 -0.0030538858845829964 -0.004128197208046913 0 0 0 0
2478908092 -0.09806153178215027 -0.17168694734573364 -0.0037518544122576714 -0.0036583924666047096 0 0 0 0
2482630176 -0.09992809593677521 -0.13819172978401184 -0.004458964802324772 -0.0038521308451890945 0 0 0 0
2486352260 -0.09595740586519241 -0.10428452491760254 -0.005348743870854378 -0.0032181059941649437 0 0 0 0
2490074344 -0.08613250404596329 -0.07304799556732178 -0.0057691540569067 -0.0025016330182552338 0 0 0 0
2493796428 -0.07191517949104309 -0.04460415989160538 -0.005881433375179768 -0.0018303198739886284 0 0 0 0
2497518512 -0.054845113307237625 -0.018616225570440292 -0.006180272437632084 -0.001711745746433735 0 0 0 0
2501240596 -0.03348475694656372 0.0032051540911197662 -0.006751277483999729 -0.0011932868510484695 0 0 0 0
2504962680 -0.009897465817630291 0.021859673783183098 -0.007638049311935902 -0.0006470531225204468 0 0 0 0
2508684764 0.01767248846590519 0.03652103617787361 -0.00838333647698164 0.0005748076364398003 0 0 0 0
2512406848 0.04603242129087448 0.046957727521657944 -0.008871663361787796 0.0020070327445864677 0 0 0 0
2516128932 0.07453103363513947 0.05270284041762352 -0.008913491852581501 0.0037735383957624435 0 0 0 0
2519851016 0.1040034368634224 0.05428390949964523 -0.00829579308629036 0.005655735731124878 0 0 0 0
2523573100 0.13266417384147644 0.050144944339990616 -0.007090807892382145 0.0072184959426522255 0 0 0 0
2527295184 0.16058339178562164 0.04297932982444763 -0.005827874876558781 0.008190184831619263 0 0 0 0
2531017268 0.18800568580627441 0.030051343142986298 -0.004502379335463047 0.008926117792725563 0 0 0 0
2534739352 0.2114781141281128 0.014009609818458557 -0.003133169375360012 0.009511846117675304 0 0 0 0
2538461436 0.2312372326850891 -0.008644074201583862 -0.0015698932111263275 0.009839676320552826 0 0 0 0
2542183520 0.24667003750801086 -0.02903149649500847 1.162756234407425e-05 0.010014761239290237 0 0 0 0
2545905604 0.25637611746788025 -0.05703714117407799 0.0017372267320752144 0.009881624951958656 0 0 0 0
2549627688 0.2621675729751587 -0.08262999355792999 0.003463221713900566 0.009420531801879406 0 0 0 0
2553349772 0.2655642032623291 -0.10401515662670135 0.0050235530361533165 0.008804808370769024 0 0 0 0
2557071856 0.2634105980396271 -0.13253901898860931 0.006368115544319153 0.007590005174279213 0 0 0 0
2560793940 0.25675326585769653 -0.1526646614074707 0.007710427977144718 0.006045330315828323 0 0 0 0
2564516024 0.24614500999450684 -0.17349615693092346 0.008402090519666672 0.004527851939201355 0 0 0 0
2568238108 0.2357565462589264 -0.18924494087696075 0.008837168104946613 0.0029039792716503143 0 0 0 0
2571960192 0.22043472528457642 -0.2058822512626648 0.009083659388124943 0.0014381501823663712 0 0 0 0
2575682276 0.2062673717737198 -0.21742846071720123 0.009456909261643887 1.661200076341629e-05 0 0 0 0
2579404360 0.192661851644516 -0.22579807043075562 0.009495338425040245 -0.001794210635125637 0 0 0 0
2583126444 0.1763916015625 -0.23304472863674164 0.009088144637644291 -0.003656023181974888 0 0 0 0
2586848528 0.15848904848098755 -0.23905208706855774 0.008102808147668839 -0.005402024835348129 0 0 0 0
2590570612 0.14428512752056122 -0.24027913808822632 0.006806601770222187 -0.006964319385588169 0 0 0 0
2594292696 0.12712347507476807 -0.24084079265594482 0.005279336124658585 -0.008051863871514797 0 0 0 0
2598014780 0.11478659510612488 -0.23729859292507172 0.0037308279424905777 -0.008653631433844566 0 0 0 0
2601736864 0.1003875881433487 -0.2327570617198944 0.001957312226295471 -0.008924121968448162 0 0 0 0
2605458948 0.08741413056850433 -0.2283642292022705 0.00034654606133699417 -0.008795677684247494 0 0 0 0
2609181032 0.07678333669900894 -0.2208823412656784 -0.0009079314768314362 -0.008128223940730095 0 0 0 0
2612903116 0.06609687954187393 -0.2120223343372345 -0.001811126247048378 -0.0074491119012236595 0 0 0 0
2616625200 0.05770215392112732 -0.20183715224266052 -0.0023297565057873726 -0.006822704337537289 0 0 0 0
2620347284 0.05528285354375839 -0.19147728383541107 -0.002605113200843334 -0.006341986358165741 0 0 0 0
2624069368 0.04885257035493851 -0.1810978651046753 -0.0031092949211597443 -0.006208785809576511 0 0 0 0
2627791452 0.048080023378133774 -0.17144012451171875 -0.003926435485482216 -0.005946783348917961 0 0 0 0
2631513536 0.047518935054540634 -0.1623738408088684 -0.00431869737803936 -0.005623136647045612 0 0 0 0
2635235620 0.04742203652858734 -0.15246498584747314 -0.004907179623842239 -0.005584352649748325 0 0 0 0
2638957704 0.05028640851378441 -0.1417863517999649 -0.0056073833256959915 -0.005592643283307552 0 0 0 0
2642679788 0.053158003836870193 -0.1341986060142517 -0.006648956798017025 -0.00516140554100275 0 0 0 0
2646401872 0.05877707153558731 -0.12693892419338226 -0.007673075422644615 -0.004654610529541969 0 0 0 0
2650123956 0.06550557911396027 -0.12055588513612747 -0.00888061709702015 -0.0037416722625494003 0 0 0 0
2653846040 0.0742955356836319 -0.11602792143821716 -0.009900227189064026 -0.0029076961800456047 0 0 0 0
2657568124 0.08255989104509354 -0.11494970321655273 -0.01123771257698536 -0.001029863953590393 0 0 0 0
2661290208 0.09058016538619995 -0.11567293852567673 -0.011779122054576874 0.0013431273400783539 0 0 0 0
2665012292 0.09841082990169525 -0.11743046343326569 -0.011541965417563915 0.003809511661529541 0 0 0 0
2668734376 0.10263568162918091 -0.12180669605731964 -0.01043027825653553 0.006239017471671104 0 0 0 0
2672456460 0.1071673184633255 -0.12595964968204498 -0.009078122675418854 0.00777062401175499 0 0 0 0
2676178544 0.10793298482894897 -0.13175781071186066 -0.007378482259809971 0.009145704098045826 0 0 0 0
2679900628 0.10925492644309998 -0.13560450077056885 -0.005685534328222275 0.010347997769713402 0 0 0 0
2683622712 0.11045581847429276 -0.1384662687778473 -0.003737260587513447 0.011230031959712505 0 0 0 0
2687344796 0.10979267209768295 -0.14493270218372345 -0.0014541763812303543 0.011798681691288948 0 0 0 0
2691066880 0.11047406494617462 -0.14948134124279022 0.0010809600353240967 0.011508543975651264 0 0 0 0
2694788964 0.11032816022634506 -0.15565192699432373 0.0032671047374606133 0.010680349543690681 0 0 0 0
2698511048 0.10541985929012299 -0.16238729655742645 0.004869908094406128 0.00967611838132143 0 0 0 0
2702233132 0.10296913981437683 -0.16747517883777618 0.006379083730280399 0.00856214202940464 0 0 0 0
2705955216 0.0973762720823288 -0.17365896701812744 0.007786686532199383 0.007313364185392857 0 0 0 0
2709677300 0.08712445199489594 -0.17954042553901672 0.009045669808983803 0.005746409296989441 0 0 0 0
2713399384 0.07702524960041046 -0.18220052123069763 0.01013800036162138 0.003900168463587761 0 0 0 0
2717121468 0.0684298425912857 -0.18337896466255188 0.010965058580040932 0.0018527507781982422 0 0 0 0
2720843552 0.05613342672586441 -0.18175014853477478 0.011356234550476074 -0.0004253275692462921 0 0 0 0
2724565636 0.04559164494276047 -0.17649045586585999 0.010963690467178822 -0.003117273561656475 0 0 0 0
2728287720 0.034147925674915314 -0.17020878195762634 0.009999959729611874 -0.00542870070785284 0 0 0 0
2732009804 0.023952225223183632 -0.1619291603565216 0.00865140464156866 -0.007264911197125912 0 0 0 0
2735731888 0.01705993339419365 -0.15090367197990417 0.007040104828774929 -0.00889764167368412 0 0 0 0
2739453972 0.010567225515842438 -0.13859987258911133 0.005235282704234123 -0.010256358422338963 0 0 0 0
2743176056 0.00425539817661047 -0.12431182712316513 0.0030878856778144836 -0.011118946596980095 0 0 0 0
2746898140 0.0026243068277835846 -0.10911773890256882 0.0007537016645073891 -0.01170346885919571 0 0 0 0
2750620224 0.0028569139540195465 -0.09371612221002579 -0.0017540287226438522 -0.011628980748355389 0 0 0 0
2754342308 0.005826227366924286 -0.07795615494251251 -0.0043512191623449326 -0.010880019515752792 0 0 0 0
2758064392 0.012052951380610466 -0.06234107166528702 -0.006630659103393555 -0.009612907655537128 0 0 0 0
2761786476 0.02189173921942711 -0.04756338521838188 -0.00810825452208519 -0.00779128260910511 0 0 0 0
2765508560 0.03362748771905899 -0.036012083292007446 -0.009297618642449379 -0.0057299938052892685 0 0 0 0
2769230644 0.046821631491184235 -0.025495566427707672 -0.009949760511517525 -0.0034573134034872055 0 0 0 0
2772952728 0.06145031377673149 -0.017463799566030502 -0.010120032355189323 -0.00128195621073246 0 0 0 0
2776674812 0.07728341966867447 -0.011582798324525356 -0.009851121343672276 0.0006371745839715004 0 0 0 0
2780396896 0.09371156990528107 -0.006909582763910294 -0.009265542961657047 0.002461058087646961 0 0 0 0
2784118980 0.11134602874517441 -0.005279973149299622 -0.008388575166463852 0.004242745228111744 0 0 0 0
2787841064 0.13012951612472534 -0.0062551237642765045 -0.007182803004980087 0.006007910706102848 0 0 0 0
2791563148 0.1483832597732544 -0.008654806762933731 -0.005323152989149094 0.007444332353770733 0 0 0 0
2795285232 0.167179137468338 -0.014880597591400146 -0.0029611801728606224 0.008264986798167229 0 0 0 0
2799007316 0.18439623713493347 -0.025021880865097046 -0.0007333057001233101 0.008148623630404472 0 0 0 0
2802729400 0.20037835836410522 -0.036346666514873505 0.0013093510642647743 0.00736518669873476 0 0 0 0
2806451484 0.215209499001503 -0.05225786194205284 0.0027187103405594826 0.006232128478586674 0 0 0 0
2810173568 0.2267683446407318 -0.067323699593544 0.0036622565239667892 0.005103795789182186 0 0 0 0
2813895652 0.23750095069408417 -0.08740365505218506 0.004383259452879429 0.004030169919133186 0 0 0 0
2817617736 0.24273750185966492 -0.1069408655166626 0.004811308346688747 0.002866879105567932 0 0 0 0
2821339820 0.24711251258850098 -0.12800872325897217 0.005015388131141663 0.0015589827671647072 0 0 0 0
2825061904 0.24828830361366272 -0.14989805221557617 0.004785152152180672 0.0007729176431894302 0 0 0 0
2828783988 0.24339786171913147 -0.17256557941436768 0.00465703010559082 8.557271212339401e-05 0 0 0 0
2832506072 0.24008342623710632 -0.19261178374290466 0.00459729228168726 -0.0005924208089709282 0 0 0 0
2836228156 0.23286205530166626 -0.21429885923862457 0.004468836821615696 -0.0012751594185829163 0 0 0 0
2839950240 0.222605898976326 -0.2358115017414093 0.0040818266570568085 -0.002006438560783863 0 0 0 0
2843672324 0.20953227579593658 -0.25473493337631226 0.0037134364247322083 -0.0024051936343312263 0 0 0 0
2847394408 0.19475099444389343 -0.2713199555873871 0.0035582594573497772 -0.002858988009393215 0 0 0 0
2851116492 0.17331549525260925 -0.28751054406166077 0.003397323191165924 -0.0034911129623651505 0 0 0 0
2854838576 0.15391293168067932 -0.29891929030418396 0.002928003668785095 -0.004199688322842121 0 0 0 0
2858560660 0.13242107629776 -0.3100944757461548 0.0025101983919739723 -0.005288903601467609 0 0 0 0
2862282744 0.10712579637765884 -0.31659048795700073 0.0013702185824513435 -0.005947621539235115 0 0 0 0
2866004828 0.0850801020860672 -0.3207132816314697 8.26958566904068e-05 -0.006305977702140808 0 0 0 0
2869726912 0.06034998595714569 -0.3193354606628418 -0.00106827262789011 -0.006007610820233822 0 0 0 0
2873448996 0.036886945366859436 -0.3152121901512146 -0.0022404398769140244 -0.005685140378773212 0 0 0 0
2877171080 0.0077079907059669495 -0.30848199129104614 -0.0032233186066150665 -0.004859578795731068 0 0 0 0
2880893164 -0.013409880921244621 -0.29995980858802795 -0.0038079731166362762 -0.003865226171910763 0 0 0 0
2884615248 -0.03694821149110794 -0.2871435582637787 -0.004138502292335033 -0.0028755636885762215 0 0 0 0
2888337332 -0.0547751784324646 -0.2724969685077667 -0.004319468513131142 -0.0021337559446692467 0 0 0 0
2892059416 -0.07260818779468536 -0.25467854738235474 -0.004234502092003822 -0.0013105971738696098 0 0 0 0
2895781500 -0.08913266658782959 -0.23463843762874603 -0.004187718033790588 -0.0004989001899957657 0 0 0 0
2899503584 -0.10246142745018005 -0.21136930584907532 -0.004005505703389645 0.00021573062986135483 0 0 0 0
2903225668 -0.11459686607122421 -0.18590261042118073 -0.003718702122569084 0.0009123850613832474 0 0 0 0
2906947752 -0.12235992401838303 -0.1598159372806549 -0.003259226679801941 0.0017230147495865822 0 0 0 0
2910669836 -0.1256868839263916 -0.13285300135612488 -0.0027256449684500694 0.002293800935149193 0 0 0 0
2914391920 -0.12528091669082642 -0.10693617910146713 -0.0019159717485308647 0.0026956843212246895 0 0 0 0
2918114004 -0.12064509838819504 -0.07954119890928268 -0.0011865738779306412 0.0029176706448197365 0 0 0 0
2921836088 -0.11259802430868149 -0.054605092853307724 -0.0004341844469308853 0.002918308600783348 0 0 0 0
2925558172 -0.10256496071815491 -0.02974620647728443 0.0002712886780500412 0.0026943329721689224 0 0 0 0
2929280256 -0.0897011011838913 -0.005563031882047653 0.0007489938288927078 0.002422546036541462 0 0 0 0
2933002340 -0.07250640541315079 0.01639731600880623 0.0009985137730836868 0.0022248979657888412 0 0 0 0
2936724424 -0.052073098719120026 0.03481356054544449 0.0012670168653130531 0.0019451864063739777 0 0 0 0
2940446508 -0.03082694113254547 0.050128400325775146 0.001565626822412014 0.0018200743943452835 0 0 0 0
2944168592 -0.007187940180301666 0.062397927045822144 0.0020177410915493965 0.0017182230949401855 0 0 0 0
2947890676 0.017957907170057297 0.07125967741012573 0.002270421013236046 0.0015564551576972008 0 0 0 0
2951612760 0.04398047924041748 0.07729656994342804 0.002765987068414688 0.0012735724449157715 0 0 0 0
2955334844 0.06898055970668793 0.08017781376838684 0.0031208759173750877 0.0008606985211372375 0 0 0 0
2959056928 0.09577690064907074 0.08052337169647217 0.0035771429538726807 0.0003270786255598068 0 0 0 0
2962779012 0.12256364524364471 0.07387831807136536 0.0038342811167240143 -0.0002104276791214943 0 0 0 0
2966501096 0.14738062024116516 0.06574611365795135 0.004013284109532833 -0.00112931989133358 0 0 0 0
2970223180 0.17017512023448944 0.05576794594526291 0.004154585301876068 -0.002087668515741825 0 0 0 0
2973945264 0.1914677768945694 0.041517473757267 0.003533279523253441 -0.0029670950025320053 0 0 0 0
2977667348 0.21143244206905365 0.024252789095044136 0.002951527014374733 -0.003624115139245987 0 0 0 0
2981389432 0.22681909799575806 0.0056189075112342834 0.0022511472925543785 -0.004095827229321003 0 0 0 0
2985111516 0.24028146266937256 -0.017312340438365936 0.0013166964054107666 -0.004583721049129963 0 0 0 0
2988833600 0.2501612901687622 -0.03788723796606064 0.0002686278894543648 -0.004866776987910271 0 0 0 0
2992555684 0.2568165361881256 -0.059835657477378845 -0.0007825586944818497 -0.004817202687263489 0 0 0 0
2996277768 0.26120683550834656 -0.08085259795188904 -0.0018686717376112938 -0.004569162614643574 0 0 0 0
2999999852 0.2630501985549927 -0.10413143038749695 -0.0031346632167696953 -0.0038522174581885338 0 0 0 0
