# HZ S RI R 50
1500000000 -0.10445930063724518 -0.02200036495923996 0.04429420456290245 -0.026795197278261185 0 0 0 0
1503722084 -0.08635828644037247 0.004737552255392075 0.038914211094379425 -0.0332007110118866 0 0 0 0
1507444168 -0.060869380831718445 0.027776354923844337 0.0329560786485672 -0.03866426646709442 0 0 0 0
1511166252 -0.03052496910095215 0.04554683342576027 0.026324713602662086 -0.04357365518808365 0 0 0 0
1514888336 0.001620205119252205 0.05749666318297386 0.018574407324194908 -0.047520916908979416 0 0 0 0
1518610420 0.035300131887197495 0.06565964967012405 0.010322867892682552 -0.04999076575040817 0 0 0 0
1522332504 0.0715593695640564 0.06945951282978058 0.0012172143906354904 -0.051560837775468826 0 0 0 0
1526054588 0.11015106737613678 0.06815973669290543 -0.009574911557137966 -0.05085144564509392 0 0 0 0
1529776672 0.15030670166015625 0.06083952635526657 -0.019608836621046066 -0.046229682862758636 0 0 0 0
1533498756 0.19128535687923431 0.04477299377322197 -0.02706180140376091 -0.039133958518505096 0 0 0 0
1537220840 0.22970160841941833 0.021225810050964355 -0.03166002407670021 -0.031963568180799484 0 0 0 0
1540942924 0.2632395923137665 -0.010148677974939346 -0.03492192178964615 -0.024374501779675484 0 0 0 0
1544665008 0.292538046836853 -0.04598333314061165 -0.036489713937044144 -0.017176739871501923 0 0 0 0
1548387092 0.3150491416454315 -0.08745604753494263 -0.03648748621344566 -0.010361425578594208 0 0 0 0
1552109176 0.33210834860801697 -0.13104847073554993 -0.03503494709730148 -0.004166816361248493 0 0 0 0
1555831260 0.3436480760574341 -0.17758551239967346 -0.03275166451931 0.0007372302934527397 0 0 0 0
1559553344 0.34806570410728455 -0.22499090433120728 -0.03036324493587017 0.004452252760529518 0 0 0 0
1563275428 0.34351298213005066 -0.27699390053749084 -0.028181934729218483 0.007570215500891209 0 0 0 0
1566997512 0.3308894634246826 -0.3280775547027588 -0.026103902608156204 0.010577112436294556 0 0 0 0
1570719596 0.3113742768764496 -0.37710100412368774 -0.02352292649447918 0.013315778225660324 0 0 0 0
1574441680 0.2804427146911621 -0.4217597246170044 -0.020830174908041954 0.015296734869480133 0 0 0 0
1578163764 0.2498309165239334 -0.4599052667617798 -0.018219871446490288 0.017019154503941536 0 0 0 0
1581885848 0.21187089383602142 -0.49658194184303284 -0.015802370384335518 0.018485594540834427 0 0 0 0
1585607932 0.16328418254852295 -0.5274767279624939 -0.013248495757579803 0.01998094841837883 0 0 0 0
1589330016 0.11429925262928009 -0.5523906350135803 -0.010463349521160126 0.021086113527417183 0 0 0 0
1593052100 0.05852079391479492 -0.5690003633499146 -0.007829146459698677 0.021818099543452263 0 0 0 0
1596774184 -0.0003650784492492676 -0.5775460600852966 -0.005147508345544338 0.02231186255812645 0 0 0 0
1600496268 -0.05613347887992859 -0.5771517753601074 -0.002598479390144348 0.022655103355646133 0 0 0 0
1604218352 -0.11653518676757812 -0.5656455159187317 -0.00011892430484294891 0.022969285026192665 0 0 0 0
1607940436 -0.17140452563762665 -0.5481870770454407 0.0026717688888311386 0.02336960844695568 0 0 0 0
1611662520 -0.22584599256515503 -0.5231688022613525 0.005899537354707718 0.023766381666064262 0 0 0 0
1615384604 -0.2792035937309265 -0.4878073036670685 0.010079730302095413 0.023646347224712372 0 0 0 0
1619106688 -0.3244832158088684 -0.44622936844825745 0.014380820095539093 0.022540157660841942 0 0 0 0
1622828772 -0.3607727289199829 -0.3989148736000061 0.018825240433216095 0.02014872245490551 0 0 0 0
1626550856 -0.39450156688690186 -0.345008909702301 0.02272791974246502 0.016734052449464798 0 0 0 0
1630272940 -0.4190913438796997 -0.28695401549339294 0.02586832270026207 0.012430114671587944 0 0 0 0
1633995024 -0.4385649561882019 -0.22514942288398743 0.028239725157618523 0.007636941969394684 0 0 0 0
1637717108 -0.4471978545188904 -0.1617855727672577 0.029918912798166275 0.0021194331347942352 0 0 0 0
1641439192 -0.44707468152046204 -0.09374941885471344 0.030319975689053535 -0.004080207087099552 0 0 0 0
1645161276 -0.43532928824424744 -0.0254499614238739 0.029122859239578247 -0.010802062228322029 0 0 0 0
1648883360 -0.41609734296798706 0.04147994518280029 0.02567780390381813 -0.017052309587597847 0 0 0 0
1652605444 -0.38717228174209595 0.10409976541996002 0.02063978835940361 -0.02175396867096424 0 0 0 0
1656327528 -0.34734001755714417 0.16389209032058716 0.015407775528728962 -0.024488748982548714 0 0 0 0
1660049612 -0.29820355772972107 0.2197643369436264 0.010208976455032825 -0.026168882846832275 0 0 0 0
1663771696 -0.23970425128936768 0.26835381984710693 0.00506079476326704 -0.027536621317267418 0 0 0 0
1667493780 -0.17286306619644165 0.30703434348106384 -0.001099378801882267 -0.02791336551308632 0 0 0 0
1671215864 -0.10038863122463226 0.33562302589416504 -0.007438142783939838 -0.026436951011419296 0 0 0 0
1674937948 -0.022581562399864197 0.35241055488586426 -0.013097012415528297 -0.022926228120923042 0 0 0 0
1678660032 0.05777551233768463 0.3564966320991516 -0.017329460009932518 -0.01784195937216282 0 0 0 0
1682382116 0.13473273813724518 0.3490626811981201 -0.01917501538991928 -0.0123312808573246 0 0 0 0
1686104200 0.21484851837158203 0.32847920060157776 -0.019362695515155792 -0.007284224033355713 0 0 0 0
1689826284 0.28722113370895386 0.2984536588191986 -0.018247341737151146 -0.0032968316227197647 0 0 0 0
1693548368 0.3584917187690735 0.2533731162548065 -0.016805069521069527 8.473079651594162e-05 0 0 0 0
1697270452 0.41837483644485474 0.19942767918109894 -0.015186452306807041 0.002653971314430237 0 0 0 0
1700992536 0.47072911262512207 0.13311155140399933 -0.013454368337988853 0.004778767935931683 0 0 0 0
1704714620 0.5102055668830872 0.060982346534729004 -0.011432472616434097 0.006390662863850594 0 0 0 0
1708436704 0.5372995138168335 -0.013410953804850578 -0.009433508850634098 0.00764018390327692 0 0 0 0
1712158788 0.5532890558242798 -0.09140941500663757 -0.007278367877006531 0.008439920842647552 0 0 0 0
1715880872 0.5565801858901978 -0.172681987285614 -0.005213809199631214 0.008585003204643726 0 0 0 0
1719602956 0.5460641384124756 -0.24947388470172882 -0.0034538237378001213 0.008469559252262115 0 0 0 0
1723325040 0.5259808897972107 -0.3263954520225525 -0.0017713019624352455 0.008062630891799927 0 0 0 0
1727047124 0.49643075466156006 -0.39420849084854126 -0.00029978062957525253 0.007448330521583557 0 0 0 0
1730769208 0.4541844129562378 -0.4575839936733246 0.0010111071169376373 0.006172029301524162 0 0 0 0
1734491292 0.4030974507331848 -0.5147519111633301 0.0013907300308346748 0.0047244299203157425 0 0 0 0
1738213376 0.34643474221229553 -0.5613035559654236 0.001237090677022934 0.0035960152745246887 0 0 0 0
1741935460 0.2827187180519104 -0.6001991033554077 0.0008359728381037712 0.0029528122395277023 0 0 0 0
1745657544 0.21787932515144348 -0.6265949010848999 0.00029158592224121094 0.0026940200477838516 0 0 0 0
1749379628 0.14337226748466492 -0.6445139050483704 -0.0002710111439228058 0.002857823856174946 0 0 0 0
1753101712 0.07327081263065338 -0.6503276228904724 -0.00037449225783348083 0.003427315503358841 0 0 0 0
1756823796 -0.0003681732341647148 -0.6454197764396667 0.00019515398889780045 0.003944906406104565 0 0 0 0
1760545880 -0.06266754865646362 -0.6301318407058716 0.0007096352055668831 0.004045452922582626 0 0 0 0
1764267964 -0.13513357937335968 -0.603683590888977 0.0013231076300144196 0.003968808799982071 0 0 0 0
1767990048 -0.1941726803779602 -0.566251814365387 0.001987871713936329 0.0035851048305630684 0 0 0 0
1771712132 -0.24191878736019135 -0.5253854990005493 0.002404356375336647 0.003102404996752739 0 0 0 0
1775434216 -0.283534437417984 -0.47621768712997437 0.0024101994931697845 0.0024466821923851967 0 0 0 0
1779156300 -0.3237254023551941 -0.4177388548851013 0.0023403819650411606 0.0017630690708756447 0 0 0 0
1782878384 -0.3490864634513855 -0.36156389117240906 0.0015463139861822128 0.00138833187520504 0 0 0 0
1786600468 -0.36632347106933594 -0.30011242628097534 0.0007669171318411827 0.001599821262061596 0 0 0 0
1790322552 -0.37439030408859253 -0.23724055290222168 0.00048481859266757965 0.002530893310904503 0 0 0 0
1794044636 -0.37437868118286133 -0.1741982251405716 0.0007202411070466042 0.0034550316631793976 0 0 0 0
1797766720 -0.36395177245140076 -0.11230027675628662 0.0011390764266252518 0.004124856553971767 0 0 0 0
1801488804 -0.3440808653831482 -0.057198479771614075 0.0015535838901996613 0.005061613395810127 0 0 0 0
1805210888 -0.31719714403152466 -0.003028586506843567 0.0026849061250686646 0.006264847703278065 0 0 0 0
1808932972 -0.28248417377471924 0.045760199427604675 0.004856369458138943 0.007322761230170727 0 0 0 0
1812655056 -0.24131397902965546 0.08753105998039246 0.007864224724471569 0.00722467340528965 0 0 0 0
1816377140 -0.19589059054851532 0.11971034109592438 0.010861694812774658 0.0057991789653897285 0 0 0 0
1820099224 -0.1440780609846115 0.14815551042556763 0.01346430741250515 0.002918299287557602 0 0 0 0
1823821308 -0.09020604938268661 0.16539156436920166 0.014528922736644745 -0.0008375896140933037 0 0 0 0
1827543392 -0.03592353314161301 0.1737489104270935 0.013973393477499485 -0.004691280424594879 0 0 0 0
1831265476 0.017269864678382874 0.17375552654266357 0.012431535869836807 -0.007328038103878498 0 0 0 0
1834987560 0.06863029301166534 0.1652766317129135 0.010972393676638603 -0.00947422906756401 0 0 0 0
1838709644 0.11705183982849121 0.15044037997722626 0.009342222474515438 -0.011555943638086319 0 0 0 0
1842431728 0.16198506951332092 0.12904812395572662 0.007026218809187412 -0.01345570757985115 0 0 0 0
1846153812 0.2024053931236267 0.10304763913154602 0.004316491074860096 -0.014370274730026722 0 0 0 0
1849875896 0.23787862062454224 0.0689966082572937 0.002013404853641987 -0.01474227849394083 0 0 0 0
1853597980 0.26675140857696533 0.030266668647527695 -0.00022245664149522781 -0.015004603192210197 0 0 0 0
1857320064 0.28736287355422974 -0.01051899790763855 -0.002392549067735672 -0.015026294626295567 0 0 0 0
1861042148 0.3019311726093292 -0.053512200713157654 -0.004758242517709732 -0.014960097149014473 0 0 0 0
1864764232 0.3080180585384369 -0.0962945967912674 -0.007080923765897751 -0.014527305960655212 0 0 0 0
1868486316 0.30816054344177246 -0.13875679671764374 -0.009664824232459068 -0.01381763257086277 0 0 0 0
1872208400 0.30010104179382324 -0.18158799409866333 -0.012289508245885372 -0.012320701032876968 0 0 0 0
1875930484 0.28753504157066345 -0.21763646602630615 -0.014579689130187035 -0.01083866972476244 0 0 0 0
1879652568 0.2668381929397583 -0.2525182366371155 -0.016666404902935028 -0.008453678339719772 0 0 0 0
1883374652 0.24527980387210846 -0.2803335189819336 -0.018576286733150482 -0.005798612721264362 0 0 0 0
1887096736 0.21737951040267944 -0.30568480491638184 -0.020048413425683975 -0.002537216991186142 0 0 0 0
1890818820 0.1852005571126938 -0.32535845041275024 -0.020774703472852707 0.0011030379682779312 0 0 0 0
1894540904 0.15340843796730042 -0.3381665349006653 -0.021176818758249283 0.004878101870417595 0 0 0 0
1898262988 0.11998401582241058 -0.34544193744659424 -0.020733721554279327 0.009126007556915283 0 0 0 0
1901985072 0.08875289559364319 -0.34689033031463623 -0.019350625574588776 0.01303292065858841 0 0 0 0
1905707156 0.05723951756954193 -0.34205061197280884 -0.017301905900239944 0.01702314056456089 0 0 0 0
1909429240 0.026251062750816345 -0.3342456519603729 -0.013903935439884663 0.020989779382944107 0 0 0 0
1913151324 0.0007543638348579407 -0.3203311860561371 -0.009289957582950592 0.024183891713619232 0 0 0 0
1916873408 -0.023730486631393433 -0.3042733371257782 -0.0039016082882881165 0.02580634504556656 0 0 0 0
1920595492 -0.04421006888151169 -0.28358009457588196 0.001225207932293415 0.02604611963033676 0 0 0 0
1924317576 -0.06005759909749031 -0.25966575741767883 0.006104051135480404 0.025555893778800964 0 0 0 0
1928039660 -0.07360287010669708 -0.23392775654792786 0.011890249326825142 0.02413013018667698 0 0 0 0
1931761744 -0.08038900047540665 -0.2088954746723175 0.017141198739409447 0.02104799449443817 0 0 0 0
1935483828 -0.08355897665023804 -0.18172886967658997 0.021148595958948135 0.01598276011645794 0 0 0 0
1939205912 -0.08367819339036942 -0.1535732001066208 0.023281265050172806 0.01055012084543705 0 0 0 0
1942927996 -0.07713191956281662 -0.12681514024734497 0.0235788244754076 0.005356696434319019 0 0 0 0
1946650080 -0.06650568544864655 -0.09965202212333679 0.02275555208325386 0.0006749089807271957 0 0 0 0
1950372164 -0.05002867430448532 -0.07585927098989487 0.021137550473213196 -0.0030912887305021286 0 0 0 0
1954094248 -0.028776777908205986 -0.05620743706822395 0.019552383571863174 -0.005940038710832596 0 0 0 0
1957816332 -0.0060311974957585335 -0.04099796339869499 0.017829954624176025 -0.008715854957699776 0 0 0 0
1961538416 0.019499754533171654 -0.030407022684812546 0.015810493379831314 -0.010929334908723831 0 0 0 0
1965260500 0.046033233404159546 -0.024171285331249237 0.013830231502652168 -0.012414265424013138 0 0 0 0
1968982584 0.073982834815979 -0.022689368575811386 0.012275928631424904 -0.014051593840122223 0 0 0 0
1972704668 0.10143479704856873 -0.028416156768798828 0.011212172918021679 -0.015890270471572876 0 0 0 0
1976426752 0.12813162803649902 -0.03738187626004219 0.009276878088712692 -0.01885724440217018 0 0 0 0
1980148836 0.1517142355442047 -0.05147816985845566 0.006093795411288738 -0.02154424600303173 0 0 0 0
1983870920 0.17185015976428986 -0.07182195782661438 0.0014153392985463142 -0.02372685633599758 0 0 0 0
1987593004 0.18784263730049133 -0.09525977820158005 -0.004455143585801125 -0.024258770048618317 0 0 0 0
1991315088 0.19913798570632935 -0.11923754215240479 -0.009635137394070625 -0.022891171276569366 0 0 0 0
1995037172 0.20419129729270935 -0.1456327587366104 -0.014221150428056717 -0.020005762577056885 0 0 0 0
1998759256 0.2055470049381256 -0.17286543548107147 -0.017706597223877907 -0.016703246161341667 0 0 0 0
2002481340 0.20237159729003906 -0.19733107089996338 -0.020500708371400833 -0.013311238959431648 0 0 0 0
2006203424 0.19377775490283966 -0.22233237326145172 -0.022667445242404938 -0.009210750460624695 0 0 0 0
2009925508 0.1810200959444046 -0.24496173858642578 -0.024115441367030144 -0.0045754192396998405 0 0 0 0
2013647592 0.16273905336856842 -0.26492154598236084 -0.02463863231241703 0.00011411774903535843 0 0 0 0
2017369676 0.1428135186433792 -0.28186091780662537 -0.0240034032613039 0.005049792118370533 0 0 0 0
2021091760 0.12153846770524979 -0.29334592819213867 -0.021955683827400208 0.00969722494482994 0 0 0 0
2024813844 0.09470590204000473 -0.30347955226898193 -0.019066981971263885 0.013032449409365654 0 0 0 0
2028535928 0.06739962846040726 -0.30744829773902893 -0.01626223511993885 0.015753163024783134 0 0 0 0
2032258012 0.04170425236225128 -0.30581918358802795 -0.013734412379562855 0.017601516097784042 0 0 0 0
2035980096 0.016455575823783875 -0.3008445203304291 -0.010963881388306618 0.0198485367000103 0 0 0 0
2039702180 -0.009043939411640167 -0.2914179563522339 -0.007505510002374649 0.021963581442832947 0 0 0 0
2043424264 -0.034027762711048126 -0.27759721875190735 -0.0026354677975177765 0.023194359615445137 0 0 0 0
2047146348 -0.05473094433546066 -0.25930094718933105 0.0017288383096456528 0.022488508373498917 0 0 0 0
2050868432 -0.07168664783239365 -0.2379060834646225 0.0057652853429317474 0.02100161463022232 0 0 0 0
2054590516 -0.08771342784166336 -0.21307019889354706 0.008803103119134903 0.018952107056975365 0 0 0 0
2058312600 -0.09756819903850555 -0.18660563230514526 0.011250446550548077 0.01674497127532959 0 0 0 0
2062034684 -0.10505662858486176 -0.1587441861629486 0.013392040506005287 0.014690439216792583 0 0 0 0
2065756768 -0.10730576515197754 -0.129231259226799 0.014990773051977158 0.012406396679580212 0 0 0 0
2069478852 -0.10609612613916397 -0.09730896353721619 0.016543513163924217 0.010005630552768707 0 0 0 0
2073200936 -0.09940848499536514 -0.06633426994085312 0.01802140660583973 0.007194311358034611 0 0 0 0
2076923020 -0.08692333102226257 -0.035154834389686584 0.019009826704859734 0.00400090217590332 0 0 0 0
2080645104 -0.06952019780874252 -0.0066567836329340935 0.01910809427499771 0.0006223656237125397 0 0 0 0
2084367188 -0.04643398895859718 0.020933611318469048 0.01866219751536846 -0.0027037151157855988 0 0 0 0
2088089272 -0.01705017127096653 0.04403606802225113 0.017654238268733025 -0.005326772108674049 0 0 0 0
2091811356 0.017340339720249176 0.0615927018225193 0.01671537570655346 -0.00807061605155468 0 0 0 0
2095533440 0.05348961055278778 0.07083385437726974 0.015162698924541473 -0.010783777572214603 0 0 0 0
2099255524 0.09124204516410828 0.07397720962762833 0.012905951589345932 -0.013103839941322803 0 0 0 0
2102977608 0.12821495532989502 0.07068552076816559 0.010493939742445946 -0.014910380356013775 0 0 0 0
2106699692 0.16357441246509552 0.06083562597632408 0.00813719630241394 -0.01666702888906002 0 0 0 0
2110421776 0.19638408720493317 0.045094843953847885 0.005122585222125053 -0.018048249185085297 0 0 0 0
2114143860 0.2263287752866745 0.02507021464407444 0.001333434134721756 -0.01890801079571247 0 0 0 0
2117865944 0.251364141702652 4.581362009048462e-05 -0.002511630766093731 -0.018971925601363182 0 0 0 0
2121588028 0.27174851298332214 -0.028456013649702072 -0.0063664475455880165 -0.018016008660197258 0 0 0 0
2125310112 0.2873467803001404 -0.05982121452689171 -0.009895841591060162 -0.016396459192037582 0 0 0 0
2129032196 0.2975078225135803 -0.09016492962837219 -0.013075260445475578 -0.013855312019586563 0 0 0 0
2132754280 0.3025309443473816 -0.12344007194042206 -0.015442539006471634 -0.010463288053870201 0 0 0 0
2136476364 0.30259957909584045 -0.15694019198417664 -0.01688625104725361 -0.006357341073453426 0 0 0 0
2140198448 0.29872211813926697 -0.18758414685726166 -0.0168779157102108 -0.002115975134074688 0 0 0 0
2143920532 0.28929242491722107 -0.2188822627067566 -0.015399601310491562 0.0012529036030173302 0 0 0 0
2147642616 0.2777654230594635 -0.24592462182044983 -0.013615044765174389 0.0033669108524918556 0 0 0 0
2151364700 0.2572021186351776 -0.27425915002822876 -0.011911858804523945 0.004731303080916405 0 0 0 0
2155086784 0.23479332029819489 -0.2952158749103546 -0.010766303166747093 0.005485557019710541 0 0 0 0
2158808868 0.20887701213359833 -0.31413471698760986 -0.009730570018291473 0.006439230404794216 0 0 0 0
2162530952 0.179753378033638 -0.32946667075157166 -0.00886454712599516 0.007273880764842033 0 0 0 0
2166253036 0.1507863998413086 -0.33739349246025085 -0.008120092563331127 0.008556160144507885 0 0 0 0
2169975120 0.12339437752962112 -0.34058287739753723 -0.00685502402484417 0.010115914046764374 0 0 0 0
2173697204 0.09150252491235733 -0.3412618339061737 -0.004643367603421211 0.010936220176517963 0 0 0 0
2177419288 0.062567338347435 -0.33746224641799927 -0.002598409540951252 0.011011429131031036 0 0 0 0
2181141372 0.036316607147455215 -0.32753369212150574 -0.0010397229343652725 0.010693627409636974 0 0 0 0
2184863456 0.007822275161743164 -0.3153934180736542 8.715502917766571e-05 0.010487641207873821 0 0 0 0
2188585540 -0.015807047486305237 -0.29948997497558594 0.001368524506688118 0.010487466119229794 0 0 0 0
2192307624 -0.03735930472612381 -0.27937594056129456 0.0029584551230072975 0.010535069741308689 0 0 0 0
2196029708 -0.055533215403556824 -0.2562066614627838 0.004774676635861397 0.01003233902156353 0 0 0 0
2199751792 -0.07118123769760132 -0.23029886186122894 0.006719276309013367 0.00894932635128498 0 0 0 0
2203473876 -0.08143693208694458 -0.19948500394821167 0.00797911174595356 0.007367598824203014 0 0 0 0
2207195960 -0.08976255357265472 -0.1661968231201172 0.008767847903072834 0.005813497118651867 0 0 0 0
2210918044 -0.08650333434343338 -0.1348218023777008 0.009616577997803688 0.004353797994554043 0 0 0 0
2214640128 -0.07939612120389938 -0.1052853912115097 0.010227705352008343 0.0024742595851421356 0 0 0 0
2218362212 -0.06924869865179062 -0.0744161382317543 0.010556017979979515 0.00035103969275951385 0 0 0 0
2222084296 -0.051458731293678284 -0.04953631013631821 0.009855663403868675 -0.002062070183455944 0 0 0 0
2225806380 -0.030118510127067566 -0.027231533080339432 0.008554086089134216 -0.004015651531517506 0 0 0 0
2229528464 -0.006516734138131142 -0.009323959238827229 0.006958309561014175 -0.004882107488811016 0 0 0 0
2233250548 0.019757594913244247 0.0034080585464835167 0.0054164063185453415 -0.005480680614709854 0 0 0 0
2236972632 0.046043239533901215 0.012261668220162392 0.004299423657357693 -0.0054684849455952644 0 0 0 0
2240694716 0.07266939431428909 0.015870217233896255 0.003535510040819645 -0.005393358878791332 0 0 0 0
2244416800 0.09945131838321686 0.01748453453183174 0.0030392948538064957 -0.0056619783863425255 0 0 0 0
2248138884 0.12755490839481354 0.016882464289665222 0.0024829767644405365 -0.0061312224715948105 0 0 0 0
2251860968 0.15559890866279602 0.00974622368812561 0.0016343118622899055 -0.0068942708894610405 0 0 0 0
2255583052 0.1820487082004547 -0.007453002035617828 0.00010981038212776184 -0.006940749473869801 0 0 0 0
2259305136 0.2047150433063507 -0.024430811405181885 -0.0008236691355705261 -0.006630784831941128 0 0 0 0
2263027220 0.2222008854150772 -0.05259285122156143 -0.0015501799061894417 -0.006206853315234184 0 0 0 0
2266749304 0.2355928122997284 -0.07430117577314377 -0.001861773431301117 -0.006075356155633926 0 0 0 0
2270471388 0.2450290471315384 -0.09826122224330902 -0.0026963679119944572 -0.006239729933440685 0 0 0 0
2274193472 0.24492275714874268 -0.12522217631340027 -0.0035893255844712257 -0.00609484501183033 0 0 0 0
2277915556 0.24296492338180542 -0.15184181928634644 -0.0047248611226677895 -0.00577807892113924 0 0 0 0
2281637640 0.23485085368156433 -0.17904022336006165 -0.005634349770843983 -0.005246742628514767 0 0 0 0
2285359724 0.22332994639873505 -0.20101971924304962 -0.006425417028367519 -0.004543346352875233 0 0 0 0
2289081808 0.2129591703414917 -0.21858379244804382 -0.007120444439351559 -0.0035939328372478485 0 0 0 0
2292803892 0.19463083148002625 -0.2367701232433319 -0.007404893636703491 -0.0026985835283994675 0 0 0 0
2296525976 0.17575281858444214 -0.24920661747455597 -0.007833365350961685 -0.002078094519674778 0 0 0 0
2300248060 0.15726907551288605 -0.2594655156135559 -0.008478679694235325 -0.0013774605467915535 0 0 0 0
2303970144 0.13324688374996185 -0.27027228474617004 -0.009000755846500397 -0.00017547886818647385 0 0 0 0
2307692228 0.10356080532073975 -0.27379274368286133 -0.009231386706233025 0.0013637728989124298 0 0 0 0
2311414312 0.08876462280750275 -0.2696937918663025 -0.008958844467997551 0.002372525632381439 0 0 0 0
2315136396 0.056450240314006805 -0.2670500874519348 -0.008332992903888226 0.00377055536955595 0 0 0 0
2318858480 0.03573429584503174 -0.25817346572875977 -0.008096298202872276 0.004255395382642746 0 0 0 0
2322580564 0.015459783375263214 -0.24329687654972076 -0.007842560298740864 0.005257691256701946 0 0 0 0
2326302648 -0.008141133934259415 -0.225577712059021 -0.007415002211928368 0.006381195969879627 0 0 0 0
2330024732 -0.01942633092403412 -0.20531727373600006 -0.006560857407748699 0.0073577528819441795 0 0 0 0
2333746816 -0.03135112673044205 -0.1813904047012329 -0.005774659104645252 0.008243008516728878 0 0 0 0
2337468900 -0.040677715092897415 -0.15445305407047272 -0.004847007803618908 0.009074574336409569 0 0 0 0
2341190984 -0.04302287846803665 -0.12662091851234436 -0.0037951087579131126 0.010056359693408012 0 0 0 0
2344913068 -0.03881901875138283 -0.10099787265062332 -0.0019257105886936188 0.010897494852542877 0 0 0 0
2348635152 -0.03332255780696869 -0.07392840832471848 0.00025635119527578354 0.010734527371823788 0 0 0 0
2352357236 -0.021846037358045578 -0.04938486963510513 0.0017761001363396645 0.010225565172731876 0 0 0 0
2356079320 -0.007356191053986549 -0.025393376126885414 0.003156307153403759 0.00928212609142065 0 0 0 0
2359801404 0.012263012118637562 -0.0032316409051418304 0.00401887483894825 0.008326135575771332 0 0 0 0
2363523488 0.03617066890001297 0.014730378985404968 0.0049544647336006165 0.007634962908923626 0 0 0 0
2367245572 0.06306459754705429 0.029278794303536415 0.005924331024289131 0.006499291397631168 0 0 0 0
2370967656 0.09342165291309357 0.03858364373445511 0.006552068516612053 0.00522181112319231 0 0 0 0
2374689740 0.12525790929794312 0.041461411863565445 0.00662196334451437 0.0037752334028482437 0 0 0 0
2378411824 0.15777263045310974 0.03830508515238762 0.006208773702383041 0.0027431631460785866 0 0 0 0
2382133908 0.19132277369499207 0.028621703386306763 0.005885893478989601 0.002067228779196739 0 0 0 0
2385855992 0.21963025629520416 0.015112161636352539 0.005789886228740215 0.0019425805658102036 0 0 0 0
2389578076 0.24629844725131989 -0.00483299046754837 0.006023072637617588 0.001486123539507389 0 0 0 0
2393300160 0.26764851808547974 -0.03126993030309677 0.0062189046293497086 0.0008100681006908417 0 0 0 0
2397022244 0.28287166357040405 -0.061400093138217926 0.0065918779000639915 1.735985279083252e-06 0 0 0 0
2400744328 0.29614385962486267 -0.09172556549310684 0.006730340421199799 -0.0012095905840396881 0 0 0 0
2404466412 0.2995481789112091 -0.12072552740573883 0.006487409584224224 -0.0023306943476200104 0 0 0 0
2408188496 0.29944348335266113 -0.15080484747886658 0.00576015654951334 -0.003405855968594551 0 0 0 0
2411910580 0.2949792146682739 -0.17977067828178406 0.004917792044579983 -0.004364076070487499 0 0 0 0
2415632664 0.2863800823688507 -0.20666420459747314 0.004037851467728615 -0.0050959475338459015 0 0 0 0
2419354748 0.2731131911277771 -0.2326134294271469 0.0028020767495036125 -0.005638538859784603 0 0 0 0
2423076832 0.2568906545639038 -0.25609537959098816 0.0014572422951459885 -0.005673331208527088 0 0 0 0
2426798916 0.24160559475421906 -0.2753334045410156 0.0013471301645040512 -0.006455540657043457 0 0 0 0
2430521000 0.21942566335201263 -0.2936311662197113 -0.0004811082035303116 -0.004551596939563751 0 0 0 0
2434243084 0.19622299075126648 -0.3108692765235901 -0.0006987694650888443 -0.004114719107747078 0 0 0 0
2437965168 0.17183588445186615 -0.32136836647987366 -0.0009991154074668884 -0.0034799184650182724 0 0 0 0
2441687252 0.14131326973438263 -0.3308223485946655 -0.0009374953806400299 -0.0030830809846520424 0 0 0 0
2445409336 0.10950102657079697 -0.3363039791584015 -0.0006960351020097733 -0.002920570783317089 0 0 0 0
2449131420 0.08248808979988098 -0.33304527401924133 -0.0004792623221874237 -0.003277108073234558 0 0 0 0
2452853504 0.0537792444229126 -0.32513871788978577 -0.0006663873791694641 -0.0035688886418938637 0 0 0 0
2456575588 0.020869463682174683 -0.3153282403945923 -0.0012060897424817085 -0.003999857231974602 0 0 0 0
2460297672 -0.003667011857032776 -0.30018845200538635 -0.0017518103122711182 -0.004132997244596481 0 0 0 0
2464019756 -0.026772882789373398 -0.28085532784461975 -0.002455548383295536 -0.004150618799030781 0 0 0 0
2467741840 -0.0458885058760643 -0.258082777261734 -0.0029961606487631798 -0.00410356093198061 0 0 0 0
2471463924 -0.05974188446998596 -0.23332281410694122 -0.0036314334720373154 -0.0038123391568660736 0 0 0 0
2475186008 -0.07177365571260452 -0.20716455578804016 -0.004101451486349106 -0.0034999381750822067 0 0 0 0
2478908092 -0.08015554398298264 -0.17890195548534393 -0.0045255254954099655 -0.0032082637771964073 0 0 0 0
2482630176 -0.0827113687992096 -0.1512228399515152 -0.004849635995924473 -0.002829701639711857 0 0 0 0
2486352260 -0.08101777732372284 -0.12338639795780182 -0.00535929761826992 -0.0024102097377181053 0 0 0 0
2490074344 -0.07705866545438766 -0.09572447091341019 -0.005904564633965492 -0.00209910050034523 0 0 0 0
2493796428 -0.06928662955760956 -0.06875550746917725 -0.006490685045719147 -0.0014768391847610474 0 0 0 0
2497518512 -0.057964738458395004 -0.04386511817574501 -0.0070861391723155975 -0.0009004995226860046 0 0 0 0
2501240596 -0.04335619509220123 -0.020076485350728035 -0.007565123029053211 -5.155615508556366e-05 0 0 0 0
2504962680 -0.024549491703510284 0.0019935835152864456 -0.007724102586507797 0.0009930199012160301 0 0 0 0
2508684764 -0.0011561140418052673 0.022206854075193405 -0.00810300838202238 0.002222972922027111 0 0 0 0
2512406848 0.02547934278845787 0.03688216209411621 -0.007960861548781395 0.0033226637169718742 0 0 0 0
2516128932 0.05452577769756317 0.046936310827732086 -0.007916295900940895 0.0047143613919615746 0 0 0 0
2519851016 0.08415216952562332 0.05122438818216324 -0.00735103152692318 0.0063664475455880165 0 0 0 0
2523573100 0.1136842593550682 0.049233827739953995 -0.006111865863204002 0.007798714563250542 0 0 0 0
2527295184 0.14147253334522247 0.043325215578079224 -0.004638600163161755 0.008722697384655476 0 0 0 0
2531017268 0.1667969971895218 0.03380350023508072 -0.003217005170881748 0.009079026989638805 0 0 0 0
2534739352 0.18960213661193848 0.02095160260796547 -0.001909135840833187 0.009423693642020226 0 0 0 0
2538461436 0.20969219505786896 0.004850126802921295 -0.00039906054735183716 0.009749135002493858 0 0 0 0
2542183520 0.22768168151378632 -0.013237660750746727 0.0011645695194602013 0.009802891872823238 0 0 0 0
2545905604 0.24249766767024994 -0.034252580255270004 0.0027228612452745438 0.009397532790899277 0 0 0 0
2549627688 0.2523389458656311 -0.056872159242630005 0.004088790155947208 0.008893121965229511 0 0 0 0
2553349772 0.2589947283267975 -0.08046511560678482 0.005383274517953396 0.008293455466628075 0 0 0 0
2557071856 0.26291462779045105 -0.10274798423051834 0.006733618676662445 0.0076851509511470795 0 0 0 0
2560793940 0.2621653079986572 -0.12436452507972717 0.008035006932914257 0.006464757956564426 0 0 0 0
2564516024 0.25981754064559937 -0.1458587944507599 0.009179219603538513 0.005214636214077473 0 0 0 0
2568238108 0.25404873490333557 -0.16636262834072113 0.010192799381911755 0.0037399334833025932 0 0 0 0
2571960192 0.2470916509628296 -0.18354831635951996 0.011248189024627209 0.002037866972386837 0 0 0 0
2575682276 0.2345297634601593 -0.20389968156814575 0.011863933876156807 -0.00022840313613414764 0 0 0 0
2579404360 0.2238447219133377 -0.21699705719947815 0.012093139812350273 -0.002487579360604286 0 0 0 0
2583126444 0.208173930644989 -0.23199206590652466 0.011561712250113487 -0.0051079485565423965 0 0 0 0
2586848528 0.18868175148963928 -0.2443724274635315 0.010510808788239956 -0.007541753351688385 0 0 0 0
2590570612 0.17223849892616272 -0.25136837363243103 0.00885782390832901 -0.009717082604765892 0 0 0 0
2594292696 0.15573954582214355 -0.25488001108169556 0.0067299650982022285 -0.011343193240463734 0 0 0 0
2598014780 0.13675937056541443 -0.2581300437450409 0.004284922033548355 -0.012489411979913712 0 0 0 0
2601736864 0.1200217604637146 -0.25622808933258057 0.001755320467054844 -0.013026924803853035 0 0 0 0
2605458948 0.09981133043766022 -0.2563454508781433 -0.0009080022573471069 -0.012802823446691036 0 0 0 0
2609181032 0.0846325159072876 -0.24978403747081757 -0.003166203387081623 -0.012174802832305431 0 0 0 0
2612903116 0.06971338391304016 -0.24179834127426147 -0.0050796885043382645 -0.011164363473653793 0 0 0 0
2616625200 0.05438634753227234 -0.23209503293037415 -0.006741000339388847 -0.009626679122447968 0 0 0 0
2620347284 0.04489946365356445 -0.22104749083518982 -0.007526746019721031 -0.008107757195830345 0 0 0 0
2624069368 0.03622153028845787 -0.2089422643184662 -0.00800996832549572 -0.006960637867450714 0 0 0 0
2627791452 0.027324223890900612 -0.19522696733474731 -0.008550435304641724 -0.005862564779818058 0 0 0 0
2631513536 0.0219953041523695 -0.1809651404619217 -0.009144698269665241 -0.004907035268843174 0 0 0 0
2635235620 0.019705262035131454 -0.1651645004749298 -0.00972308125346899 -0.003915437497198582 0 0 0 0
2638957704 0.020482927560806274 -0.14880961179733276 -0.010335857048630714 -0.002688964828848839 0 0 0 0
2642679788 0.023673169314861298 -0.13439536094665527 -0.011018974706530571 -0.0014390116557478905 0 0 0 0
2646401872 0.030114252120256424 -0.12186208367347717 -0.011442029848694801 0.0005131475627422333 0 0 0 0
2650123956 0.03769991919398308 -0.11131037026643753 -0.011150579899549484 0.002371278591454029 0 0 0 0
2653846040 0.04649397358298302 -0.10252125561237335 -0.010569114238023758 0.004152501933276653 0 0 0 0
2657568124 0.057725369930267334 -0.09551137685775757 -0.009978711605072021 0.005797692574560642 0 0 0 0
2661290208 0.06835246831178665 -0.09222526103258133 -0.008860056288540363 0.007635064423084259 0 0 0 0
2665012292 0.08139294385910034 -0.08943469822406769 -0.007247923873364925 0.009377849288284779 0 0 0 0
2668734376 0.091921865940094 -0.09041596949100494 -0.005083573050796986 0.010374817997217178 0 0 0 0
2672456460 0.10362998396158218 -0.09138326346874237 -0.0027940580621361732 0.010949550196528435 0 0 0 0
2676178544 0.11279520392417908 -0.09749598056077957 -0.0006031123921275139 0.010836096480488777 0 0 0 0
2679900628 0.12301281094551086 -0.10365617275238037 0.0015436196699738503 0.010378493927419186 0 0 0 0
2683622712 0.13027255237102509 -0.11373274028301239 0.0035744262859225273 0.009428155608475208 0 0 0 0
2687344796 0.13430172204971313 -0.12492264062166214 0.005209839902818203 0.007975169457495213 0 0 0 0
2691066880 0.1363145112991333 -0.1363702118396759 0.006245446391403675 0.0063603660091757774 0 0 0 0
2694788964 0.1345386803150177 -0.1483500450849533 0.006696545518934727 0.004869023337960243 0 0 0 0
2698511048 0.13204428553581238 -0.15951798856258392 0.007158913649618626 0.003654005005955696 0 0 0 0
2702233132 0.127090722322464 -0.1696152687072754 0.007435210049152374 0.002493482083082199 0 0 0 0
2705955216 0.11825867742300034 -0.17894399166107178 0.007477223873138428 0.0011404827237129211 0 0 0 0
2709677300 0.10795596241950989 -0.18650469183921814 0.007568545639514923 -6.178300827741623e-05 0 0 0 0
2713399384 0.09778895974159241 -0.1918177604675293 0.007492502219974995 -0.0012260889634490013 0 0 0 0
2717121468 0.08385360985994339 -0.19525645673274994 0.007465476170182228 -0.0026823487132787704 0 0 0 0
2720843552 0.06976768374443054 -0.1968565732240677 0.0068171462044119835 -0.004384228028357029 0 0 0 0
2724565636 0.05608467757701874 -0.19502319395542145 0.0058463262394070625 -0.005704574286937714 0 0 0 0
2728287720 0.041771456599235535 -0.18986085057258606 0.00465330109000206 -0.0067907050251960754 0 0 0 0
2732009804 0.028843112289905548 -0.18085944652557373 0.0030426597222685814 -0.00735301710665226 0 0 0 0
2735731888 0.019219130277633667 -0.17042981088161469 0.0018793484196066856 -0.00784368347376585 0 0 0 0
2739453972 0.009997457265853882 -0.1582133173942566 0.0005438905209302902 -0.007946556434035301 0 0 0 0
2743176056 0.0006987303495407104 -0.14382290840148926 -0.0006540203467011452 -0.008222052827477455 0 0 0 0
2746898140 -0.004663519561290741 -0.1284630298614502 -0.002315763384103775 -0.008319532498717308 0 0 0 0
2750620224 -0.0071933940052986145 -0.111378014087677 -0.004460972733795643 -0.008036216720938683 0 0 0 0
2754342308 -0.006462890654802322 -0.09375890344381332 -0.006425842642784119 -0.007003127597272396 0 0 0 0
2758064392 -0.00351715087890625 -0.07583986222743988 -0.007918141782283783 -0.005228269845247269 0 0 0 0
2761786476 0.002593357115983963 -0.058862484991550446 -0.008812815882265568 -0.0029809335246682167 0 0 0 0
2765508560 0.01228378713130951 -0.04295976459980011 -0.009087893180549145 -0.0008309017866849899 0 0 0 0
2769230644 0.024538449943065643 -0.02829684130847454 -0.008859725669026375 0.0013895155861973763 0 0 0 0
2772952728 0.03817008435726166 -0.014857606031000614 -0.007977733388543129 0.003464695066213608 0 0 0 0
2776674812 0.05492658540606499 -0.0029601426795125008 -0.006579207256436348 0.005270051769912243 0 0 0 0
2780396896 0.07428278028964996 0.006231428124010563 -0.004574816673994064 0.006327020935714245 0 0 0 0
2784118980 0.09619349241256714 0.012299709022045135 -0.0026215622201561928 0.0068239448592066765 0 0 0 0
2787841064 0.11954610794782639 0.0139995738863945 -0.0007082466036081314 0.00687738973647356 0 0 0 0
2791563148 0.14368167519569397 0.01032244972884655 0.0010501444339752197 0.0063697462901473045 0 0 0 0
2795285232 0.16592691838741302 0.004608800634741783 0.0024498412385582924 0.005562187172472477 0 0 0 0
2799007316 0.18883481621742249 -0.005083709955215454 0.0036507146432995796 0.004434504546225071 0 0 0 0
2802729400 0.20862706005573273 -0.02122105285525322 0.004233138635754585 0.003124537877738476 0 0 0 0
2806451484 0.224736750125885 -0.03638383746147156 0.004325835965573788 0.0019333241507411003 0 0 0 0
2810173568 0.23855310678482056 -0.058149270713329315 0.004462285898625851 0.0011954233050346375 0 0 0 0
2813895652 0.2531251609325409 -0.07765975594520569 0.004608415998518467 0.0004515182226896286 0 0 0 0
2817617736 0.2604402005672455 -0.1005592793226242 0.004848429933190346 -0.0005891900509595871 0 0 0 0
2821339820 0.2648024559020996 -0.13039818406105042 0.004498358815908432 -0.0018407069146633148 0 0 0 0
2825061904 0.2665558457374573 -0.15543624758720398 0.0036586588248610497 -0.0027313604950904846 0 0 0 0
2828783988 0.26261553168296814 -0.18063586950302124 0.0030035143718123436 -0.003090803511440754 0 0 0 0
2832506072 0.25556546449661255 -0.20539605617523193 0.0023676035925745964 -0.003470204770565033 0 0 0 0
2836228156 0.24112845957279205 -0.2300596833229065 0.0017807753756642342 -0.0036973292008042336 0 0 0 0
2839950240 0.2253267467021942 -0.2549140453338623 0.0011961758136749268 -0.003619793802499771 0 0 0 0
2843672324 0.20816685259342194 -0.27132880687713623 0.0008902996778488159 -0.0037441374734044075 0 0 0 0
2847394408 0.18897007405757904 -0.2858508229255676 0.0006094034761190414 -0.0038718199357390404 0 0 0 0
2851116492 0.1689324676990509 -0.2977833151817322 5.2697956562042236e-05 -0.00419777724891901 0 0 0 0
2854838576 0.14215047657489777 -0.31115737557411194 -0.0005906717851758003 -0.00417302455753088 0 0 0 0
2858560660 0.12138791382312775 -0.3166835606098175 -0.0010555880144238472 -0.0045647649094462395 0 0 0 0
2862282744 0.09285634756088257 -0.3216601312160492 -0.0018184995278716087 -0.004287608899176121 0 0 0 0
2866004828 0.07224956154823303 -0.3213271498680115 -0.0024230917915701866 -0.004098851233720779 0 0 0 0
2869726912 0.04408624395728111 -0.31809327006340027 -0.0030174674466252327 -0.0035912329331040382 0 0 0 0
2873448996 0.026563376188278198 -0.3134405016899109 -0.0034377509728074074 -0.003203148953616619 0 0 0 0
2877171080 -0.0015037208795547485 -0.3049682378768921 -0.003934650681912899 -0.002643197774887085 0 0 0 0
2880893164 -0.021946847438812256 -0.2941718101501465 -0.00446206983178854 -0.0019595418125391006 0 0 0 0
2884615248 -0.04516463354229927 -0.28006094694137573 -0.004850164987146854 -0.001073175109922886 0 0 0 0
2888337332 -0.06534337997436523 -0.261565625667572 -0.004918012768030167 4.183780401945114e-05 0 0 0 0
2892059416 -0.07747887074947357 -0.24238066375255585 -0.004569170065224171 0.0012018531560897827 0 0 0 0
2895781500 -0.09359654039144516 -0.21943345665931702 -0.004076468758285046 0.002057158388197422 0 0 0 0
2899503584 -0.1028631180524826 -0.1959838569164276 -0.0034893956035375595 0.0026453016325831413 0 0 0 0
2903225668 -0.10911573469638824 -0.17212629318237305 -0.002794850617647171 0.0032239453867077827 0 0 0 0
2906947752 -0.11332421004772186 -0.14666032791137695 -0.0020809657871723175 0.003870273008942604 0 0 0 0
2910669836 -0.1151641309261322 -0.12108436226844788 -0.001084454357624054 0.004232766106724739 0 0 0 0
2914391920 -0.10998275876045227 -0.09756529331207275 -9.156949818134308e-05 0.004353233613073826 0 0 0 0
2918114004 -0.1044011265039444 -0.07535151392221451 0.001057235524058342 0.0041297683492302895 0 0 0 0
2921836088 -0.09746859222650528 -0.053435906767845154 0.0019059907644987106 0.0035157883539795876 0 0 0 0
2925558172 -0.087300606071949 -0.031927820295095444 0.002270027995109558 0.003001866862177849 0 0 0 0
2929280256 -0.07474296540021896 -0.01194038800895214 0.0026242509484291077 0.0025253891944885254 0 0 0 0
2933002340 -0.059919241815805435 0.005219431594014168 0.0028892457485198975 0.002253497950732708 0 0 0 0
2936724424 -0.04277984797954559 0.021983303129673004 0.00340260099619627 0.0017445003613829613 0 0 0 0
2940446508 -0.024517729878425598 0.036107443273067474 0.003751242533326149 0.0010705385357141495 0 0 0 0
2944168592 -0.004310023970901966 0.04779169708490372 0.003615863621234894 0.0004180232062935829 0 0 0 0
2947890676 0.016536898910999298 0.05684705451130867 0.0035527702420949936 -2.1241605281829834e-05 0 0 0 0
2951612760 0.038539107888936996 0.06406155228614807 0.003448871895670891 -9.979866445064545e-05 0 0 0 0
2955334844 0.06114796921610832 0.06807306408882141 0.003600490279495716 -0.0004496155306696892 0 0 0 0
2959056928 0.08481652289628983 0.07040528953075409 0.0038872184231877327 -0.0008426597341895103 0 0 0 0
2962779012 0.10952706634998322 0.06893954426050186 0.004125487059354782 -0.0013507939875125885 0 0 0 0
2966501096 0.13361027836799622 0.06513962149620056 0.004203213378787041 -0.00240466371178627 0 0 0 0
2970223180 0.1581236571073532 0.056833598762750626 0.003791665658354759 -0.003491356037557125 0 0 0 0
2973945264 0.18036668002605438 0.04390481859445572 0.002863803878426552 -0.004297802224755287 0 0 0 0
2977667348 0.20111025869846344 0.03170778602361679 0.0020112209022045135 -0.004679713398218155 0 0 0 0
2981389432 0.2188153862953186 0.012684173882007599 0.000723525881767273 -0.004687446169555187 0 0 0 0
2985111516 0.23511704802513123 -0.006834782660007477 -0.00021956954151391983 -0.004498321563005447 0 0 0 0
2988833600 0.24807104468345642 -0.02382597327232361 -0.0010007889941334724 -0.004153433255851269 0 0 0 0
2992555684 0.2580156922340393 -0.04908737167716026 -0.001684427261352539 -0.00348613690584898 0 0 0 0
2996277768 0.2655932605266571 -0.0699101984500885 -0.002182343043386936 -0.0027439165860414505 0 0 0 0
2999999852 0.2698039412498474 -0.09582965821027756 -0.002380545251071453 -0.001824328675866127 0 0 0 0
