# HZ S RI R 50
1500000000 -0.07149526476860046 -0.09025279432535172 0.04194653779268265 -0.022298727184534073 0 0 0 0
1503722084 -0.07206689566373825 -0.071392722427845 0.03857877105474472 -0.02833636663854122 0 0 0 0
1507444168 -0.06768061220645905 -0.04862549901008606 0.03405210003256798 -0.03475749120116234 0 0 0 0
1511166252 -0.05664677917957306 -0.023941876366734505 0.028321169316768646 -0.040596723556518555 0 0 0 0
1514888336 -0.03858422487974167 -0.0003823470324277878 0.020293261855840683 -0.04581268131732941 0 0 0 0
1518610420 -0.01389620266854763 0.020321335643529892 0.011312760412693024 -0.04898373782634735 0 0 0 0
1522332504 0.016027946025133133 0.03700988367199898 0.0011758692562580109 -0.04988508298993111 0 0 0 0
1526054588 0.05088052153587341 0.04798227548599243 -0.008936068043112755 -0.047877028584480286 0 0 0 0
1529776672 0.08968424052000046 0.053378865122795105 -0.0173446387052536 -0.04320361092686653 0 0 0 0
1533498756 0.13203559815883636 0.050695646554231644 -0.023861225694417953 -0.03717121109366417 0 0 0 0
1537220840 0.17576146125793457 0.04009915515780449 -0.028290312737226486 -0.030719958245754242 0 0 0 0
1540942924 0.21777847409248352 0.018727563321590424 -0.031247412785887718 -0.024351701140403748 0 0 0 0
1544665008 0.25588884949684143 -0.010639319196343422 -0.033022016286849976 -0.018253350630402565 0 0 0 0
1548387092 0.2871173620223999 -0.048998139798641205 -0.03373684734106064 -0.011853279545903206 0 0 0 0
1552109176 0.3125287592411041 -0.08932721614837646 -0.03310432657599449 -0.006298566237092018 0 0 0 0
1555831260 0.3318343758583069 -0.13428789377212524 -0.03190513700246811 -0.0015467889606952667 0 0 0 0
1559553344 0.3436841666698456 -0.18491023778915405 -0.030710987746715546 0.0026783188804984093 0 0 0 0
1563275428 0.3478603959083557 -0.2359572798013687 -0.02901873178780079 0.007209158502519131 0 0 0 0
1566997512 0.3407546877861023 -0.28983592987060547 -0.026161815971136093 0.011292698793113232 0 0 0 0
1570719596 0.3267775774002075 -0.3409635126590729 -0.022430507466197014 0.014233769848942757 0 0 0 0
1574441680 0.3039371371269226 -0.39093196392059326 -0.01897783949971199 0.016155648976564407 0 0 0 0
1578163764 0.2745121717453003 -0.4363561272621155 -0.015623867511749268 0.017234377562999725 0 0 0 0
1581885848 0.24090871214866638 -0.4772435128688812 -0.012779482640326023 0.017908014357089996 0 0 0 0
1585607932 0.19506128132343292 -0.5149767994880676 -0.010264109820127487 0.01837887428700924 0 0 0 0
1589330016 0.14585134387016296 -0.54432213306427 -0.007489895448088646 0.018615849316120148 0 0 0 0
1593052100 0.09097306430339813 -0.568293571472168 -0.005192856304347515 0.018365593627095222 0 0 0 0
1596774184 0.03482368588447571 -0.582294762134552 -0.0034015467390418053 0.01815350167453289 0 0 0 0
1600496268 -0.024753853678703308 -0.588100254535675 -0.0018586749210953712 0.018116023391485214 0 0 0 0
1604218352 -0.08321823179721832 -0.5849374532699585 8.442159742116928e-05 0.018287453800439835 0 0 0 0
1607940436 -0.14276093244552612 -0.5745799541473389 0.0022440971806645393 0.018208004534244537 0 0 0 0
1611662520 -0.2047835737466812 -0.5533999800682068 0.004482833668589592 0.018138214945793152 0 0 0 0
1615384604 -0.2631535530090332 -0.5243288278579712 0.006938713602721691 0.0176134891808033 0 0 0 0
1619106688 -0.31659916043281555 -0.4838962256908417 0.009824264794588089 0.016885971650481224 0 0 0 0
1622828772 -0.36593466997146606 -0.4346548318862915 0.012703490443527699 0.015089905820786953 0 0 0 0
1626550856 -0.4064374566078186 -0.3814515769481659 0.01498341839760542 0.012690354138612747 0 0 0 0
1630272940 -0.4387059509754181 -0.318457692861557 0.01672114059329033 0.009876668453216553 0 0 0 0
1633995024 -0.4638262689113617 -0.2506260275840759 0.017585143446922302 0.006848632358014584 0 0 0 0
1637717108 -0.47756484150886536 -0.1814119666814804 0.017827490344643593 0.004493796266615391 0 0 0 0
1641439192 -0.4815945625305176 -0.10308157652616501 0.018361836671829224 0.002020196057856083 0 0 0 0
1645161276 -0.47224161028862 -0.029520437121391296 0.01870625466108322 -0.0006248932331800461 0 0 0 0
1648883360 -0.45166486501693726 0.04684437811374664 0.01830587536096573 -0.0036145849153399467 0 0 0 0
1652605444 -0.41803377866744995 0.1200021281838417 0.01762145385146141 -0.0061342427507042885 0 0 0 0
1656327528 -0.3726060092449188 0.18798872828483582 0.016674604266881943 -0.008849217556416988 0 0 0 0
1660049612 -0.3167995512485504 0.24763156473636627 0.015622084960341454 -0.011719762347638607 0 0 0 0
1663771696 -0.25045639276504517 0.2982669770717621 0.013728732243180275 -0.014777934178709984 0 0 0 0
1667493780 -0.1778051257133484 0.33731943368911743 0.010846460238099098 -0.017398908734321594 0 0 0 0
1671215864 -0.09517769515514374 0.36517414450645447 0.007010121829807758 -0.019132617861032486 0 0 0 0
1674937948 -0.01294979453086853 0.37715959548950195 0.0030470583587884903 -0.01982182078063488 0 0 0 0
1678660032 0.07145098596811295 0.3767675459384918 -0.0010007517412304878 -0.019407153129577637 0 0 0 0
1682382116 0.1534014642238617 0.3629608154296875 -0.004550929181277752 -0.01804584078490734 0 0 0 0
1686104200 0.2333175539970398 0.3372037410736084 -0.007343202829360962 -0.0160679891705513 0 0 0 0
1689826284 0.3074987232685089 0.2998350262641907 -0.009305143728852272 -0.014045650139451027 0 0 0 0
1693548368 0.3738788366317749 0.25169458985328674 -0.011077753268182278 -0.011829007416963577 0 0 0 0
1697270452 0.4325210452079773 0.19368964433670044 -0.012563401833176613 -0.00938638485968113 0 0 0 0
1700992536 0.48205485939979553 0.12788940966129303 -0.013190080411732197 -0.006878476589918137 0 0 0 0
1704714620 0.5197899341583252 0.05658803880214691 -0.01351199485361576 -0.004591001197695732 0 0 0 0
1708436704 0.5458483695983887 -0.02093815803527832 -0.013430500403046608 -0.002231723628938198 0 0 0 0
1712158788 0.5605642795562744 -0.09881532192230225 -0.012707112357020378 5.726516246795654e-05 0 0 0 0
1715880872 0.5614913702011108 -0.1803460270166397 -0.011944780126214027 0.0017874883487820625 0 0 0 0
1719602956 0.5501630902290344 -0.25632140040397644 -0.010850599966943264 0.0033386964350938797 0 0 0 0
1723325040 0.5296613574028015 -0.33075010776519775 -0.009663974866271019 0.004507545381784439 0 0 0 0
1727047124 0.4987827241420746 -0.3999318778514862 -0.008348554372787476 0.005561459809541702 0 0 0 0
1730769208 0.45392337441444397 -0.46528521180152893 -0.007000996731221676 0.006184883415699005 0 0 0 0
1734491292 0.4040454030036926 -0.5199721455574036 -0.005791126750409603 0.006488137878477573 0 0 0 0
1738213376 0.34491202235221863 -0.5696361064910889 -0.004533287137746811 0.006543673574924469 0 0 0 0
1741935460 0.2814790606498718 -0.6059080958366394 -0.0034087542444467545 0.006399849429726601 0 0 0 0
1745657544 0.21443811058998108 -0.6324726939201355 -0.002709398977458477 0.005822434090077877 0 0 0 0
1749379628 0.13769595324993134 -0.6502158045768738 -0.002261475659906864 0.005312267690896988 0 0 0 0
1753101712 0.06755009293556213 -0.6544964909553528 -0.0023507168516516685 0.0048041073605418205 0 0 0 0
1756823796 -0.0004963576793670654 -0.6483782529830933 -0.002879495732486248 0.004795298911631107 0 0 0 0
1760545880 -0.07272474467754364 -0.6324970126152039 -0.003121701069176197 0.005464797839522362 0 0 0 0
1764267964 -0.134129598736763 -0.607962429523468 -0.0032323794439435005 0.006314370781183243 0 0 0 0
1767990048 -0.19369453191757202 -0.573218047618866 -0.002836942672729492 0.007536068558692932 0 0 0 0
1771712132 -0.24841582775115967 -0.5283086895942688 -0.0018585389479994774 0.00854034535586834 0 0 0 0
1775434216 -0.2911849021911621 -0.4788205027580261 -0.0005827434360980988 0.009289924055337906 0 0 0 0
1779156300 -0.3299967646598816 -0.421747088432312 0.0008913027122616768 0.00950494036078453 0 0 0 0
1782878384 -0.3568992018699646 -0.3636902868747711 0.0020862258970737457 0.009567382745444775 0 0 0 0
1786600468 -0.3760301172733307 -0.30275630950927734 0.0031771203503012657 0.009359053336083889 0 0 0 0
1790322552 -0.3864986002445221 -0.2380952537059784 0.004087346605956554 0.009548651985824108 0 0 0 0
1794044636 -0.38559839129447937 -0.17368818819522858 0.0056161461398005486 0.009404310956597328 0 0 0 0
1797766720 -0.37577053904533386 -0.10924488306045532 0.006756078451871872 0.009098905138671398 0 0 0 0
1801488804 -0.35574913024902344 -0.05041438341140747 0.007867435924708843 0.009284761734306812 0 0 0 0
1805210888 -0.3281082808971405 0.006955929100513458 0.010113198310136795 0.009597769938409328 0 0 0 0
1808932972 -0.29275622963905334 0.05796456336975098 0.013204876333475113 0.009186889976263046 0 0 0 0
1812655056 -0.24872440099716187 0.10218558460474014 0.01640787348151207 0.007119343616068363 0 0 0 0
1816377140 -0.19967831671237946 0.13921572268009186 0.01879182457923889 0.004019503481686115 0 0 0 0
1820099224 -0.14410412311553955 0.16793137788772583 0.02059098333120346 0.00046574976295232773 0 0 0 0
1823821308 -0.0860467180609703 0.18535497784614563 0.021570082753896713 -0.004202032461762428 0 0 0 0
1827543392 -0.02812756411731243 0.19316360354423523 0.0213629063218832 -0.008780399337410927 0 0 0 0
1831265476 0.029951516538858414 0.19175520539283752 0.01976424641907215 -0.013560524210333824 0 0 0 0
1834987560 0.08474164456129074 0.18033763766288757 0.017263907939195633 -0.017954200506210327 0 0 0 0
1838709644 0.1354954093694687 0.1634771227836609 0.013177072629332542 -0.021866358816623688 0 0 0 0
1842431728 0.18447044491767883 0.1379113346338272 0.008192640729248524 -0.023974336683750153 0 0 0 0
1846153812 0.2272963523864746 0.10482487082481384 0.0035814186558127403 -0.024402182549238205 0 0 0 0
1849875896 0.26287075877189636 0.06741281598806381 -0.0003078123554587364 -0.024675600230693817 0 0 0 0
1853597980 0.29131531715393066 0.021127134561538696 -0.004488232545554638 -0.02473938651382923 0 0 0 0
1857320064 0.3107219636440277 -0.022493131458759308 -0.008775724098086357 -0.023922188207507133 0 0 0 0
1861042148 0.32174646854400635 -0.07321834564208984 -0.013076521456241608 -0.022469615563750267 0 0 0 0
1864764232 0.3238927721977234 -0.11870604753494263 -0.016635393723845482 -0.020533723756670952 0 0 0 0
1868486316 0.3185628354549408 -0.1649802178144455 -0.020592916756868362 -0.017990505322813988 0 0 0 0
1872208400 0.3046794831752777 -0.20837083458900452 -0.02420249953866005 -0.01433546468615532 0 0 0 0
1875930484 0.2855878174304962 -0.24609513580799103 -0.027230728417634964 -0.00990570429712534 0 0 0 0
1879652568 0.2592752277851105 -0.2800005376338959 -0.028885571286082268 -0.004264265298843384 0 0 0 0
1883374652 0.22973501682281494 -0.3072932958602905 -0.029198411852121353 0.00136567372828722 0 0 0 0
1887096736 0.19597217440605164 -0.3280329406261444 -0.0277519803494215 0.006820539012551308 0 0 0 0
1890818820 0.16368545591831207 -0.34086287021636963 -0.025768674910068512 0.01077724527567625 0 0 0 0
1894540904 0.12951800227165222 -0.3499656915664673 -0.023934105411171913 0.014167828485369682 0 0 0 0
1898262988 0.09750279784202576 -0.352433443069458 -0.022237887606024742 0.01799713261425495 0 0 0 0
1901985072 0.061740294098854065 -0.3505249619483948 -0.01939135603606701 0.021960431709885597 0 0 0 0
1905707156 0.029062539339065552 -0.34093019366264343 -0.016028037294745445 0.02547379583120346 0 0 0 0
1909429240 -0.0005030333995819092 -0.32823678851127625 -0.01142963394522667 0.028753630816936493 0 0 0 0
1913151324 -0.02782362513244152 -0.30983200669288635 -0.005939142778515816 0.03082186169922352 0 0 0 0
1916873408 -0.050446219742298126 -0.2877205014228821 -0.0005530081689357758 0.03193063661456108 0 0 0 0
1920595492 -0.06735849380493164 -0.2614668011665344 0.005163469351828098 0.032353658229112625 0 0 0 0
1924317576 -0.07947000116109848 -0.23262709379196167 0.011371219530701637 0.032079748809337616 0 0 0 0
1928039660 -0.0868324339389801 -0.20158125460147858 0.01841925084590912 0.030192404985427856 0 0 0 0
1931761744 -0.08588232100009918 -0.1708722859621048 0.02556411363184452 0.026021400466561317 0 0 0 0
1935483828 -0.07938358187675476 -0.1420406699180603 0.03137778490781784 0.019357968121767044 0 0 0 0
1939205912 -0.06790980696678162 -0.11619061231613159 0.034485556185245514 0.011074461974203587 0 0 0 0
1942927996 -0.05211344733834267 -0.09447553008794785 0.03453173115849495 0.0030160071328282356 0 0 0 0
1946650080 -0.03502875193953514 -0.07708638906478882 0.03261207789182663 -0.003675597719848156 0 0 0 0
1950372164 -0.01620439626276493 -0.06230076402425766 0.030292294919490814 -0.00938892550766468 0 0 0 0
1954094248 0.005309908650815487 -0.05024344474077225 0.027297519147396088 -0.014260048046708107 0 0 0 0
1957816332 0.027882739901542664 -0.042139507830142975 0.02363179437816143 -0.018475458025932312 0 0 0 0
1961538416 0.05224289745092392 -0.03811831772327423 0.01883351430296898 -0.021776685491204262 0 0 0 0
1965260500 0.07591468095779419 -0.037990033626556396 0.014428647235035896 -0.023267731070518494 0 0 0 0
1968982584 0.10043943673372269 -0.042645446956157684 0.010132875293493271 -0.02414511702954769 0 0 0 0
1972704668 0.12289859354496002 -0.0522257424890995 0.006729313172399998 -0.02495213970541954 0 0 0 0
1976426752 0.1435011476278305 -0.06533888727426529 0.003152945078909397 -0.026067208498716354 0 0 0 0
1980148836 0.1610543429851532 -0.08325304090976715 -0.0013013649731874466 -0.026688458397984505 0 0 0 0
1983870920 0.17497645318508148 -0.10286664962768555 -0.0060720304027199745 -0.02693348377943039 0 0 0 0
1987593004 0.18204481899738312 -0.1261766403913498 -0.011157173663377762 -0.0254968274384737 0 0 0 0
1991315088 0.18521156907081604 -0.14876750111579895 -0.015535731799900532 -0.023084716871380806 0 0 0 0
1995037172 0.1864839494228363 -0.1692614108324051 -0.019500482827425003 -0.020249392837285995 0 0 0 0
1998759256 0.18238762021064758 -0.1913726031780243 -0.023088697344064713 -0.01632694900035858 0 0 0 0
2002481340 0.17723065614700317 -0.21070440113544464 -0.02584129199385643 -0.01159269455820322 0 0 0 0
2006203424 0.16825821995735168 -0.23010072112083435 -0.02742527797818184 -0.006442021578550339 0 0 0 0
2009925508 0.15445315837860107 -0.2475782185792923 -0.027508292347192764 -0.0014384714886546135 0 0 0 0
2013647592 0.13818995654582977 -0.26300641894340515 -0.02751452662050724 0.0034479107707738876 0 0 0 0
2017369676 0.11991697549819946 -0.27587923407554626 -0.026545710861682892 0.008475195616483688 0 0 0 0
2021091760 0.09985260665416718 -0.28470170497894287 -0.02438327483832836 0.013061069883406162 0 0 0 0
2024813844 0.07738488912582397 -0.2897321581840515 -0.021495066583156586 0.016753358766436577 0 0 0 0
2028535928 0.054828472435474396 -0.2901344299316406 -0.017377665266394615 0.020026080310344696 0 0 0 0
2032258012 0.029662884771823883 -0.28764575719833374 -0.013393780216574669 0.02247929759323597 0 0 0 0
2035980096 0.010524801909923553 -0.28059449791908264 -0.009208748117089272 0.024135688319802284 0 0 0 0
2039702180 -0.012450054287910461 -0.27065080404281616 -0.0049071768298745155 0.025201138108968735 0 0 0 0
2043424264 -0.032564952969551086 -0.25752347707748413 -0.0011933883652091026 0.02504301257431507 0 0 0 0
2047146348 -0.049818284809589386 -0.2413797378540039 0.00263231061398983 0.024590423330664635 0 0 0 0
2050868432 -0.0666753277182579 -0.22089488804340363 0.006205008365213871 0.023490026593208313 0 0 0 0
2054590516 -0.07881081104278564 -0.19823190569877625 0.009584197774529457 0.022074902430176735 0 0 0 0
2058312600 -0.08545361459255219 -0.17328831553459167 0.013142382726073265 0.020634585991501808 0 0 0 0
2062034684 -0.09001238644123077 -0.1468883752822876 0.016483742743730545 0.01837781071662903 0 0 0 0
2065756768 -0.0901259034872055 -0.11900992691516876 0.01980535499751568 0.01532837562263012 0 0 0 0
2069478852 -0.08700907975435257 -0.0922069251537323 0.022362222895026207 0.011401180177927017 0 0 0 0
2073200936 -0.07724028825759888 -0.06597430258989334 0.023668069392442703 0.007224678993225098 0 0 0 0
2076923020 -0.06589891761541367 -0.04070209339261055 0.024254070594906807 0.002584618516266346 0 0 0 0
2080645104 -0.04976152256131172 -0.01646931655704975 0.023715108633041382 -0.002028503455221653 0 0 0 0
2084367188 -0.02959238365292549 0.005074625834822655 0.02225988730788231 -0.005998740904033184 0 0 0 0
2088089272 -0.005866317078471184 0.023596186190843582 0.02020725980401039 -0.009092985652387142 0 0 0 0
2091811356 0.020756714046001434 0.03888435289263725 0.0179753378033638 -0.011847835034132004 0 0 0 0
2095533440 0.049244605004787445 0.04981942102313042 0.015780840069055557 -0.014215213246643543 0 0 0 0
2099255524 0.08081963658332825 0.057570043951272964 0.013614143244922161 -0.0161585696041584 0 0 0 0
2102977608 0.11487475037574768 0.05980104207992554 0.010780236683785915 -0.018052097409963608 0 0 0 0
2106699692 0.14986595511436462 0.0553392618894577 0.008116764947772026 -0.019504092633724213 0 0 0 0
2110421776 0.18394562602043152 0.04414970427751541 0.0047806622460484505 -0.021081531420350075 0 0 0 0
2114143860 0.2158692330121994 0.02569723129272461 0.0008232444524765015 -0.022169940173625946 0 0 0 0
2117865944 0.24371738731861115 0.0032686442136764526 -0.0034363437443971634 -0.02220764383673668 0 0 0 0
2121588028 0.26550179719924927 -0.02455747127532959 -0.00797693058848381 -0.021090487018227577 0 0 0 0
2125310112 0.2818468511104584 -0.057050518691539764 -0.0120115727186203 -0.018695365637540817 0 0 0 0
2129032196 0.2928868234157562 -0.0877051055431366 -0.014968551695346832 -0.015846479684114456 0 0 0 0
2132754280 0.2982025742530823 -0.11918500065803528 -0.017377395182847977 -0.012514552101492882 0 0 0 0
2136476364 0.29981034994125366 -0.15165987610816956 -0.019365431740880013 -0.00867406651377678 0 0 0 0
2140198448 0.29680582880973816 -0.18328088521957397 -0.020116591826081276 -0.004015902057290077 0 0 0 0
2143920532 0.2877655625343323 -0.21304789185523987 -0.018983282148838043 0.0003221314400434494 0 0 0 0
2147642616 0.2753673195838928 -0.24258460104465485 -0.017129801213741302 0.002774558961391449 0 0 0 0
2151364700 0.25879964232444763 -0.27026861906051636 -0.01577369123697281 0.00439108069986105 0 0 0 0
2155086784 0.23893742263317108 -0.2905130982398987 -0.01466830912977457 0.005754094570875168 0 0 0 0
2158808868 0.21039706468582153 -0.3123909533023834 -0.01393016055226326 0.007404022850096226 0 0 0 0
2162530952 0.18614888191223145 -0.3254820704460144 -0.013479163870215416 0.009007369168102741 0 0 0 0
2166253036 0.15507051348686218 -0.33807986974716187 -0.012338602915406227 0.01137368194758892 0 0 0 0
2169975120 0.1236606314778328 -0.3445299565792084 -0.010622760280966759 0.013917403295636177 0 0 0 0
2173697204 0.09594102203845978 -0.34578925371170044 -0.007851894944906235 0.01570279896259308 0 0 0 0
2177419288 0.06248648464679718 -0.3440614938735962 -0.0049783214926719666 0.016592133790254593 0 0 0 0
2181141372 0.034291911870241165 -0.33361324667930603 -0.0022370247170329094 0.01688559353351593 0 0 0 0
2184863456 0.005890831351280212 -0.321093887090683 0.0004713907837867737 0.016775717958807945 0 0 0 0
2188585540 -0.0199740007519722 -0.3018351197242737 0.002882121130824089 0.01666106842458248 0 0 0 0
2192307624 -0.04398500546813011 -0.2800709307193756 0.005789407528936863 0.016187889501452446 0 0 0 0
2196029708 -0.06205134093761444 -0.2545938193798065 0.008736945688724518 0.015070749446749687 0 0 0 0
2199751792 -0.07399925589561462 -0.2273145318031311 0.011429817415773869 0.013458287343382835 0 0 0 0
2203473876 -0.08256300538778305 -0.19868174195289612 0.013926733285188675 0.011077052913606167 0 0 0 0
2207195960 -0.0898025780916214 -0.16842979192733765 0.015569555573165417 0.00816121231764555 0 0 0 0
2210918044 -0.0866227075457573 -0.14032968878746033 0.016587913036346436 0.00511823408305645 0 0 0 0
2214640128 -0.0854286178946495 -0.10813421756029129 0.016994338482618332 0.0018168454989790916 0 0 0 0
2218362212 -0.0782167911529541 -0.0769684761762619 0.016569795086979866 -0.0015213657170534134 0 0 0 0
2222084296 -0.0639333724975586 -0.04745219647884369 0.015714209526777267 -0.004551163874566555 0 0 0 0
2225806380 -0.04426833987236023 -0.018022257834672928 0.014262890443205833 -0.007365676574409008 0 0 0 0
2229528464 -0.017744701355695724 0.005204701796174049 0.012207543477416039 -0.009637713432312012 0 0 0 0
2233250548 0.013148423284292221 0.022553173825144768 0.009615402668714523 -0.011324062943458557 0 0 0 0
2236972632 0.04570490121841431 0.033536288887262344 0.007460133172571659 -0.012438871897757053 0 0 0 0
2240694716 0.07984854280948639 0.038709186017513275 0.004949163645505905 -0.013128066435456276 0 0 0 0
2244416800 0.11402475833892822 0.03717062249779701 0.0026068752631545067 -0.01333770714700222 0 0 0 0
2248138884 0.14717832207679749 0.02713390812277794 0.00038149114698171616 -0.013333980925381184 0 0 0 0
2251860968 0.1773957461118698 0.014931238256394863 -0.001826416701078415 -0.013615130446851254 0 0 0 0
2255583052 0.20386902987957 -0.003743007779121399 -0.004410397261381149 -0.012904373928904533 0 0 0 0
2259305136 0.2263808250427246 -0.030449027195572853 -0.006677858531475067 -0.011058514006435871 0 0 0 0
2263027220 0.2425708770751953 -0.05891524255275726 -0.007856897078454494 -0.008878284133970737 0 0 0 0
2266749304 0.254145085811615 -0.08226115256547928 -0.007971408776938915 -0.006816243752837181 0 0 0 0
2270471388 0.2559034526348114 -0.11605239659547806 -0.007599263451993465 -0.005703764036297798 0 0 0 0
2274193472 0.25577396154403687 -0.1405249536037445 -0.0075632743537425995 -0.004970851354300976 0 0 0 0
2277915556 0.25238555669784546 -0.16577814519405365 -0.007713714614510536 -0.004711462184786797 0 0 0 0
2281637640 0.23993003368377686 -0.19605085253715515 -0.008124207146465778 -0.0045046694576740265 0 0 0 0
2285359724 0.2291625589132309 -0.2179608941078186 -0.00927774142473936 -0.004118246957659721 0 0 0 0
2289081808 0.21196192502975464 -0.23956340551376343 -0.010281575843691826 -0.003162642940878868 0 0 0 0
2292803892 0.1908288598060608 -0.2585179805755615 -0.01110550295561552 -0.0021521057933568954 0 0 0 0
2296525976 0.16798223555088043 -0.2703263759613037 -0.012239004485309124 -0.0002739783376455307 0 0 0 0
2300248060 0.13790374994277954 -0.28192296624183655 -0.01265640463680029 0.0017080726101994514 0 0 0 0
2303970144 0.11768829077482224 -0.2846488356590271 -0.012170491740107536 0.004151902161538601 0 0 0 0
2307692228 0.0931347906589508 -0.2830047905445099 -0.011357774958014488 0.0058024246245622635 0 0 0 0
2311414312 0.06590721011161804 -0.27971917390823364 -0.010381476953625679 0.007233121432363987 0 0 0 0
2315136396 0.035122763365507126 -0.27091655135154724 -0.00894402340054512 0.008691422641277313 0 0 0 0
2318858480 0.018148109316825867 -0.2576740086078644 -0.007602697238326073 0.009795011021196842 0 0 0 0
2322580564 -0.009213481098413467 -0.2396516650915146 -0.005865683779120445 0.0105231162160635 0 0 0 0
2326302648 -0.028510376811027527 -0.2179219126701355 -0.004370621405541897 0.011110585182905197 0 0 0 0
2330024732 -0.03342229872941971 -0.19439402222633362 -0.0031400155276060104 0.011302248574793339 0 0 0 0
2333746816 -0.04941348358988762 -0.16713717579841614 -0.0014209821820259094 0.011814211495220661 0 0 0 0
2337468900 -0.05450325086712837 -0.13807234168052673 0.00038517359644174576 0.011819204315543175 0 0 0 0
2341190984 -0.05294284597039223 -0.10809330642223358 0.002200794406235218 0.011516805738210678 0 0 0 0
2344913068 -0.04608531296253204 -0.07892915606498718 0.0039407601580023766 0.010674161836504936 0 0 0 0
2348635152 -0.03496718034148216 -0.050475187599658966 0.005546383559703827 0.0090797059237957 0 0 0 0
2352357236 -0.018074020743370056 -0.02475907653570175 0.00618643406778574 0.007857215590775013 0 0 0 0
2356079320 0.0039146458730101585 -0.0019411100074648857 0.006933013908565044 0.0064874496310949326 0 0 0 0
2359801404 0.028987716883420944 0.015467742457985878 0.007813246920704842 0.005170001648366451 0 0 0 0
2363523488 0.05637040361762047 0.02752172201871872 0.0082005076110363 0.0035363761708140373 0 0 0 0
2367245572 0.08450116217136383 0.034723371267318726 0.008152841590344906 0.001722332090139389 0 0 0 0
2370967656 0.1126658171415329 0.037685930728912354 0.007347367703914642 8.795689791440964e-05 0 0 0 0
2374689740 0.14165405929088593 0.03862505778670311 0.006233599036931992 -0.001113077625632286 0 0 0 0
2378411824 0.17014183104038239 0.03260183706879616 0.004818016663193703 -0.0017935140058398247 0 0 0 0
2382133908 0.19995766878128052 0.02552047371864319 0.0036390358582139015 -0.0015236912295222282 0 0 0 0
2385855992 0.22870615124702454 0.010742150247097015 0.0029393257573246956 -0.0012568682432174683 0 0 0 0
2389578076 0.2536067068576813 -0.010234937071800232 0.0028037382289767265 -0.0008323695510625839 0 0 0 0
2393300160 0.2745779752731323 -0.03592880815267563 0.0029404889792203903 -0.0006439648568630219 0 0 0 0
2397022244 0.291681706905365 -0.06062202900648117 0.0032366281375288963 -0.0008543031290173531 0 0 0 0
2400744328 0.3015558421611786 -0.09547579288482666 0.0030486611649394035 -0.001323743723332882 0 0 0 0
2404466412 0.309215784072876 -0.1251659244298935 0.002857374958693981 -0.0017355484887957573 0 0 0 0
2408188496 0.30922120809555054 -0.15876220166683197 0.0027323560789227486 -0.0019027777016162872 0 0 0 0
2411910580 0.3028605878353119 -0.18882349133491516 0.0022269245237112045 -0.002530124969780445 0 0 0 0
2415632664 0.29431769251823425 -0.21925126016139984 0.0015883268788456917 -0.0028632786124944687 0 0 0 0
2419354748 0.2793215215206146 -0.24516133964061737 0.0006224913522601128 -0.0028954604640603065 0 0 0 0
2423076832 0.2576417028903961 -0.2728177309036255 5.713850259780884e-05 -0.002467680722475052 0 0 0 0
2426798916 0.2347623109817505 -0.2927749454975128 -0.0008601397275924683 -0.001299477182328701 0 0 0 0
2430521000 0.21012872457504272 -0.3091095983982086 -0.0005275392904877663 -0.0014775404706597328 0 0 0 0
2434243084 0.18480795621871948 -0.3214080333709717 -0.0002999585121870041 -0.0009836982935667038 0 0 0 0
2437965168 0.160010427236557 -0.3282927870750427 0.00023278407752513885 -0.0006722239777445793 0 0 0 0
2441687252 0.13202032446861267 -0.3344641327857971 0.0010251402854919434 -0.0008285855874419212 0 0 0 0
2445409336 0.1025550588965416 -0.3369247317314148 0.0012755123898386955 -0.0014679450541734695 0 0 0 0
2449131420 0.07182836532592773 -0.33511266112327576 0.0014178669080138206 -0.0023709293454885483 0 0 0 0
2452853504 0.04439448565244675 -0.3297382593154907 0.0008240034803748131 -0.0030776113271713257 0 0 0 0
2456575588 0.01600358635187149 -0.3189508616924286 0.0002895668148994446 -0.0035873958840966225 0 0 0 0
2460297672 -0.014008114114403725 -0.3018242120742798 -0.00046983547508716583 -0.0038852794095873833 0 0 0 0
2464019756 -0.03616322576999664 -0.28283318877220154 -0.0010217893868684769 -0.003810419701039791 0 0 0 0
2467741840 -0.0585346519947052 -0.25964850187301636 -0.001521589234471321 -0.003930297680199146 0 0 0 0
2471463924 -0.07538961619138718 -0.23244595527648926 -0.0019747745245695114 -0.003930552862584591 0 0 0 0
2475186008 -0.08996960520744324 -0.20248259603977203 -0.0026819799095392227 -0.0038658343255519867 0 0 0 0
2478908092 -0.09720195084810257 -0.1692560911178589 -0.0033145640045404434 -0.003794996067881584 0 0 0 0
2482630176 -0.09842493385076523 -0.13576443493366241 -0.003878885880112648 -0.0035413308069109917 0 0 0 0
2486352260 -0.09431267529726028 -0.10245995223522186 -0.004505686461925507 -0.0031320257112383842 0 0 0 0
2490074344 -0.08534064888954163 -0.07094039022922516 -0.004931212402880192 -0.002670319750905037 0 0 0 0
2493796428 -0.07046358287334442 -0.04374123364686966 -0.005205688998103142 -0.0025737592950463295 0 0 0 0
2497518512 -0.052827488631010056 -0.018300319090485573 -0.005971137434244156 -0.0022803936153650284 0 0 0 0
2501240596 -0.03169681131839752 0.003186998888850212 -0.006720744073390961 -0.0017766272649168968 0 0 0 0
2504962680 -0.007762358523905277 0.022065401077270508 -0.007498708553612232 -0.0008846605196595192 0 0 0 0
2508684764 0.018696939572691917 0.03622395917773247 -0.0081862211227417 0.0003182096406817436 0 0 0 0
2512406848 0.04660198092460632 0.04613400250673294 -0.008551612496376038 0.0018936702981591225 0 0 0 0
2516128932 0.07595275342464447 0.05141450837254524 -0.008441546931862831 0.0033294279128313065 0 0 0 0
2519851016 0.1046832948923111 0.05383903533220291 -0.007992497645318508 0.005107889883220196 0 0 0 0
2523573100 0.13365614414215088 0.04992346093058586 -0.00660776998847723 0.0067115891724824905 0 0 0 0
2527295184 0.162276953458786 0.0402463898062706 -0.005112486891448498 0.007534446194767952 0 0 0 0
2531017268 0.18846897780895233 0.028328027576208115 -0.0039908392354846 0.007881313562393188 0 0 0 0
2534739352 0.21125982701778412 0.012622199952602386 -0.0026773810386657715 0.008156288415193558 0 0 0 0
2538461436 0.23078632354736328 -0.00845908373594284 -0.0013168584555387497 0.008311470970511436 0 0 0 0
2542183520 0.24548625946044922 -0.032629966735839844 -2.9140152037143707e-05 0.00820107851177454 0 0 0 0
2545905604 0.2561037838459015 -0.05870869755744934 0.0010612821206450462 0.008008443750441074 0 0 0 0
2549627688 0.26209908723831177 -0.082438163459301 0.0020913593471050262 0.007586906664073467 0 0 0 0
2553349772 0.26508814096450806 -0.10771678388118744 0.0029195602983236313 0.0072571467608213425 0 0 0 0
2557071856 0.26309967041015625 -0.13136965036392212 0.003933369182050228 0.006652813404798508 0 0 0 0
2560793940 0.2568628787994385 -0.1537408083677292 0.00471179373562336 0.006026559509336948 0 0 0 0
2564516024 0.2462363988161087 -0.17536012828350067 0.005483619868755341 0.005285909399390221 0 0 0 0
2568238108 0.23485909402370453 -0.19236308336257935 0.006305285729467869 0.0047671375796198845 0 0 0 0
2571960192 0.22011913359165192 -0.20795030891895294 0.007257632911205292 0.003942140378057957 0 0 0 0
2575682276 0.20523568987846375 -0.2186661660671234 0.008374464698135853 0.0026590293273329735 0 0 0 0
2579404360 0.18996456265449524 -0.22723402082920074 0.008999512530863285 0.000988760031759739 0 0 0 0
2583126444 0.17464019358158112 -0.2334565669298172 0.009140748530626297 -0.0010128216817975044 0 0 0 0
2586848528 0.15785840153694153 -0.23823997378349304 0.008890431374311447 -0.003074212931096554 0 0 0 0
2590570612 0.14079338312149048 -0.240487739443779 0.007945805788040161 -0.0047808242961764336 0 0 0 0
2594292696 0.12730036675930023 -0.23836708068847656 0.006849600002169609 -0.0062304167076945305 0 0 0 0
2598014780 0.11205445230007172 -0.2356051355600357 0.005449691787362099 -0.007180526852607727 0 0 0 0
2601736864 0.09738153219223022 -0.23203620314598083 0.0038601355627179146 -0.008236494846642017 0 0 0 0
2605458948 0.08607341349124908 -0.2248678207397461 0.0023064231500029564 -0.00854487344622612 0 0 0 0
2609181032 0.07670772820711136 -0.21695688366889954 0.0010094279423356056 -0.008563078939914703 0 0 0 0
2612903116 0.06552990525960922 -0.20800817012786865 -0.00017345882952213287 -0.00840596854686737 0 0 0 0
2616625200 0.05796518549323082 -0.19890299439430237 -0.0009753508493304253 -0.008212238550186157 0 0 0 0
2620347284 0.05498757213354111 -0.18829548358917236 -0.0016359658911824226 -0.008165446110069752 0 0 0 0
2624069368 0.050252463668584824 -0.17803145945072174 -0.002611403353512287 -0.008269578218460083 0 0 0 0
2627791452 0.052422769367694855 -0.1672772765159607 -0.00329013355076313 -0.007890577428042889 0 0 0 0
2631513536 0.050793685019016266 -0.1579752117395401 -0.0042856913059949875 -0.007749670185148716 0 0 0 0
2635235620 0.05083305761218071 -0.14950492978096008 -0.005253400653600693 -0.007452028803527355 0 0 0 0
2638957704 0.05396442115306854 -0.1392839401960373 -0.006529464386403561 -0.007042855955660343 0 0 0 0
2642679788 0.05747883766889572 -0.1324964463710785 -0.007807458750903606 -0.006377182900905609 0 0 0 0
2646401872 0.0643974244594574 -0.12679819762706757 -0.008910121396183968 -0.005552360787987709 0 0 0 0
2650123956 0.07040394842624664 -0.12161742150783539 -0.010148138739168644 -0.004343729466199875 0 0 0 0
2653846040 0.07761264592409134 -0.11920017749071121 -0.011318029835820198 -0.0031348560005426407 0 0 0 0
2657568124 0.08424347639083862 -0.11797358095645905 -0.012323928996920586 -0.001020609401166439 0 0 0 0
2661290208 0.0920671746134758 -0.11907539516687393 -0.012897093780338764 0.0015209447592496872 0 0 0 0
2665012292 0.098508320748806 -0.12128661572933197 -0.012360095977783203 0.004033553414046764 0 0 0 0
2668734376 0.10342209041118622 -0.12517163157463074 -0.011309952475130558 0.006399374455213547 0 0 0 0
2672456460 0.10700267553329468 -0.12952376902103424 -0.009959128685295582 0.008353004232048988 0 0 0 0
2676178544 0.10723210126161575 -0.13422232866287231 -0.008208002895116806 0.010101791471242905 0 0 0 0
2679900628 0.10884575545787811 -0.1384710669517517 -0.0059077925980091095 0.011487888172268867 0 0 0 0
2683622712 0.10885007679462433 -0.14288371801376343 -0.0034109437838196754 0.012202470563352108 0 0 0 0
2687344796 0.1085224449634552 -0.146670401096344 -0.0007790764793753624 0.012223619036376476 0 0 0 0
2691066880 0.10705293715000153 -0.15264345705509186 0.0015477938577532768 0.01174594834446907 0 0 0 0
2694788964 0.1046571433544159 -0.15637387335300446 0.003687797114253044 0.010648930445313454 0 0 0 0
2698511048 0.10167644172906876 -0.1607850044965744 0.0050984956324100494 0.00928923487663269 0 0 0 0
2702233132 0.09770786017179489 -0.16685961186885834 0.00621370691806078 0.008128655143082142 0 0 0 0
2705955216 0.09289191663265228 -0.17180819809436798 0.00743836909532547 0.007101953029632568 0 0 0 0
2709677300 0.08616400510072708 -0.17583513259887695 0.008496573194861412 0.0057987309992313385 0 0 0 0
2713399384 0.07726584374904633 -0.17862734198570251 0.009714583866298199 0.004381971433758736 0 0 0 0
2717121468 0.06656210124492645 -0.17858806252479553 0.01055548619478941 0.0024631721898913383 0 0 0 0
2720843552 0.05695481225848198 -0.17769841849803925 0.011175710707902908 -0.00010497309267520905 0 0 0 0
2724565636 0.04608789086341858 -0.1741541624069214 0.010908680036664009 -0.0023755449801683426 0 0 0 0
2728287720 0.03583855181932449 -0.16844263672828674 0.010066322982311249 -0.004814072512090206 0 0 0 0
2732009804 0.02700052410364151 -0.16054287552833557 0.008709045127034187 -0.006545812822878361 0 0 0 0
2735731888 0.0177876316010952 -0.15022628009319305 0.007231363095343113 -0.008061246946454048 0 0 0 0
2739453972 0.011456262320280075 -0.138131782412529 0.00540254358202219 -0.009232558310031891 0 0 0 0
2743176056 0.0059987567365169525 -0.12360145151615143 0.0035575516521930695 -0.010211266577243805 0 0 0 0
2746898140 0.0032426752150058746 -0.10886170715093613 0.0016686460003256798 -0.010705381631851196 0 0 0 0
2750620224 0.005394551903009415 -0.09380364418029785 -0.0005254596471786499 -0.010990405455231667 0 0 0 0
2754342308 0.008422888815402985 -0.07764885574579239 -0.002652960829436779 -0.010724292136728764 0 0 0 0
2758064392 0.01520528644323349 -0.0628504529595375 -0.004844363778829575 -0.009783105924725533 0 0 0 0
2761786476 0.0243997722864151 -0.048507366329431534 -0.006536111235618591 -0.008613744750618935 0 0 0 0
2765508560 0.03522360324859619 -0.03722899779677391 -0.008221931755542755 -0.006969022564589977 0 0 0 0
2769230644 0.047995876520872116 -0.0272102989256382 -0.009233993478119373 -0.004902089014649391 0 0 0 0
2772952728 0.06306876242160797 -0.018256358802318573 -0.009789517149329185 -0.0030161747708916664 0 0 0 0
2776674812 0.07897474616765976 -0.013222374953329563 -0.010021010413765907 -0.0010545672848820686 0 0 0 0
2780396896 0.09563145786523819 -0.010568887926638126 -0.009776134975254536 0.0009586401283740997 0 0 0 0
2784118980 0.1123274639248848 -0.008763504214584827 -0.009378268383443356 0.0027289018034934998 0 0 0 0
2787841064 0.12935270369052887 -0.009958736598491669 -0.008477606810629368 0.005041439086198807 0 0 0 0
2791563148 0.14764437079429626 -0.013521607965230942 -0.006907342001795769 0.0068870168179273605 0 0 0 0
2795285232 0.16456246376037598 -0.019670739769935608 -0.0047286273911595345 0.007936514914035797 0 0 0 0
2799007316 0.18021315336227417 -0.028434298932552338 -0.0024078013375401497 0.008298859000205994 0 0 0 0
2802729400 0.1953122466802597 -0.040339112281799316 -0.00041657406836748123 0.007981802336871624 0 0 0 0
2806451484 0.20916464924812317 -0.054406777024269104 0.0011614048853516579 0.007390836253762245 0 0 0 0
2810173568 0.22042176127433777 -0.0692136362195015 0.0025009838864207268 0.0066089630126953125 0 0 0 0
2813895652 0.23229849338531494 -0.08435766398906708 0.0036408649757504463 0.005714204162359238 0 0 0 0
2817617736 0.23785626888275146 -0.10569965839385986 0.004533178173005581 0.0046677542850375175 0 0 0 0
2821339820 0.24148553609848022 -0.12809786200523376 0.005075088702142239 0.00347928237169981 0 0 0 0
2825061904 0.24349695444107056 -0.14784856140613556 0.005233604460954666 0.002575402148067951 0 0 0 0
2828783988 0.24111968278884888 -0.16816478967666626 0.005419460125267506 0.001903058961033821 0 0 0 0
2832506072 0.2382613718509674 -0.18795889616012573 0.005956694483757019 0.000949762761592865 0 0 0 0
2836228156 0.23361214995384216 -0.20705237984657288 0.006136163137853146 -0.0001881532371044159 0 0 0 0
2839950240 0.22127258777618408 -0.23061230778694153 0.0060957372188568115 -0.0013929056003689766 0 0 0 0
2843672324 0.21267646551132202 -0.24803054332733154 0.005851533263921738 -0.002438855357468128 0 0 0 0
2847394408 0.19548243284225464 -0.2660899758338928 0.005409063771367073 -0.0035185497254133224 0 0 0 0
2851116492 0.17780792713165283 -0.282880574464798 0.0049767689779400826 -0.004500118084251881 0 0 0 0
2854838576 0.15753424167633057 -0.2952863872051239 0.004221404902637005 -0.005522334948182106 0 0 0 0
2858560660 0.13891401886940002 -0.306406706571579 0.0034090420231223106 -0.0067719221115112305 0 0 0 0
2862282744 0.10842442512512207 -0.31655940413475037 0.0017659300938248634 -0.007545075379312038 0 0 0 0
2866004828 0.09156295657157898 -0.31775397062301636 0.00022192485630512238 -0.007798649370670319 0 0 0 0
2869726912 0.07048619538545609 -0.3188753128051758 -0.0012876829132437706 -0.007635471411049366 0 0 0 0
2873448996 0.04152347147464752 -0.31716781854629517 -0.0027526794001460075 -0.0069505395367741585 0 0 0 0
2877171080 0.014232337474822998 -0.31201672554016113 -0.004182570613920689 -0.006018257699906826 0 0 0 0
2880893164 -0.009554281830787659 -0.3034762144088745 -0.004991903901100159 -0.004676761105656624 0 0 0 0
2884615248 -0.031826961785554886 -0.2917401194572449 -0.005421237088739872 -0.0035483036190271378 0 0 0 0
2888337332 -0.05274278670549393 -0.27748483419418335 -0.005486064590513706 -0.0023254137486219406 0 0 0 0
2892059416 -0.07171811163425446 -0.2607235014438629 -0.005455058999359608 -0.001246369443833828 0 0 0 0
2895781500 -0.09023728221654892 -0.23913222551345825 -0.005378479138016701 -0.00034561939537525177 0 0 0 0
2899503584 -0.10171780735254288 -0.21764668822288513 -0.005295482464134693 0.0005681272596120834 0 0 0 0
2903225668 -0.11596019566059113 -0.19320669770240784 -0.004731079563498497 0.0015738168731331825 0 0 0 0
2906947752 -0.12515276670455933 -0.167018324136734 -0.00406547449529171 0.002615981735289097 0 0 0 0
2910669836 -0.12954096496105194 -0.13943536579608917 -0.003331175073981285 0.0033774832263588905 0 0 0 0
2914391920 -0.1316525787115097 -0.110240139067173 -0.0023282449692487717 0.0038835639134049416 0 0 0 0
2918114004 -0.12767408788204193 -0.0827571451663971 -0.001209891401231289 0.004173044115304947 0 0 0 0
2921836088 -0.1210397332906723 -0.056666839867830276 -0.00026357825845479965 0.004184026271104813 0 0 0 0
2925558172 -0.11153852939605713 -0.030268680304288864 0.0007932372391223907 0.003833671100437641 0 0 0 0
2929280256 -0.09786943346261978 -0.003925107419490814 0.0015472304075956345 0.003428465686738491 0 0 0 0
2933002340 -0.08092294633388519 0.018072061240673065 0.0019837655127048492 0.002775615081191063 0 0 0 0
2936724424 -0.05976865068078041 0.03862502798438072 0.00233593862503767 0.002449409104883671 0 0 0 0
2940446508 -0.0371902734041214 0.05520603805780411 0.0024946145713329315 0.0019623618572950363 0 0 0 0
2944168592 -0.01199389062821865 0.06870900094509125 0.0028305500745773315 0.0016855774447321892 0 0 0 0
2947890676 0.01487547717988491 0.07912919670343399 0.0031834589317440987 0.0015167910605669022 0 0 0 0
2951612760 0.041638005524873734 0.08604057133197784 0.003367089666426182 0.0010594222694635391 0 0 0 0
2955334844 0.0687674880027771 0.08921770006418228 0.003726273775100708 0.0006080763414502144 0 0 0 0
2959056928 0.09806358814239502 0.08793139457702637 0.0039651477709412575 1.6600824892520905e-05 0 0 0 0
2962779012 0.12668168544769287 0.08174899220466614 0.004183296114206314 -0.0006782626733183861 0 0 0 0
2966501096 0.15332426130771637 0.0732189491391182 0.004240953363478184 -0.0013697957620024681 0 0 0 0
2970223180 0.17812363803386688 0.05830177664756775 0.004063550382852554 -0.002248138189315796 0 0 0 0
2973945264 0.20003780722618103 0.044072046875953674 0.003573775291442871 -0.0029981331899762154 0 0 0 0
2977667348 0.21967713534832 0.02388479746878147 0.003200642764568329 -0.0035124318674206734 0 0 0 0
2981389432 0.2357877641916275 0.00548379123210907 0.0025682030245661736 -0.004119592718780041 0 0 0 0
2985111516 0.24778760969638824 -0.020640335977077484 0.001814129762351513 -0.004527394659817219 0 0 0 0
2988833600 0.2565130889415741 -0.04487564414739609 0.0009456817060709 -0.0051115527749061584 0 0 0 0
2992555684 0.262344092130661 -0.06452719867229462 -0.00020766258239746094 -0.005207625217735767 0 0 0 0
2996277768 0.26427435874938965 -0.08869846165180206 -0.0014553191140294075 -0.005129190161824226 0 0 0 0
2999999852 0.26431533694267273 -0.11496715992689133 -0.0027709780260920525 -0.004436020739376545 0 0 0 0
