# HZ S RI R 50
1500000000 -0.07160748541355133 -0.08689029514789581 0.04601772502064705 -0.022095398977398872 0 0 0 0
1503722084 -0.07005199044942856 -0.06743484735488892 0.041947826743125916 -0.029774822294712067 0 0 0 0
1507444168 -0.06414681673049927 -0.04601280391216278 0.03634621575474739 -0.036730557680130005 0 0 0 0
1511166252 -0.05195649340748787 -0.02317863702774048 0.029569342732429504 -0.0430356003344059 0 0 0 0
1514888336 -0.0340254083275795 -0.0018894271925091743 0.020990796387195587 -0.048158515244722366 0 0 0 0
1518610420 -0.011049618944525719 0.01756083220243454 0.010825419798493385 -0.051462188363075256 0 0 0 0
1522332504 0.01744835637509823 0.033142611384391785 -1.9424594938755035e-05 -0.05168820917606354 0 0 0 0
1526054588 0.051224369555711746 0.04509677737951279 -0.010408909991383553 -0.04895482212305069 0 0 0 0
1529776672 0.08904529362916946 0.05108983814716339 -0.018807649612426758 -0.043608635663986206 0 0 0 0
1533498756 0.13046273589134216 0.04922026768326759 -0.02532198466360569 -0.03698057681322098 0 0 0 0
1537220840 0.1739531010389328 0.03825095295906067 -0.029590895399451256 -0.03000824525952339 0 0 0 0
1540942924 0.21601054072380066 0.017152871936559677 -0.0321364663541317 -0.022811325266957283 0 0 0 0
1544665008 0.2539515793323517 -0.010204732418060303 -0.03299497812986374 -0.016421353444457054 0 0 0 0
1548387092 0.2861204445362091 -0.047370679676532745 -0.0327637679874897 -0.010465055704116821 0 0 0 0
1552109176 0.31222039461135864 -0.08709082752466202 -0.03169550001621246 -0.005587897263467312 0 0 0 0
1555831260 0.33142024278640747 -0.13321880996227264 -0.030441157519817352 -0.0017211372032761574 0 0 0 0
1559553344 0.34528833627700806 -0.18139877915382385 -0.02960151433944702 0.0019433572888374329 0 0 0 0
1563275428 0.34703192114830017 -0.23448063433170319 -0.02818421460688114 0.006102078594267368 0 0 0 0
1566997512 0.341551810503006 -0.28833767771720886 -0.02554996684193611 0.010502585209906101 0 0 0 0
1570719596 0.3284475803375244 -0.3390016257762909 -0.02223597839474678 0.013363322243094444 0 0 0 0
1574441680 0.3061777353286743 -0.3893853425979614 -0.01872781664133072 0.015182491391897202 0 0 0 0
1578163764 0.27721837162971497 -0.4360598623752594 -0.01572422869503498 0.016022199764847755 0 0 0 0
1581885848 0.23866020143032074 -0.4790557324886322 -0.013018419966101646 0.016700463369488716 0 0 0 0
1585607932 0.1974256932735443 -0.5143938064575195 -0.010927672497928143 0.017138289287686348 0 0 0 0
1589330016 0.14742526412010193 -0.5447522401809692 -0.008659719489514828 0.01752728596329689 0 0 0 0
1593052100 0.09398166835308075 -0.5687931776046753 -0.006716489791870117 0.01758710853755474 0 0 0 0
1596774184 0.03622886538505554 -0.5829592347145081 -0.004975904710590839 0.01795022003352642 0 0 0 0
1600496268 -0.023518867790699005 -0.5906610488891602 -0.0031827855855226517 0.018497992306947708 0 0 0 0
1604218352 -0.08307445049285889 -0.588613748550415 -0.0010145483538508415 0.01896069198846817 0 0 0 0
1607940436 -0.1446181684732437 -0.5770196914672852 0.0014805281534790993 0.01904118061065674 0 0 0 0
1611662520 -0.208515465259552 -0.5556249022483826 0.003914514556527138 0.018964968621730804 0 0 0 0
1615384604 -0.26460278034210205 -0.5267586708068848 0.006638330407440662 0.018634915351867676 0 0 0 0
1619106688 -0.32153958082199097 -0.48461979627609253 0.009541528299450874 0.017610637471079826 0 0 0 0
1622828772 -0.3689419627189636 -0.4356757402420044 0.012323729693889618 0.01607676036655903 0 0 0 0
1626550856 -0.4084288477897644 -0.38285955786705017 0.014750706031918526 0.013976664282381535 0 0 0 0
1630272940 -0.4438249468803406 -0.31674981117248535 0.017145559191703796 0.01130489818751812 0 0 0 0
1633995024 -0.46947765350341797 -0.24464355409145355 0.018853187561035156 0.008286498486995697 0 0 0 0
1637717108 -0.48157572746276855 -0.17384439706802368 0.019757620990276337 0.0051418207585811615 0 0 0 0
1641439192 -0.4831950068473816 -0.09745174646377563 0.020435113459825516 0.0018150443211197853 0 0 0 0
1645161276 -0.4716797173023224 -0.02288297563791275 0.020475471392273903 -0.0017223479226231575 0 0 0 0
1648883360 -0.44889605045318604 0.051826998591423035 0.019586391746997833 -0.005190329626202583 0 0 0 0
1652605444 -0.41367122530937195 0.1233770102262497 0.018293065950274467 -0.008215615525841713 0 0 0 0
1656327528 -0.3685716688632965 0.18751047551631927 0.016467174515128136 -0.01089960802346468 0 0 0 0
1660049612 -0.31252723932266235 0.24609452486038208 0.0143362395465374 -0.013306268490850925 0 0 0 0
1663771696 -0.24526816606521606 0.29621005058288574 0.011953592300415039 -0.015757307410240173 0 0 0 0
1667493780 -0.17448005080223083 0.33392298221588135 0.0089759835973382 -0.017761755734682083 0 0 0 0
1671215864 -0.09153544902801514 0.361752986907959 0.005053198896348476 -0.01896817982196808 0 0 0 0
1674937948 -0.010743454098701477 0.3739709258079529 0.0011274395510554314 -0.019061973318457603 0 0 0 0
1678660032 0.07386968284845352 0.37321794033050537 -0.002404583618044853 -0.018059618771076202 0 0 0 0
1682382116 0.1542508900165558 0.35883384943008423 -0.005281329154968262 -0.016327403485774994 0 0 0 0
1686104200 0.23211055994033813 0.3349231779575348 -0.007276534102857113 -0.01440514251589775 0 0 0 0
1689826284 0.30433136224746704 0.29841119050979614 -0.008696873672306538 -0.012550746090710163 0 0 0 0
1693548368 0.37337595224380493 0.24721203744411469 -0.010197648778557777 -0.010728135704994202 0 0 0 0
1697270452 0.4305829405784607 0.19289061427116394 -0.011222847737371922 -0.008724658749997616 0 0 0 0
1700992536 0.4795684516429901 0.12776866555213928 -0.012039854191243649 -0.006973538547754288 0 0 0 0
1704714620 0.5181126594543457 0.054977014660835266 -0.012705245055258274 -0.0047231754288077354 0 0 0 0
1708436704 0.5433833599090576 -0.022190287709236145 -0.012910975143313408 -0.0023645292967557907 0 0 0 0
1712158788 0.5570406913757324 -0.09749212116003036 -0.01243609469383955 -0.0003073243424296379 0 0 0 0
1715880872 0.5595109462738037 -0.17804114520549774 -0.011603623628616333 0.001342502422630787 0 0 0 0
1719602956 0.5476368069648743 -0.2542646527290344 -0.010406632907688618 0.0030917907133698463 0 0 0 0
1723325040 0.5266402959823608 -0.3318713307380676 -0.009135500527918339 0.004021603614091873 0 0 0 0
1727047124 0.498501181602478 -0.3957604169845581 -0.008132092654705048 0.004522068426012993 0 0 0 0
1730769208 0.4531714618206024 -0.4632454514503479 -0.007428240962326527 0.005217036232352257 0 0 0 0
1734491292 0.403574675321579 -0.5203483700752258 -0.00657755509018898 0.006005806848406792 0 0 0 0
1738213376 0.346662700176239 -0.5668475031852722 -0.005376610904932022 0.006481723859906197 0 0 0 0
1741935460 0.28318357467651367 -0.6047163009643555 -0.004006214439868927 0.006419220939278603 0 0 0 0
1745657544 0.2169000208377838 -0.6320558786392212 -0.0033252304419875145 0.0059665534645318985 0 0 0 0
1749379628 0.1430431306362152 -0.6487388610839844 -0.002991247922182083 0.005776478908956051 0 0 0 0
1753101712 0.07085822522640228 -0.6545490026473999 -0.002823874354362488 0.005598823539912701 0 0 0 0
1756823796 -0.005043894052505493 -0.6510249376296997 -0.0029289983212947845 0.005841178819537163 0 0 0 0
1760545880 -0.07075107097625732 -0.6341912150382996 -0.0028329258784651756 0.006581013090908527 0 0 0 0
1764267964 -0.13837727904319763 -0.6080785989761353 -0.0025789663195610046 0.007391836494207382 0 0 0 0
1767990048 -0.19586072862148285 -0.5718055963516235 -0.0017436658963561058 0.00843900442123413 0 0 0 0
1771712132 -0.24973955750465393 -0.5281209945678711 -0.0002662111073732376 0.009054462425410748 0 0 0 0
1775434216 -0.2923910617828369 -0.47862914204597473 0.0010973485186696053 0.009097062982618809 0 0 0 0
1779156300 -0.32983964681625366 -0.423214316368103 0.0026124147698283195 0.00880980584770441 0 0 0 0
1782878384 -0.3566974699497223 -0.36438438296318054 0.0037952056154608727 0.008086391724646091 0 0 0 0
1786600468 -0.3750755190849304 -0.30305737257003784 0.0042422618716955185 0.0072323232889175415 0 0 0 0
1790322552 -0.38578349351882935 -0.23783129453659058 0.0040475353598594666 0.006942783482372761 0 0 0 0
1794044636 -0.3861888647079468 -0.17390888929367065 0.004329115152359009 0.007174205034971237 0 0 0 0
1797766720 -0.37637239694595337 -0.10834474861621857 0.00496426597237587 0.007647493854165077 0 0 0 0
1801488804 -0.3564237654209137 -0.052374228835105896 0.0061623333021998405 0.008801153860986233 0 0 0 0
1805210888 -0.3283897042274475 0.005056172609329224 0.008430089801549911 0.009398946538567543 0 0 0 0
1808932972 -0.2934846878051758 0.0569513738155365 0.01138409785926342 0.009286489337682724 0 0 0 0
1812655056 -0.2510085105895996 0.10101907700300217 0.014780900441110134 0.007833232171833515 0 0 0 0
1816377140 -0.20189976692199707 0.13801656663417816 0.01770286075770855 0.0053453510627150536 0 0 0 0
1820099224 -0.1473941206932068 0.16712750494480133 0.0200481116771698 0.0019287513568997383 0 0 0 0
1823821308 -0.08873698860406876 0.18609656393527985 0.021390177309513092 -0.0025036484003067017 0 0 0 0
1827543392 -0.02912263013422489 0.1948079764842987 0.02150549180805683 -0.007284192368388176 0 0 0 0
1831265476 0.029506497085094452 0.19351941347122192 0.0207869540899992 -0.011912842281162739 0 0 0 0
1834987560 0.08602283895015717 0.18164122104644775 0.018723467364907265 -0.017156515270471573 0 0 0 0
1838709644 0.13747096061706543 0.1641993522644043 0.015004152432084084 -0.021651452407240868 0 0 0 0
1842431728 0.1860174983739853 0.13876289129257202 0.009845673106610775 -0.024888819083571434 0 0 0 0
1846153812 0.22857676446437836 0.10533782839775085 0.004608161747455597 -0.026042794808745384 0 0 0 0
1849875896 0.26474225521087646 0.06474730372428894 -0.0003473963588476181 -0.026535773649811745 0 0 0 0
1853597980 0.2925097644329071 0.020987018942832947 -0.005455627106130123 -0.026187676936388016 0 0 0 0
1857320064 0.3105434775352478 -0.025191813707351685 -0.01025252602994442 -0.024231843650341034 0 0 0 0
1861042148 0.3213510811328888 -0.07370060682296753 -0.013934729620814323 -0.02179325558245182 0 0 0 0
1864764232 0.32413139939308167 -0.12008512020111084 -0.016915932297706604 -0.019538991153240204 0 0 0 0
1868486316 0.31723737716674805 -0.16538240015506744 -0.02005963772535324 -0.01747262477874756 0 0 0 0
1872208400 0.30433446168899536 -0.2080395668745041 -0.023602761328220367 -0.014183910563588142 0 0 0 0
1875930484 0.2861380875110626 -0.24582113325595856 -0.026227764785289764 -0.010462776757776737 0 0 0 0
1879652568 0.25817352533340454 -0.28085801005363464 -0.02838544361293316 -0.005337388254702091 0 0 0 0
1883374652 0.22916993498802185 -0.3072226345539093 -0.029271921142935753 0.0002062041312456131 0 0 0 0
1887096736 0.19541151821613312 -0.3288729786872864 -0.02854796312749386 0.005878768861293793 0 0 0 0
1890818820 0.16133952140808105 -0.34226980805397034 -0.02679106406867504 0.010391183197498322 0 0 0 0
1894540904 0.12623345851898193 -0.3498019576072693 -0.025077588856220245 0.01470800582319498 0 0 0 0
1898262988 0.09546403586864471 -0.3514265716075897 -0.023132063448429108 0.01869145780801773 0 0 0 0
1901985072 0.06058871001005173 -0.34815025329589844 -0.0200449638068676 0.022647302597761154 0 0 0 0
1905707156 0.028323372825980186 -0.340618371963501 -0.016140364110469818 0.026688873767852783 0 0 0 0
1909429240 0.0019032806158065796 -0.32554176449775696 -0.01141297910362482 0.029739106073975563 0 0 0 0
1913151324 -0.023764781653881073 -0.3075833022594452 -0.005860441364347935 0.03204604610800743 0 0 0 0
1916873408 -0.04713898152112961 -0.2858312726020813 0.0004177447408437729 0.03313696011900902 0 0 0 0
1920595492 -0.06504809856414795 -0.26067107915878296 0.006984115578234196 0.03301728144288063 0 0 0 0
1924317576 -0.07725710421800613 -0.23253832757472992 0.01371271163225174 0.03175671398639679 0 0 0 0
1928039660 -0.0841301754117012 -0.20256322622299194 0.020656656473875046 0.028461571782827377 0 0 0 0
1931761744 -0.0848931297659874 -0.17306923866271973 0.026714853942394257 0.023561647161841393 0 0 0 0
1935483828 -0.07839403301477432 -0.14451748132705688 0.030946534126996994 0.016531575471162796 0 0 0 0
1939205912 -0.06735876202583313 -0.1192755475640297 0.032720960676670074 0.008714365772902966 0 0 0 0
1942927996 -0.05287148803472519 -0.09729495644569397 0.031766485422849655 0.0017055626958608627 0 0 0 0
1946650080 -0.03593216836452484 -0.07913938909769058 0.02980796992778778 -0.003696756437420845 0 0 0 0
1950372164 -0.01712423749268055 -0.06358969211578369 0.027666712179780006 -0.008177695795893669 0 0 0 0
1954094248 0.003637438639998436 -0.05142877250909805 0.025206396356225014 -0.01206845510751009 0 0 0 0
1957816332 0.02640068531036377 -0.043054573237895966 0.02279725670814514 -0.015648506581783295 0 0 0 0
1961538416 0.05042922869324684 -0.038568124175071716 0.019196197390556335 -0.019014157354831696 0 0 0 0
1965260500 0.07438892126083374 -0.038957882672548294 0.015648353844881058 -0.021489284932613373 0 0 0 0
1968982584 0.09790945798158646 -0.04422026872634888 0.011920847930014133 -0.022964730858802795 0 0 0 0
1972704668 0.12005408108234406 -0.052207544445991516 0.008762619458138943 -0.0239889994263649 0 0 0 0
1976426752 0.1399480551481247 -0.06386210024356842 0.0054827407002449036 -0.025598138570785522 0 0 0 0
1980148836 0.15816080570220947 -0.07974272966384888 0.0009642299264669418 -0.027027398347854614 0 0 0 0
1983870920 0.17346864938735962 -0.09898434579372406 -0.003976208157837391 -0.028108153492212296 0 0 0 0
1987593004 0.18256467580795288 -0.12286081910133362 -0.009706905111670494 -0.027059204876422882 0 0 0 0
1991315088 0.18754644691944122 -0.14495322108268738 -0.014961293898522854 -0.02512481063604355 0 0 0 0
1995037172 0.18839040398597717 -0.1687133014202118 -0.019789934158325195 -0.02200225554406643 0 0 0 0
1998759256 0.1861714869737625 -0.1894185096025467 -0.023504311218857765 -0.017918584868311882 0 0 0 0
2002481340 0.17981773614883423 -0.21079806983470917 -0.026872381567955017 -0.012881649658083916 0 0 0 0
2006203424 0.17105987668037415 -0.22925108671188354 -0.028680937364697456 -0.007513309828937054 0 0 0 0
2009925508 0.15499579906463623 -0.2488197237253189 -0.02918907441198826 -0.0021270718425512314 0 0 0 0
2013647592 0.13981765508651733 -0.26382866501808167 -0.028776587918400764 0.0031966501846909523 0 0 0 0
2017369676 0.12257423251867294 -0.2751461863517761 -0.028032252565026283 0.007980925031006336 0 0 0 0
2021091760 0.0980638638138771 -0.2846446931362152 -0.025893807411193848 0.013190321624279022 0 0 0 0
2024813844 0.07949327677488327 -0.28956007957458496 -0.02303617261350155 0.017444198951125145 0 0 0 0
2028535928 0.0544898584485054 -0.2924725413322449 -0.01919529214501381 0.021386368200182915 0 0 0 0
2032258012 0.03252968192100525 -0.288998007774353 -0.014864364638924599 0.024449586868286133 0 0 0 0
2035980096 0.009079258888959885 -0.2810062766075134 -0.010137539356946945 0.026281526312232018 0 0 0 0
2039702180 -0.010129548609256744 -0.2720405161380768 -0.004930062219500542 0.02716074511408806 0 0 0 0
2043424264 -0.03132403641939163 -0.2587641775608063 3.0492432415485382e-05 0.02657984383404255 0 0 0 0
2047146348 -0.05027075856924057 -0.2428964376449585 0.004063962958753109 0.025486193597316742 0 0 0 0
2050868432 -0.06651327759027481 -0.22265556454658508 0.007767516188323498 0.023476727306842804 0 0 0 0
2054590516 -0.07850129902362823 -0.2007247805595398 0.010766742751002312 0.022117719054222107 0 0 0 0
2058312600 -0.08661612123250961 -0.1752043068408966 0.013687960803508759 0.02026692032814026 0 0 0 0
2062034684 -0.09257872402667999 -0.1481800675392151 0.016971087083220482 0.01809851825237274 0 0 0 0
2065756768 -0.09359510242938995 -0.120255246758461 0.019637802615761757 0.015110574662685394 0 0 0 0
2069478852 -0.08969398587942123 -0.09251734614372253 0.02215617708861828 0.011348756030201912 0 0 0 0
2073200936 -0.08185487985610962 -0.06460236012935638 0.023552030324935913 0.007346875965595245 0 0 0 0
2076923020 -0.06850731372833252 -0.038059744983911514 0.02439001016318798 0.0030442290008068085 0 0 0 0
2080645104 -0.051930949091911316 -0.013350151479244232 0.024148371070623398 -0.0012953998520970345 0 0 0 0
2084367188 -0.030465444549918175 0.008764781057834625 0.02326233498752117 -0.005782436579465866 0 0 0 0
2088089272 -0.005580108612775803 0.02773183211684227 0.0215248204767704 -0.009333325549960136 0 0 0 0
2091811356 0.02273840270936489 0.04227067902684212 0.019310686737298965 -0.012776830233633518 0 0 0 0
2095533440 0.053049325942993164 0.05210455134510994 0.016441840678453445 -0.015509048476815224 0 0 0 0
2099255524 0.08462578803300858 0.05848166346549988 0.013679591938853264 -0.017896458506584167 0 0 0 0
2102977608 0.11925509572029114 0.05902334302663803 0.01039014384150505 -0.019731590524315834 0 0 0 0
2106699692 0.15399767458438873 0.05264723673462868 0.006700227968394756 -0.02117842063307762 0 0 0 0
2110421776 0.1872158944606781 0.040307123214006424 0.0032053831964731216 -0.02219877392053604 0 0 0 0
2114143860 0.21755456924438477 0.02240768074989319 -0.0009061209857463837 -0.022663187235593796 0 0 0 0
2117865944 0.24404464662075043 -0.0011049974709749222 -0.005325141362845898 -0.022006558254361153 0 0 0 0
2121588028 0.2656135857105255 -0.028198130428791046 -0.009441178292036057 -0.02063768170773983 0 0 0 0
2125310112 0.281817227602005 -0.05735074728727341 -0.012981134466826916 -0.01846582256257534 0 0 0 0
2129032196 0.2916368842124939 -0.08759178221225739 -0.016156716272234917 -0.015315992757678032 0 0 0 0
2132754280 0.29629501700401306 -0.12098658084869385 -0.018744520843029022 -0.011824993416666985 0 0 0 0
2136476364 0.2984589636325836 -0.1515185683965683 -0.020457688719034195 -0.007814183831214905 0 0 0 0
2140198448 0.2948775291442871 -0.1832488477230072 -0.021165329962968826 -0.0031354734674096107 0 0 0 0
2143920532 0.287794828414917 -0.21197625994682312 -0.019979385659098625 0.00120537169277668 0 0 0 0
2147642616 0.2750614285469055 -0.2428111582994461 -0.01793341338634491 0.004337795078754425 0 0 0 0
2151364700 0.25786131620407104 -0.26836881041526794 -0.015943236649036407 0.0062116654589772224 0 0 0 0
2155086784 0.2352868914604187 -0.29276859760284424 -0.014671084471046925 0.007869286462664604 0 0 0 0
2158808868 0.20976868271827698 -0.31059563159942627 -0.013309668749570847 0.00946161150932312 0 0 0 0
2162530952 0.18267139792442322 -0.3256913721561432 -0.01216845028102398 0.011025792919099331 0 0 0 0
2166253036 0.15587913990020752 -0.335168719291687 -0.010491754859685898 0.012906952761113644 0 0 0 0
2169975120 0.12462851405143738 -0.3425431251525879 -0.008040286600589752 0.014638309367001057 0 0 0 0
2173697204 0.095906101167202 -0.34401145577430725 -0.0050919512286782265 0.01536443829536438 0 0 0 0
2177419288 0.06386850774288177 -0.3422102928161621 -0.002319362945854664 0.015236332081258297 0 0 0 0
2181141372 0.0341741144657135 -0.33378785848617554 -0.00029502809047698975 0.01452337484806776 0 0 0 0
2184863456 0.008487138897180557 -0.31947192549705505 0.0011842632666230202 0.014001538045704365 0 0 0 0
2188585540 -0.020936638116836548 -0.30057090520858765 0.0025337710976600647 0.013802110217511654 0 0 0 0
2192307624 -0.04213673621416092 -0.2792549729347229 0.004169211722910404 0.013896435499191284 0 0 0 0
2196029708 -0.05850531533360481 -0.25499898195266724 0.0063625480979681015 0.013811913318932056 0 0 0 0
2199751792 -0.07236218452453613 -0.22905400395393372 0.008855416439473629 0.013120705261826515 0 0 0 0
2203473876 -0.08572422713041306 -0.19741088151931763 0.01182140875607729 0.01134980097413063 0 0 0 0
2207195960 -0.08801363408565521 -0.16974283754825592 0.013903005048632622 0.009101217612624168 0 0 0 0
2210918044 -0.08822312206029892 -0.14003673195838928 0.015304695814847946 0.006299082189798355 0 0 0 0
2214640128 -0.08532898128032684 -0.10832579433917999 0.015865007415413857 0.0031363889575004578 0 0 0 0
2218362212 -0.07623286545276642 -0.07934043556451797 0.01607966609299183 0.00018706545233726501 0 0 0 0
2222084296 -0.0628616064786911 -0.04977989196777344 0.015723921358585358 -0.002665383741259575 0 0 0 0
2225806380 -0.044091228395700455 -0.02179272100329399 0.014713522046804428 -0.005589919164776802 0 0 0 0
2229528464 -0.019083719700574875 0.002756670117378235 0.01298966258764267 -0.00810683611780405 0 0 0 0
2233250548 0.010843217372894287 0.020319519564509392 0.011223475448787212 -0.009709307923913002 0 0 0 0
2236972632 0.04333686828613281 0.031961552798748016 0.009325897321105003 -0.011437036097049713 0 0 0 0
2240694716 0.07633425295352936 0.03947870060801506 0.006981195881962776 -0.012790006585419178 0 0 0 0
2244416800 0.110989511013031 0.038110699504613876 0.004652896896004677 -0.013597579672932625 0 0 0 0
2248138884 0.14476501941680908 0.03059675358235836 0.002283538691699505 -0.014325037598609924 0 0 0 0
2251860968 0.17449359595775604 0.016767118126153946 3.253668546676636e-05 -0.013333390466868877 0 0 0 0
2255583052 0.20114700496196747 -0.0026454776525497437 -0.0027074161916971207 -0.012961302883923054 0 0 0 0
2259305136 0.2237493097782135 -0.025921620428562164 -0.004923578351736069 -0.01177794486284256 0 0 0 0
2263027220 0.2387688159942627 -0.05511891096830368 -0.006252149119973183 -0.009920334443449974 0 0 0 0
2266749304 0.25137200951576233 -0.07926754653453827 -0.006694280542433262 -0.008627094328403473 0 0 0 0
2270471388 0.258007675409317 -0.10735929012298584 -0.007131495513021946 -0.007927597500383854 0 0 0 0
2274193472 0.2545824348926544 -0.14018896222114563 -0.00750032439827919 -0.007539589889347553 0 0 0 0
2277915556 0.25548863410949707 -0.16262152791023254 -0.008193270303308964 -0.007368086837232113 0 0 0 0
2281637640 0.24885942041873932 -0.19029584527015686 -0.009925114922225475 -0.007154217921197414 0 0 0 0
2285359724 0.23125511407852173 -0.2199717015028 -0.011933388188481331 -0.0059614358469843864 0 0 0 0
2289081808 0.21914638578891754 -0.2390137016773224 -0.013591175898909569 -0.003998696804046631 0 0 0 0
2292803892 0.19800668954849243 -0.25761663913726807 -0.01441702339798212 -0.0018049664795398712 0 0 0 0
2296525976 0.16886574029922485 -0.27505049109458923 -0.014894746243953705 0.000949610024690628 0 0 0 0
2300248060 0.14469894766807556 -0.2823611795902252 -0.014672724530100822 0.0037753302603960037 0 0 0 0
2303970144 0.12025441229343414 -0.2893069088459015 -0.013261931948363781 0.00656320434063673 0 0 0 0
2307692228 0.09102694690227509 -0.28611496090888977 -0.011922616511583328 0.008252699859440327 0 0 0 0
2311414312 0.06634681671857834 -0.2817479372024536 -0.010147951543331146 0.009632780216634274 0 0 0 0
2315136396 0.03575287014245987 -0.27265188097953796 -0.00827205553650856 0.010733544826507568 0 0 0 0
2318858480 0.016206391155719757 -0.25955215096473694 -0.006470763124525547 0.011428448371589184 0 0 0 0
2322580564 -0.006612502038478851 -0.2417144924402237 -0.004590519703924656 0.011845981702208519 0 0 0 0
2326302648 -0.029185153543949127 -0.21845443546772003 -0.003054620698094368 0.01197833102196455 0 0 0 0
2330024732 -0.03800603374838829 -0.19477248191833496 -0.0015783105045557022 0.012100614607334137 0 0 0 0
2333746816 -0.04645001143217087 -0.1685122847557068 2.6812776923179626e-06 0.012018267065286636 0 0 0 0
2337468900 -0.054788317531347275 -0.13749152421951294 0.0015974333509802818 0.011943156830966473 0 0 0 0
2341190984 -0.05337921157479286 -0.10796410590410233 0.003570983186364174 0.01118655689060688 0 0 0 0
2344913068 -0.047877129167318344 -0.07825802266597748 0.0054298508912324905 0.010061858221888542 0 0 0 0
2348635152 -0.03622250258922577 -0.04959231615066528 0.00675357598811388 0.008382405154407024 0 0 0 0
2352357236 -0.019301487132906914 -0.02337569184601307 0.007483912631869316 0.006346067413687706 0 0 0 0
2356079320 0.002682850696146488 -0.0009763734415173531 0.007658060640096664 0.004824121482670307 0 0 0 0
2359801404 0.028743073344230652 0.015924446284770966 0.00787403155118227 0.003240088000893593 0 0 0 0
2363523488 0.05564533919095993 0.028596147894859314 0.007892966270446777 0.0017200028523802757 0 0 0 0
2367245572 0.08378353714942932 0.03715422749519348 0.007421836256980896 3.37725505232811e-05 0 0 0 0
2370967656 0.11348071694374084 0.04003430902957916 0.006374437361955643 -0.0016354285180568695 0 0 0 0
2374689740 0.14258208870887756 0.04081875830888748 0.004874077625572681 -0.002645055763423443 0 0 0 0
2378411824 0.1721820831298828 0.0349910743534565 0.0032491106539964676 -0.0028637833893299103 0 0 0 0
2382133908 0.20251162350177765 0.02409789152443409 0.0019769035279750824 -0.0025457870215177536 0 0 0 0
2385855992 0.23080043494701385 0.00938607007265091 0.001113557256758213 -0.001609552651643753 0 0 0 0
2389578076 0.2558770775794983 -0.00983814150094986 0.0010726312175393105 -0.000909850001335144 0 0 0 0
2393300160 0.2755662798881531 -0.03974974900484085 0.0013588089495897293 -0.00033215899020433426 0 0 0 0
2397022244 0.29232263565063477 -0.06355185806751251 0.0017923563718795776 -0.0002705371007323265 0 0 0 0
2400744328 0.3025379776954651 -0.09396549314260483 0.0020367195829749107 -0.0005672350525856018 0 0 0 0
2404466412 0.30735042691230774 -0.12671273946762085 0.002359512262046337 -0.0007559275254607201 0 0 0 0
2408188496 0.3091961443424225 -0.1571325957775116 0.00246609840542078 -0.0009702425450086594 0 0 0 0
2411910580 0.30483120679855347 -0.18733447790145874 0.0027257679030299187 -0.001547040417790413 0 0 0 0
2415632664 0.29365503787994385 -0.2198878675699234 0.0025334302335977554 -0.0024543283507227898 0 0 0 0
2419354748 0.2772614657878876 -0.24691104888916016 0.0018288912251591682 -0.0029448596760630608 0 0 0 0
2423076832 0.2576864957809448 -0.27205488085746765 0.0011485228314995766 -0.0030528800562024117 0 0 0 0
2426798916 0.23513592779636383 -0.292041152715683 0.0005681347101926804 -0.003055199980735779 0 0 0 0
2430521000 0.20845496654510498 -0.3106394410133362 0.0001154458150267601 -0.0027595041319727898 0 0 0 0
2434243084 0.18648479878902435 -0.32154008746147156 -0.00023430399596691132 -0.0025726566091179848 0 0 0 0
2437965168 0.15661977231502533 -0.33016160130500793 -0.0002787197008728981 -0.00203148927539587 0 0 0 0
2441687252 0.13125824928283691 -0.33538252115249634 2.514570951461792e-07 -0.0019517578184604645 0 0 0 0
2445409336 0.09726343303918839 -0.3384363055229187 0.0002416074275970459 -0.0021543120965361595 0 0 0 0
2449131420 0.06977418065071106 -0.3344012200832367 0.0004025520756840706 -0.00261596217751503 0 0 0 0
2452853504 0.038055844604969025 -0.3286314606666565 0.00034274812787771225 -0.0029821936041116714 0 0 0 0
2456575588 0.012547895312309265 -0.3163861334323883 -4.44948673248291e-05 -0.00347828958183527 0 0 0 0
2460297672 -0.014326579868793488 -0.30012232065200806 -0.0005321009084582329 -0.0038540437817573547 0 0 0 0
2464019756 -0.03658505529165268 -0.28058043122291565 -0.0010977918282151222 -0.004056129604578018 0 0 0 0
2467741840 -0.05894779413938522 -0.25725406408309937 -0.001656239852309227 -0.004210011102259159 0 0 0 0
2471463924 -0.07445711642503738 -0.2309192419052124 -0.002226477488875389 -0.004249408841133118 0 0 0 0
2475186008 -0.08712637424468994 -0.20070233941078186 -0.0027789687737822533 -0.004201352596282959 0 0 0 0
2478908092 -0.09634401649236679 -0.16761671006679535 -0.003704981878399849 -0.004167245700955391 0 0 0 0
2482630176 -0.09584428369998932 -0.13573947548866272 -0.0044816527515649796 -0.004012058489024639 0 0 0 0
2486352260 -0.09167271107435226 -0.10352058708667755 -0.0055563729256391525 -0.003363841213285923 0 0 0 0
2490074344 -0.08309128880500793 -0.07256379723548889 -0.006056974641978741 -0.0024523641914129257 0 0 0 0
2493796428 -0.06940755248069763 -0.045316435396671295 -0.006351464428007603 -0.0017093224450945854 0 0 0 0
2497518512 -0.05228380858898163 -0.01960510015487671 -0.00667798426002264 -0.0010792752727866173 0 0 0 0
2501240596 -0.03203095868229866 0.002556620165705681 -0.006979365833103657 -8.635316044092178e-05 0 0 0 0
2504962680 -0.007839829660952091 0.021223900839686394 -0.007272765040397644 0.0009833062067627907 0 0 0 0
2508684764 0.01912696287035942 0.03574705123901367 -0.007192593067884445 0.0020918166264891624 0 0 0 0
2512406848 0.04744664579629898 0.0454862006008625 -0.006780701689422131 0.00328761525452137 0 0 0 0
2516128932 0.07644852995872498 0.05106276273727417 -0.006249661557376385 0.004106699489057064 0 0 0 0
2519851016 0.10531991720199585 0.052426427602767944 -0.005424965173006058 0.004973097704350948 0 0 0 0
2523573100 0.13421832025051117 0.04824672266840935 -0.004344860091805458 0.005494707264006138 0 0 0 0
2527295184 0.1615982949733734 0.040949027985334396 -0.003438313491642475 0.005430511198937893 0 0 0 0
2531017268 0.18785369396209717 0.026857245713472366 -0.0030422983691096306 0.0055544087663292885 0 0 0 0
2534739352 0.21079374849796295 0.008988517336547375 -0.0024833958595991135 0.005664451979100704 0 0 0 0
2538461436 0.22923648357391357 -0.012121014297008514 -0.002258148044347763 0.005831160582602024 0 0 0 0
2542183520 0.24464596807956696 -0.03274140506982803 -0.0018606334924697876 0.006093326024711132 0 0 0 0
2545905604 0.25375473499298096 -0.05903754010796547 -0.0013917498290538788 0.006676443852484226 0 0 0 0
2549627688 0.2594577670097351 -0.08316079527139664 -0.0006186263635754585 0.0073524173349142075 0 0 0 0
2553349772 0.2628507614135742 -0.10666084289550781 0.0005558589473366737 0.007976227439939976 0 0 0 0
2557071856 0.262528657913208 -0.12981905043125153 0.0020990949124097824 0.008298445492982864 0 0 0 0
2560793940 0.254686564207077 -0.152295783162117 0.0036656372249126434 0.008050668984651566 0 0 0 0
2564516024 0.2446369081735611 -0.172140970826149 0.0051083313301205635 0.0073850275948643684 0 0 0 0
2568238108 0.2352924942970276 -0.18850794434547424 0.00640944205224514 0.0065980153158307076 0 0 0 0
2571960192 0.22346383333206177 -0.20318734645843506 0.00775529071688652 0.00586304347962141 0 0 0 0
2575682276 0.2077500820159912 -0.21633297204971313 0.009437541477382183 0.0045586200430989265 0 0 0 0
2579404360 0.1933538317680359 -0.22571691870689392 0.01058712787926197 0.0026639634743332863 0 0 0 0
2583126444 0.17679698765277863 -0.234306201338768 0.011187316849827766 0.00012779608368873596 0 0 0 0
2586848528 0.15891528129577637 -0.2391217052936554 0.010974139906466007 -0.0023016585037112236 0 0 0 0
2590570612 0.143562451004982 -0.24003620445728302 0.010349219664931297 -0.004559362307190895 0 0 0 0
2594292696 0.1265416145324707 -0.24059122800827026 0.009196718223392963 -0.006514390930533409 0 0 0 0
2598014780 0.1125999242067337 -0.23725011944770813 0.007798036560416222 -0.008108172565698624 0 0 0 0
2601736864 0.09787096828222275 -0.2326585054397583 0.006067503243684769 -0.00935305468738079 0 0 0 0
2605458948 0.0875820517539978 -0.22620967030525208 0.004248546436429024 -0.00993594154715538 0 0 0 0
2609181032 0.07739339023828506 -0.21930578351020813 0.0025771362707018852 -0.01020164042711258 0 0 0 0
2612903116 0.0675395205616951 -0.21067741513252258 0.001374908722937107 -0.010478207841515541 0 0 0 0
2616625200 0.05985230207443237 -0.20101650059223175 6.588920950889587e-05 -0.010484660044312477 0 0 0 0
2620347284 0.05351176857948303 -0.19091539084911346 -0.0013313740491867065 -0.01078980602324009 0 0 0 0
2624069368 0.049043796956539154 -0.18027494847774506 -0.003054477274417877 -0.011072801426053047 0 0 0 0
2627791452 0.0506279282271862 -0.16957317292690277 -0.004344496876001358 -0.01019294187426567 0 0 0 0
2631513536 0.04872366786003113 -0.15993690490722656 -0.006001203320920467 -0.009538276121020317 0 0 0 0
2635235620 0.04827296733856201 -0.15030770003795624 -0.00744217075407505 -0.008677391335368156 0 0 0 0
2638957704 0.050965793430805206 -0.14157085120677948 -0.008937818929553032 -0.007798518054187298 0 0 0 0
2642679788 0.05596072971820831 -0.13287287950515747 -0.01043581124395132 -0.006488105282187462 0 0 0 0
2646401872 0.06142532825469971 -0.12617234885692596 -0.011541511863470078 -0.004871596582233906 0 0 0 0
2650123956 0.06940743327140808 -0.12030792981386185 -0.012540249153971672 -0.0030742455273866653 0 0 0 0
2653846040 0.07676306366920471 -0.11745371669530869 -0.01335067953914404 -0.0011672936379909515 0 0 0 0
2657568124 0.08447162061929703 -0.11662686616182327 -0.013704895041882992 0.001403018832206726 0 0 0 0
2661290208 0.09282481670379639 -0.11676798015832901 -0.013334007933735847 0.004212106578052044 0 0 0 0
2665012292 0.09875078499317169 -0.11938382685184479 -0.012130191549658775 0.006809820421040058 0 0 0 0
2668734376 0.10202772915363312 -0.1239088699221611 -0.010121017694473267 0.009088568389415741 0 0 0 0
2672456460 0.10740642994642258 -0.1270749717950821 -0.00803568959236145 0.010435645468533039 0 0 0 0
2676178544 0.10798025876283646 -0.13327476382255554 -0.005853505805134773 0.01138441264629364 0 0 0 0
2679900628 0.11066848039627075 -0.1371079534292221 -0.0033267932012677193 0.011864940635859966 0 0 0 0
2683622712 0.11122763156890869 -0.1417798548936844 -0.0011893408372998238 0.011997760273516178 0 0 0 0
2687344796 0.11103646457195282 -0.14680513739585876 0.0011148443445563316 0.01158210914582014 0 0 0 0
2691066880 0.10960143804550171 -0.15164117515087128 0.003102925606071949 0.010607633739709854 0 0 0 0
2694788964 0.1062401533126831 -0.15840338170528412 0.004721510224044323 0.009476800449192524 0 0 0 0
2698511048 0.10390520095825195 -0.16238819062709808 0.005998772569000721 0.008279303088784218 0 0 0 0
2702233132 0.09986954927444458 -0.16763746738433838 0.007024141028523445 0.007008267566561699 0 0 0 0
2705955216 0.09299123287200928 -0.17268262803554535 0.007953672669827938 0.005583304911851883 0 0 0 0
2709677300 0.08560352772474289 -0.17658944427967072 0.008824218064546585 0.00426203478127718 0 0 0 0
2713399384 0.07492783665657043 -0.1795869767665863 0.009621765464544296 0.002512434497475624 0 0 0 0
2717121468 0.06467373669147491 -0.17953383922576904 0.01001875102519989 0.0007426440715789795 0 0 0 0
2720843552 0.05433344095945358 -0.17770397663116455 0.010037530213594437 -0.0013767331838607788 0 0 0 0
2724565636 0.044923387467861176 -0.1732466071844101 0.009567128494381905 -0.003377174958586693 0 0 0 0
2728287720 0.034624479711055756 -0.1670626401901245 0.008680865168571472 -0.005277009680867195 0 0 0 0
2732009804 0.02654694952070713 -0.15808813273906708 0.00750125665217638 -0.00679904967546463 0 0 0 0
2735731888 0.017521418631076813 -0.14895425736904144 0.005943671800196171 -0.008184145204722881 0 0 0 0
2739453972 0.013537626713514328 -0.13733549416065216 0.004434296861290932 -0.009113837964832783 0 0 0 0
2743176056 0.0071688368916511536 -0.1231335923075676 0.0026234472170472145 -0.00981470663100481 0 0 0 0
2746898140 0.0057036392390728 -0.10837662220001221 0.0005968986079096794 -0.01029178872704506 0 0 0 0
2750620224 0.006282631307840347 -0.09395746886730194 -0.001515624113380909 -0.010249380022287369 0 0 0 0
2754342308 0.009474193677306175 -0.07824414223432541 -0.0036758482456207275 -0.009718013927340508 0 0 0 0
2758064392 0.015130389481782913 -0.06376047432422638 -0.0055626556277275085 -0.008569496683776379 0 0 0 0
2761786476 0.025040367618203163 -0.05026701092720032 -0.007054590620100498 -0.007094563916325569 0 0 0 0
2765508560 0.03598465397953987 -0.03883349522948265 -0.008078132756054401 -0.005481238476932049 0 0 0 0
2769230644 0.04825287312269211 -0.028999092057347298 -0.008615722879767418 -0.003507268615067005 0 0 0 0
2772952728 0.06155863404273987 -0.02018968015909195 -0.008613205514848232 -0.0018105041235685349 0 0 0 0
2776674812 0.07641926407814026 -0.014729836955666542 -0.0085595166310668 -0.000270145945250988 0 0 0 0
2780396896 0.0931595042347908 -0.010427824221551418 -0.008536182343959808 0.0013236692175269127 0 0 0 0
2784118980 0.10979995131492615 -0.007748695090413094 -0.00799966137856245 0.0029318034648895264 0 0 0 0
2787841064 0.12782886624336243 -0.008618071675300598 -0.007085546851158142 0.004818830639123917 0 0 0 0
2791563148 0.1457880437374115 -0.012017294764518738 -0.005546368658542633 0.006200036965310574 0 0 0 0
2795285232 0.16427341103553772 -0.018622171133756638 -0.0034635458141565323 0.00713021494448185 0 0 0 0
2799007316 0.18134477734565735 -0.026353910565376282 -0.0015147989615797997 0.007101702503859997 0 0 0 0
2802729400 0.19737887382507324 -0.038082271814346313 0.00014733150601387024 0.006536893546581268 0 0 0 0
2806451484 0.21081432700157166 -0.05380278080701828 0.0013060998171567917 0.005781117826700211 0 0 0 0
2810173568 0.22303172945976257 -0.06711971759796143 0.002140500582754612 0.005107262171804905 0 0 0 0
2813895652 0.23304028809070587 -0.08561012148857117 0.002910679206252098 0.004436034709215164 0 0 0 0
2817617736 0.24023841321468353 -0.10673551261425018 0.0035100560635328293 0.0036908136680722237 0 0 0 0
2821339820 0.24264879524707794 -0.12759879231452942 0.0038775578141212463 0.002841869369149208 0 0 0 0
2825061904 0.24452349543571472 -0.1483420431613922 0.004152198322117329 0.0021415269002318382 0 0 0 0
2828783988 0.24274659156799316 -0.169414222240448 0.004424300976097584 0.0014775795862078667 0 0 0 0
2832506072 0.24117067456245422 -0.18777960538864136 0.004729084670543671 0.0007109483703970909 0 0 0 0
2836228156 0.23103471100330353 -0.21159827709197998 0.004722939804196358 -0.00020615197718143463 0 0 0 0
2839950240 0.22215530276298523 -0.22965961694717407 0.004532015882432461 -0.0010066190734505653 0 0 0 0
2843672324 0.2110748589038849 -0.2491106241941452 0.004394320771098137 -0.0014482969418168068 0 0 0 0
2847394408 0.19742943346500397 -0.2659379243850708 0.004401716403663158 -0.0020300494506955147 0 0 0 0
2851116492 0.17702537775039673 -0.28405413031578064 0.0043414682149887085 -0.0026834504678845406 0 0 0 0
2854838576 0.15824070572853088 -0.2964858114719391 0.004152496345341206 -0.003701244480907917 0 0 0 0
2858560660 0.13901874423027039 -0.30607813596725464 0.0038840286433696747 -0.005056313239037991 0 0 0 0
2862282744 0.11112059652805328 -0.31593793630599976 0.002789810299873352 -0.006071348674595356 0 0 0 0
2866004828 0.088808074593544 -0.3199300765991211 0.0016298256814479828 -0.006696101278066635 0 0 0 0
2869726912 0.062234412878751755 -0.3205518126487732 0.0001720646396279335 -0.006869825534522533 0 0 0 0
2873448996 0.040772393345832825 -0.3178454041481018 -0.0012726504355669022 -0.00677306205034256 0 0 0 0
2877171080 0.020813405513763428 -0.3115527331829071 -0.0025812899693846703 -0.00623344536870718 0 0 0 0
2880893164 -0.007293029688298702 -0.3046244978904724 -0.0035552121698856354 -0.005258260294795036 0 0 0 0
2884615248 -0.031835153698921204 -0.29205742478370667 -0.0043237581849098206 -0.004181921482086182 0 0 0 0
2888337332 -0.053058311343193054 -0.2770845592021942 -0.004664854146540165 -0.003218364901840687 0 0 0 0
2892059416 -0.07308309525251389 -0.2610641121864319 -0.00492031779140234 -0.0022555822506546974 0 0 0 0
2895781500 -0.0900643914937973 -0.23994165658950806 -0.004900805652141571 -0.0012568803504109383 0 0 0 0
2899503584 -0.10510845482349396 -0.21833284199237823 -0.0047962842509150505 -0.00023531261831521988 0 0 0 0
2903225668 -0.11790350079536438 -0.19210952520370483 -0.004405018873512745 0.0006150221452116966 0 0 0 0
2906947752 -0.12618452310562134 -0.16591663658618927 -0.0040324535220861435 0.0014330269768834114 0 0 0 0
2910669836 -0.13062816858291626 -0.13725505769252777 -0.003549405373632908 0.002126650884747505 0 0 0 0
2914391920 -0.13189615309238434 -0.1101602166891098 -0.002806713804602623 0.0025818338617682457 0 0 0 0
2918114004 -0.127882719039917 -0.0817861557006836 -0.002112254500389099 0.002936769276857376 0 0 0 0
2921836088 -0.12021768093109131 -0.0546412393450737 -0.0015141898766160011 0.003194251097738743 0 0 0 0
2925558172 -0.10988791286945343 -0.02736680582165718 -0.0008490234613418579 0.003232070244848728 0 0 0 0
2929280256 -0.09522069245576859 -0.0039456430822610855 -0.0001864992082118988 0.0032866010442376137 0 0 0 0
2933002340 -0.07824381440877914 0.01870417781174183 0.00022031180560588837 0.0033850930631160736 0 0 0 0
2936724424 -0.057140130549669266 0.038163796067237854 0.0008879993110895157 0.0032959645614027977 0 0 0 0
2940446508 -0.035218968987464905 0.0548148974776268 0.0015706736594438553 0.0033173272386193275 0 0 0 0
2944168592 -0.0107882060110569 0.06766479462385178 0.002132715657353401 0.003134746104478836 0 0 0 0
2947890676 0.015005461871623993 0.07740814983844757 0.0029236096888780594 0.0029241694137454033 0 0 0 0
2951612760 0.04170410707592964 0.08439921587705612 0.00348012987524271 0.0024842089042067528 0 0 0 0
2955334844 0.0687486082315445 0.0877014622092247 0.004143528640270233 0.002057580277323723 0 0 0 0
2959056928 0.09725705534219742 0.0872553288936615 0.004709554836153984 0.001343470998108387 0 0 0 0
2962779012 0.1259690523147583 0.0817527323961258 0.005204906687140465 0.0005555888637900352 0 0 0 0
2966501096 0.1523304134607315 0.07277689129114151 0.00572615023702383 -0.0005701230838894844 0 0 0 0
2970223180 0.17760290205478668 0.05963101610541344 0.005995424464344978 -0.00208293367177248 0 0 0 0
2973945264 0.19938483834266663 0.04413392022252083 0.005352012813091278 -0.00347692146897316 0 0 0 0
2977667348 0.219208225607872 0.024398669600486755 0.004535190761089325 -0.004648319445550442 0 0 0 0
2981389432 0.23528920114040375 0.0029691755771636963 0.003391520120203495 -0.005392007529735565 0 0 0 0
2985111516 0.24800333380699158 -0.015999510884284973 0.0022764820605516434 -0.006088271737098694 0 0 0 0
2988833600 0.2562980353832245 -0.044926244765520096 0.0009414888918399811 -0.006261112168431282 0 0 0 0
2992555684 0.263430118560791 -0.06383047252893448 -0.00037143193185329437 -0.00611286424100399 0 0 0 0
2996277768 0.2655838429927826 -0.0890231803059578 -0.0016798684373497963 -0.005824173800647259 0 0 0 0
2999999852 0.26449286937713623 -0.11177421361207962 -0.002901628613471985 -0.0051599955186247826 0 0 0 0
