# HZ S RI R 50
1500000000 -0.10442251712083817 -0.024267414584755898 0.045225467532873154 -0.027829403057694435 0 0 0 0
1503722084 -0.08619707822799683 0.00430268794298172 0.03909363970160484 -0.03429461643099785 0 0 0 0
1507444168 -0.06019525229930878 0.028838584199547768 0.03263527527451515 -0.039738427847623825 0 0 0 0
1511166252 -0.028523840010166168 0.04683100804686546 0.025395285338163376 -0.04419342428445816 0 0 0 0
1514888336 0.005176420323550701 0.05834908038377762 0.017435602843761444 -0.04750150069594383 0 0 0 0
1518610420 0.039444584399461746 0.06485704332590103 0.009808674454689026 -0.049635663628578186 0 0 0 0
1522332504 0.07514623552560806 0.06709909439086914 0.0008087567985057831 -0.05113691836595535 0 0 0 0
1526054588 0.11257460713386536 0.06447304785251617 -0.009855709038674831 -0.050237901508808136 0 0 0 0
1529776672 0.15179157257080078 0.05671490728855133 -0.019478190690279007 -0.04564552381634712 0 0 0 0
1533498756 0.19173547625541687 0.04027753695845604 -0.026535507291555405 -0.03877218812704086 0 0 0 0
1537220840 0.22827386856079102 0.01661357283592224 -0.03108818456530571 -0.03175514191389084 0 0 0 0
1540942924 0.260201096534729 -0.014294371008872986 -0.03416615352034569 -0.024882564321160316 0 0 0 0
1544665008 0.28809213638305664 -0.04847284406423569 -0.0359317883849144 -0.017577294260263443 0 0 0 0
1548387092 0.31120142340660095 -0.08785110712051392 -0.03631867468357086 -0.010689742863178253 0 0 0 0
1552109176 0.32940441370010376 -0.129536971449852 -0.03513697534799576 -0.0045197708532214165 0 0 0 0
1555831260 0.3401690125465393 -0.17558909952640533 -0.032940346747636795 0.0006803283467888832 0 0 0 0
1559553344 0.3455984890460968 -0.22379642724990845 -0.03048500046133995 0.004476907663047314 0 0 0 0
1563275428 0.3404606580734253 -0.2754592299461365 -0.028298892080783844 0.007789088413119316 0 0 0 0
1566997512 0.3295970559120178 -0.3251299262046814 -0.025878112763166428 0.010982135310769081 0 0 0 0
1570719596 0.3080219626426697 -0.3750804364681244 -0.022891050204634666 0.013748872093856335 0 0 0 0
1574441680 0.2802373766899109 -0.41771095991134644 -0.020000360906124115 0.015527445822954178 0 0 0 0
1578163764 0.2484748512506485 -0.45682886242866516 -0.017373746261000633 0.016685685142874718 0 0 0 0
1581885848 0.2121485471725464 -0.4925037920475006 -0.015093397349119186 0.01793159916996956 0 0 0 0
1585607932 0.1651945263147354 -0.5240895748138428 -0.012545433826744556 0.019238043576478958 0 0 0 0
1589330016 0.1165536418557167 -0.5494564175605774 -0.009878462180495262 0.02012278325855732 0 0 0 0
1593052100 0.05831271409988403 -0.5675238966941833 -0.007226482965052128 0.020703976973891258 0 0 0 0
1596774184 0.004638612270355225 -0.5763788223266602 -0.0049433717504143715 0.02104169689118862 0 0 0 0
1600496268 -0.05579859018325806 -0.5764155983924866 -0.002566135488450527 0.021413518115878105 0 0 0 0
1604218352 -0.11455179750919342 -0.5652257204055786 -0.00014322251081466675 0.021737542003393173 0 0 0 0
1607940436 -0.16960158944129944 -0.5485608577728271 0.002441003918647766 0.022070884704589844 0 0 0 0
1611662520 -0.22371160984039307 -0.5236281156539917 0.005493879318237305 0.022207479923963547 0 0 0 0
1615384604 -0.2751445770263672 -0.4894254505634308 0.009097009897232056 0.02190404199063778 0 0 0 0
1619106688 -0.3208877444267273 -0.4466688334941864 0.012836989015340805 0.0208118986338377 0 0 0 0
1622828772 -0.36125263571739197 -0.4006262719631195 0.01687685027718544 0.01868297904729843 0 0 0 0
1626550856 -0.3926984667778015 -0.3484582006931305 0.02003766968846321 0.015610354952514172 0 0 0 0
1630272940 -0.417741596698761 -0.2905828356742859 0.022611718624830246 0.011967794969677925 0 0 0 0
1633995024 -0.43784335255622864 -0.22805598378181458 0.025082631036639214 0.008112695999443531 0 0 0 0
1637717108 -0.44777727127075195 -0.16377094388008118 0.027030320838093758 0.0032789334654808044 0 0 0 0
1641439192 -0.44812488555908203 -0.09594176709651947 0.027706626802682877 -0.0024191001430153847 0 0 0 0
1645161276 -0.4375225305557251 -0.02845245599746704 0.026976387947797775 -0.00862958561629057 0 0 0 0
1648883360 -0.41664254665374756 0.038449108600616455 0.02452392876148224 -0.014468535780906677 0 0 0 0
1652605444 -0.3875828683376312 0.1035265177488327 0.02004954032599926 -0.01947769708931446 0 0 0 0
1656327528 -0.3496369421482086 0.16284921765327454 0.014957001432776451 -0.022560041397809982 0 0 0 0
1660049612 -0.2984793186187744 0.22108347713947296 0.009933273307979107 -0.02433001436293125 0 0 0 0
1663771696 -0.2401668131351471 0.2681049108505249 0.005091316066682339 -0.0255074892193079 0 0 0 0
1667493780 -0.17407414317131042 0.30758193135261536 -0.0005192691460251808 -0.02589222975075245 0 0 0 0
1671215864 -0.09993790090084076 0.3364320695400238 -0.006266186945140362 -0.024553988128900528 0 0 0 0
1674937948 -0.022664174437522888 0.353139191865921 -0.011342046782374382 -0.021361542865633965 0 0 0 0
1678660032 0.05748046934604645 0.35737717151641846 -0.014823482371866703 -0.0169022548943758 0 0 0 0
1682382116 0.13633278012275696 0.3496283292770386 -0.01651187613606453 -0.012149426154792309 0 0 0 0
1686104200 0.21408993005752563 0.32949674129486084 -0.01681649684906006 -0.007986307144165039 0 0 0 0
1689826284 0.29022714495658875 0.29544684290885925 -0.01625293679535389 -0.004610798321664333 0 0 0 0
1693548368 0.35857895016670227 0.252221018075943 -0.015217989683151245 -0.0020229173824191093 0 0 0 0
1697270452 0.4185713231563568 0.1965378224849701 -0.014314472675323486 0.00039128493517637253 0 0 0 0
1700992536 0.4691518247127533 0.1335509568452835 -0.013494187034666538 0.002237517386674881 0 0 0 0
1704714620 0.5087606310844421 0.06051836907863617 -0.012604141607880592 0.004379624500870705 0 0 0 0
1708436704 0.5360046625137329 -0.012969151139259338 -0.01125852670520544 0.0060324398800730705 0 0 0 0
1712158788 0.5509681701660156 -0.09285029768943787 -0.009548909962177277 0.00730501115322113 0 0 0 0
1715880872 0.5558154582977295 -0.16784963011741638 -0.007948456332087517 0.00791220087558031 0 0 0 0
1719602956 0.546987771987915 -0.24491244554519653 -0.006390064023435116 0.008170749992132187 0 0 0 0
1723325040 0.5250288844108582 -0.32458287477493286 -0.004754317924380302 0.00842143315821886 0 0 0 0
1727047124 0.49676433205604553 -0.39179959893226624 -0.003129604272544384 0.008403951302170753 0 0 0 0
1730769208 0.45475679636001587 -0.45524531602859497 -0.0013977289199829102 0.007869609631597996 0 0 0 0
1734491292 0.40178555250167847 -0.5143129825592041 -0.00019735097885131836 0.00681683886796236 0 0 0 0
1738213376 0.347403347492218 -0.5595122575759888 0.0004321923479437828 0.005688277073204517 0 0 0 0
1741935460 0.2837594449520111 -0.5989559888839722 0.0005577430129051208 0.0048913899809122086 0 0 0 0
1745657544 0.21611759066581726 -0.626495897769928 0.0005344217643141747 0.0043105678632855415 0 0 0 0
1749379628 0.14619682729244232 -0.6425948143005371 0.0004491470754146576 0.00415346585214138 0 0 0 0
1753101712 0.0686991959810257 -0.6496090292930603 0.0005661072209477425 0.004411580041050911 0 0 0 0
1756823796 -8.630752563476562e-05 -0.643471360206604 0.001107039861381054 0.004534466192126274 0 0 0 0
1760545880 -0.06361861526966095 -0.6291998624801636 0.0017210207879543304 0.004581061191856861 0 0 0 0
1764267964 -0.13185149431228638 -0.6030569076538086 0.0023708390071988106 0.0045202746987342834 0 0 0 0
1767990048 -0.19077759981155396 -0.5675469040870667 0.003146977163851261 0.004198993556201458 0 0 0 0
1771712132 -0.24135830998420715 -0.5252059102058411 0.00376895722001791 0.003667960874736309 0 0 0 0
1775434216 -0.28421202301979065 -0.47693657875061035 0.004340064711868763 0.0030098212882876396 0 0 0 0
1779156300 -0.3204938471317291 -0.42097651958465576 0.004607232287526131 0.0020220745354890823 0 0 0 0
1782878384 -0.3479859232902527 -0.3631453812122345 0.004042754881083965 0.0009203292429447174 0 0 0 0
1786600468 -0.3660733997821808 -0.30272728204727173 0.0029942337423563004 0.0006049219518899918 0 0 0 0
1790322552 -0.3759133815765381 -0.2377418577671051 0.002279350534081459 0.0009938646107912064 0 0 0 0
1794044636 -0.37384918332099915 -0.17686772346496582 0.0022009769454598427 0.0017428509891033173 0 0 0 0
1797766720 -0.3636656701564789 -0.1138896644115448 0.002435089088976383 0.002179211936891079 0 0 0 0
1801488804 -0.34411102533340454 -0.05742056667804718 0.002551008015871048 0.0026242174208164215 0 0 0 0
1805210888 -0.317233681678772 -0.0039887577295303345 0.0031426232308149338 0.0036702724173665047 0 0 0 0
1808932972 -0.28249067068099976 0.044379692524671555 0.004738380201160908 0.004554267972707748 0 0 0 0
1812655056 -0.2413802593946457 0.08579079806804657 0.007089406251907349 0.004526572301983833 0 0 0 0
1816377140 -0.19383978843688965 0.122243732213974 0.009404041804373264 0.00314190611243248 0 0 0 0
1820099224 -0.143644779920578 0.14687171578407288 0.011343945749104023 0.0009148614481091499 0 0 0 0
1823821308 -0.08928752690553665 0.16355980932712555 0.011980476789176464 -0.0023993803188204765 0 0 0 0
1827543392 -0.035727862268686295 0.1717420369386673 0.011214612051844597 -0.005324836820363998 0 0 0 0
1831265476 0.015645522624254227 0.1715184450149536 0.010022955015301704 -0.0073553770780563354 0 0 0 0
1834987560 0.06559491902589798 0.16415570676326752 0.00895738136023283 -0.009127240628004074 0 0 0 0
1838709644 0.11526139080524445 0.14916864037513733 0.007144279778003693 -0.011053664609789848 0 0 0 0
1842431728 0.15899597108364105 0.1290050595998764 0.005115947686135769 -0.012323696166276932 0 0 0 0
1846153812 0.19917210936546326 0.10239382088184357 0.0029045436531305313 -0.012772331945598125 0 0 0 0
1849875896 0.2344914972782135 0.06990055739879608 0.00099115539342165 -0.012726901099085808 0 0 0 0
1853597980 0.2643981873989105 0.03438282757997513 -0.0004981067031621933 -0.012690139934420586 0 0 0 0
1857320064 0.28691306710243225 -0.0072936564683914185 -0.00212713610380888 -0.012493088841438293 0 0 0 0
1861042148 0.3017330467700958 -0.05009420961141586 -0.003333776257932186 -0.012165702879428864 0 0 0 0
1864764232 0.30972617864608765 -0.09277866035699844 -0.004589328542351723 -0.012215226888656616 0 0 0 0
1868486316 0.3100149929523468 -0.1370069682598114 -0.0064581092447042465 -0.012291435152292252 0 0 0 0
1872208400 0.30466532707214355 -0.17813850939273834 -0.008624757640063763 -0.01188160851597786 0 0 0 0
1875930484 0.29014700651168823 -0.21617932617664337 -0.012319834902882576 -0.010672017931938171 0 0 0 0
1879652568 0.26947274804115295 -0.25268107652664185 -0.014780129306018353 -0.008926993235945702 0 0 0 0
1883374652 0.24713870882987976 -0.2815239727497101 -0.017109831795096397 -0.00665071327239275 0 0 0 0
1887096736 0.221426859498024 -0.3062589168548584 -0.01912572793662548 -0.0037406841292977333 0 0 0 0
1890818820 0.1875011920928955 -0.3273043930530548 -0.02037925273180008 0.00011788588017225266 0 0 0 0
1894540904 0.15833541750907898 -0.3395417332649231 -0.020931465551257133 0.003733116202056408 0 0 0 0
1898262988 0.12236294895410538 -0.348540723323822 -0.02050100639462471 0.008260630071163177 0 0 0 0
1901985072 0.08851239085197449 -0.35024741291999817 -0.018885420635342598 0.012263564392924309 0 0 0 0
1905707156 0.056347161531448364 -0.3457876741886139 -0.016581272706389427 0.016137870028614998 0 0 0 0
1909429240 0.02711375057697296 -0.3378094434738159 -0.013619773089885712 0.019662296399474144 0 0 0 0
1913151324 -0.0014768987894058228 -0.324912965297699 -0.009450872428715229 0.022670928388834 0 0 0 0
1916873408 -0.02637845277786255 -0.30684682726860046 -0.00486916396766901 0.024200981482863426 0 0 0 0
1920595492 -0.04777906835079193 -0.28512465953826904 -0.00026185624301433563 0.024960078299045563 0 0 0 0
1924317576 -0.06380261480808258 -0.26139986515045166 0.004698009230196476 0.025065230205655098 0 0 0 0
1928039660 -0.07613097876310349 -0.2354527860879898 0.010186935774981976 0.024293556809425354 0 0 0 0
1931761744 -0.08509133756160736 -0.20805838704109192 0.016125306487083435 0.021353214979171753 0 0 0 0
1935483828 -0.08752335608005524 -0.18072232604026794 0.020472249016165733 0.016576725989580154 0 0 0 0
1939205912 -0.08743749558925629 -0.1511518955230713 0.02266177162528038 0.011079555377364159 0 0 0 0
1942927996 -0.08076607435941696 -0.1225878894329071 0.023135583847761154 0.006033203564584255 0 0 0 0
1946650080 -0.06822933256626129 -0.09597203880548477 0.02309340424835682 0.0016294503584504128 0 0 0 0
1950372164 -0.04990417882800102 -0.07099225372076035 0.022115686908364296 -0.00254268292337656 0 0 0 0
1954094248 -0.0277833491563797 -0.05189216136932373 0.020496398210525513 -0.006094149313867092 0 0 0 0
1957816332 -0.003680810332298279 -0.03784070163965225 0.018535569310188293 -0.009416710585355759 0 0 0 0
1961538416 0.02200116589665413 -0.028192194178700447 0.015886109322309494 -0.011917288415133953 0 0 0 0
1965260500 0.048719990998506546 -0.022615697234869003 0.013298970647156239 -0.013656162656843662 0 0 0 0
1968982584 0.0776168704032898 -0.02181936614215374 0.011744726449251175 -0.014700517989695072 0 0 0 0
1972704668 0.10525033622980118 -0.026907673105597496 0.0104249007999897 -0.016215315088629723 0 0 0 0
1976426752 0.13111725449562073 -0.037654150277376175 0.008515466935932636 -0.018979083746671677 0 0 0 0
1980148836 0.1541031301021576 -0.05317860469222069 0.005288410000503063 -0.021412793546915054 0 0 0 0
1983870920 0.17423488199710846 -0.07364456355571747 0.0010504787787795067 -0.023093700408935547 0 0 0 0
1987593004 0.18986883759498596 -0.0955139547586441 -0.004036229103803635 -0.023478714749217033 0 0 0 0
1991315088 0.19905000925064087 -0.12110956758260727 -0.008922959677875042 -0.021938329562544823 0 0 0 0
1995037172 0.20490413904190063 -0.14609694480895996 -0.013030105270445347 -0.019587649032473564 0 0 0 0
1998759256 0.2047606259584427 -0.17269398272037506 -0.016242044046521187 -0.016714265570044518 0 0 0 0
2002481340 0.20023255050182343 -0.19855527579784393 -0.019251519814133644 -0.013361753895878792 0 0 0 0
2006203424 0.19191044569015503 -0.22257305681705475 -0.02151966281235218 -0.00962132029235363 0 0 0 0
2009925508 0.17774567008018494 -0.24496254324913025 -0.023230843245983124 -0.004869427531957626 0 0 0 0
2013647592 0.16165567934513092 -0.26375922560691833 -0.023831266909837723 -0.0001684185117483139 0 0 0 0
2017369676 0.14296185970306396 -0.27932944893836975 -0.023260189220309258 0.004511860199272633 0 0 0 0
2021091760 0.11918363720178604 -0.29308584332466125 -0.021426882594823837 0.009000387042760849 0 0 0 0
2024813844 0.09469029307365417 -0.3019580543041229 -0.018717696890234947 0.012466711923480034 0 0 0 0
2028535928 0.06516337394714355 -0.30587196350097656 -0.015941686928272247 0.014673657715320587 0 0 0 0
2032258012 0.04133231192827225 -0.30400943756103516 -0.013583499938249588 0.016416331753134727 0 0 0 0
2035980096 0.01678640767931938 -0.29954782128334045 -0.010891694575548172 0.018441269174218178 0 0 0 0
2039702180 -0.00903882086277008 -0.29033413529396057 -0.007659740746021271 0.02100362442433834 0 0 0 0
2043424264 -0.03394804894924164 -0.2767939865589142 -0.0031585628166794777 0.021791156381368637 0 0 0 0
2047146348 -0.054879654198884964 -0.2595067620277405 0.001199786551296711 0.021382320672273636 0 0 0 0
2050868432 -0.07316277176141739 -0.23748844861984253 0.004488800652325153 0.020084241405129433 0 0 0 0
2054590516 -0.08870963752269745 -0.21180376410484314 0.007993155159056187 0.018660767003893852 0 0 0 0
2058312600 -0.0990547314286232 -0.1860983818769455 0.010382726788520813 0.016844015568494797 0 0 0 0
2062034684 -0.1051529049873352 -0.15699294209480286 0.012390714138746262 0.014720640145242214 0 0 0 0
2065756768 -0.10831896960735321 -0.12626256048679352 0.014526665210723877 0.012473497539758682 0 0 0 0
2069478852 -0.10536079108715057 -0.09673293679952621 0.016341276466846466 0.010498767718672752 0 0 0 0
2073200936 -0.09803140163421631 -0.06539756059646606 0.01789044216275215 0.007524449378252029 0 0 0 0
2076923020 -0.08571255207061768 -0.034859783947467804 0.018839238211512566 0.004136851988732815 0 0 0 0
2080645104 -0.06783883273601532 -0.006526925601065159 0.018774371594190598 0.0007983632385730743 0 0 0 0
2084367188 -0.044644325971603394 0.020035941153764725 0.0181485153734684 -0.002558859996497631 0 0 0 0
2088089272 -0.015673397108912468 0.043308667838573456 0.01701505482196808 -0.005023876205086708 0 0 0 0
2091811356 0.01735214702785015 0.06006312370300293 0.015784339979290962 -0.007474807091057301 0 0 0 0
2095533440 0.0534733310341835 0.07064590603113174 0.01445125974714756 -0.009806882590055466 0 0 0 0
2099255524 0.09150124341249466 0.0735568255186081 0.012473609298467636 -0.01223050057888031 0 0 0 0
2102977608 0.12901398539543152 0.06991145759820938 0.010374432429671288 -0.01380219217389822 0 0 0 0
2106699692 0.16467300057411194 0.059058092534542084 0.008310448378324509 -0.015188325196504593 0 0 0 0
2110421776 0.19661742448806763 0.04419539496302605 0.006058776751160622 -0.016876542940735817 0 0 0 0
2114143860 0.22563809156417847 0.022162042558193207 0.002973564900457859 -0.01827247254550457 0 0 0 0
2117865944 0.25026190280914307 -0.0006019286811351776 -0.000659354031085968 -0.01905638352036476 0 0 0 0
2121588028 0.27050167322158813 -0.029981641098856926 -0.004710109904408455 -0.018776677548885345 0 0 0 0
2125310112 0.2865060567855835 -0.059237487614154816 -0.008639293722808361 -0.017743946984410286 0 0 0 0
2129032196 0.29712703824043274 -0.0899105966091156 -0.012298058718442917 -0.01554308645427227 0 0 0 0
2132754280 0.30161410570144653 -0.12325353920459747 -0.015512973070144653 -0.011919714510440826 0 0 0 0
2136476364 0.30169549584388733 -0.1556108593940735 -0.017389139160513878 -0.007622435688972473 0 0 0 0
2140198448 0.2982369065284729 -0.1868879348039627 -0.01753966137766838 -0.003043391741812229 0 0 0 0
2143920532 0.28861987590789795 -0.21746209263801575 -0.01609002985060215 0.0006163967773318291 0 0 0 0
2147642616 0.27462998032569885 -0.24710066616535187 -0.013912573456764221 0.0031396569684147835 0 0 0 0
2151364700 0.2570559084415436 -0.27063387632369995 -0.012134391814470291 0.004290729761123657 0 0 0 0
2155086784 0.23399454355239868 -0.29507097601890564 -0.010872360318899155 0.004982425831258297 0 0 0 0
2158808868 0.2082487791776657 -0.3132026195526123 -0.010064264759421349 0.005574909970164299 0 0 0 0
2162530952 0.18061989545822144 -0.32745975255966187 -0.009556225501000881 0.006461691111326218 0 0 0 0
2166253036 0.15145933628082275 -0.33650732040405273 -0.008911008015275002 0.007868350483477116 0 0 0 0
2169975120 0.12237200886011124 -0.34112074971199036 -0.007873037829995155 0.009478358551859856 0 0 0 0
2173697204 0.09246495366096497 -0.3426467180252075 -0.006185879930853844 0.010818030685186386 0 0 0 0
2177419288 0.06125672906637192 -0.33789166808128357 -0.004276583902537823 0.011451185680925846 0 0 0 0
2181141372 0.03416579216718674 -0.3286772668361664 -0.0023197373375296593 0.011794982478022575 0 0 0 0
2184863456 0.009098455309867859 -0.3154563903808594 -0.0005343649536371231 0.011922010220587254 0 0 0 0
2188585540 -0.015780270099639893 -0.2987377941608429 0.001341838389635086 0.011940667405724525 0 0 0 0
2192307624 -0.03812946379184723 -0.27765196561813354 0.0036234501749277115 0.01165115088224411 0 0 0 0
2196029708 -0.057531535625457764 -0.25456175208091736 0.006015285849571228 0.010516383685171604 0 0 0 0
2199751792 -0.06922228634357452 -0.2291581779718399 0.007683355361223221 0.008725791238248348 0 0 0 0
2203473876 -0.08265015482902527 -0.19683997333049774 0.00874336902052164 0.006641563959419727 0 0 0 0
2207195960 -0.08569806814193726 -0.16600197553634644 0.008967669680714607 0.004895754158496857 0 0 0 0
2210918044 -0.08505427837371826 -0.1345733255147934 0.009288099594414234 0.003628394566476345 0 0 0 0
2214640128 -0.07748402655124664 -0.10618771612644196 0.00979019608348608 0.0021645966917276382 0 0 0 0
2218362212 -0.06714466959238052 -0.07761618494987488 0.009990536607801914 5.338899791240692e-05 0 0 0 0
2222084296 -0.05131029337644577 -0.05177775397896767 0.009363198652863503 -0.0023831799626350403 0 0 0 0
2225806380 -0.03057689405977726 -0.029979826882481575 0.007905369624495506 -0.00399379525333643 0 0 0 0
2229528464 -0.007270973175764084 -0.010817003436386585 0.006107572466135025 -0.004861899651587009 0 0 0 0
2233250548 0.018615294247865677 0.0016941139474511147 0.004517736844718456 -0.005230192095041275 0 0 0 0
2236972632 0.04413311928510666 0.010624261572957039 0.0032592331990599632 -0.005051874555647373 0 0 0 0
2240694716 0.07096374034881592 0.015094284899532795 0.002546682022511959 -0.004338880069553852 0 0 0 0
2244416800 0.09730148315429688 0.01812700554728508 0.0025490112602710724 -0.004044342786073685 0 0 0 0
2248138884 0.12579616904258728 0.01624704711139202 0.002376019023358822 -0.004330875352025032 0 0 0 0
2251860968 0.15336617827415466 0.009122051298618317 0.0040089283138513565 -0.005039849318563938 0 0 0 0
2255583052 0.18000531196594238 -0.004367932677268982 0.0032014166936278343 -0.006063112057745457 0 0 0 0
2259305136 0.20368272066116333 -0.022440537810325623 0.0019517680630087852 -0.006483551114797592 0 0 0 0
2263027220 0.22258371114730835 -0.04525982588529587 0.0014385487884283066 -0.0068251630291342735 0 0 0 0
2266749304 0.2372051328420639 -0.06975948810577393 0.0005567306652665138 -0.007446741685271263 0 0 0 0
2270471388 0.24367660284042358 -0.10177640616893768 -0.0006553567945957184 -0.008069559000432491 0 0 0 0
2274193472 0.2463315725326538 -0.12707127630710602 -0.0024176621809601784 -0.008172450587153435 0 0 0 0
2277915556 0.24292497336864471 -0.15344186127185822 -0.003943152725696564 -0.007836556062102318 0 0 0 0
2281637640 0.23816785216331482 -0.17668397724628448 -0.005213608033955097 -0.007088487967848778 0 0 0 0
2285359724 0.2252093106508255 -0.20158427953720093 -0.006321629509329796 -0.006393727846443653 0 0 0 0
2289081808 0.21251070499420166 -0.22074338793754578 -0.007231731899082661 -0.005527759902179241 0 0 0 0
2292803892 0.19725465774536133 -0.23588557541370392 -0.008051441982388496 -0.0048744287341833115 0 0 0 0
2296525976 0.17423897981643677 -0.252336710691452 -0.00896453857421875 -0.00385480560362339 0 0 0 0
2300248060 0.1558508425951004 -0.2624567449092865 -0.01016268040984869 -0.0028021838515996933 0 0 0 0
2303970144 0.1387075036764145 -0.2715409994125366 -0.011108530685305595 -0.0013194428756833076 0 0 0 0
2307692228 0.10687293857336044 -0.2746039628982544 -0.011468793265521526 0.0011002803221344948 0 0 0 0
2311414312 0.0843399241566658 -0.2733614444732666 -0.011138052679598331 0.003154606558382511 0 0 0 0
2315136396 0.060270972549915314 -0.26774531602859497 -0.010268483310937881 0.00473614688962698 0 0 0 0
2318858480 0.03586144745349884 -0.25878509879112244 -0.009342712350189686 0.006009633652865887 0 0 0 0
2322580564 0.014155611395835876 -0.24380722641944885 -0.008542315103113651 0.007140708155930042 0 0 0 0
2326302648 -0.00566534698009491 -0.22542667388916016 -0.007421849295496941 0.008378650061786175 0 0 0 0
2330024732 -0.020919982343912125 -0.20455226302146912 -0.006236325949430466 0.009236590936779976 0 0 0 0
2333746816 -0.030904866755008698 -0.18201839923858643 -0.004844343289732933 0.009779011830687523 0 0 0 0
2337468900 -0.040499888360500336 -0.15654361248016357 -0.0037279007956385612 0.01029928121715784 0 0 0 0
2341190984 -0.0426519550383091 -0.12929996848106384 -0.0023422222584486008 0.010946081951260567 0 0 0 0
2344913068 -0.03992817550897598 -0.10257367044687271 -0.0006818957626819611 0.011510942131280899 0 0 0 0
2348635152 -0.03432479500770569 -0.0750574842095375 0.0013782959431409836 0.011172409169375896 0 0 0 0
2352357236 -0.023256639018654823 -0.04941121116280556 0.003280133008956909 0.010438886471092701 0 0 0 0
2356079320 -0.007431068457663059 -0.025200236588716507 0.004629585891962051 0.009155744686722755 0 0 0 0
2359801404 0.012559215538203716 -0.003722541034221649 0.005849944427609444 0.0077330609783530235 0 0 0 0
2363523488 0.036459051072597504 0.013821728527545929 0.006533708423376083 0.0064966315403580666 0 0 0 0
2367245572 0.06293489784002304 0.027756577357649803 0.007116044871509075 0.005192033015191555 0 0 0 0
2370967656 0.09203379601240158 0.03692551329731941 0.0074178073555231094 0.0036165891215205193 0 0 0 0
2374689740 0.12387174367904663 0.04124513268470764 0.007188057526946068 0.0017939554527401924 0 0 0 0
2378411824 0.15696291625499725 0.038733962923288345 0.00623900443315506 0.0006643366068601608 0 0 0 0
2382133908 0.18967856466770172 0.02920042723417282 0.0053179459646344185 0.0002568978816270828 0 0 0 0
2385855992 0.21856211125850677 0.013097465969622135 0.004809798672795296 0.0002819737419486046 0 0 0 0
2389578076 0.2449502944946289 -0.005079701542854309 0.0046416595578193665 0.00023248419165611267 0 0 0 0
2393300160 0.2664113938808441 -0.0300888791680336 0.0046996185556054115 0.00013548973947763443 0 0 0 0
2397022244 0.28318846225738525 -0.059030771255493164 0.004869840107858181 -0.00022321194410324097 0 0 0 0
2400744328 0.29376420378685 -0.08596430718898773 0.005136548541486263 -0.0009792409837245941 0 0 0 0
2404466412 0.29921799898147583 -0.11754356324672699 0.005025292746722698 -0.002001081593334675 0 0 0 0
2408188496 0.2985458970069885 -0.1502372920513153 0.004458080045878887 -0.0027236398309469223 0 0 0 0
2411910580 0.29734155535697937 -0.17616358399391174 0.004088566638529301 -0.003263692371547222 0 0 0 0
2415632664 0.2864319682121277 -0.20646867156028748 0.0033731572329998016 -0.003979498520493507 0 0 0 0
2419354748 0.2731630802154541 -0.23372772336006165 0.0022949837148189545 -0.004657987505197525 0 0 0 0
2423076832 0.2599309980869293 -0.2553420960903168 0.0011955155059695244 -0.004479505121707916 0 0 0 0
2426798916 0.2389533519744873 -0.27800703048706055 0.00040577538311481476 -0.00411920715123415 0 0 0 0
2430521000 0.22224661707878113 -0.2938782572746277 -0.0005986103788018227 -0.005286442115902901 0 0 0 0
2434243084 0.1973433792591095 -0.3114870488643646 -0.0002264324575662613 -0.0033711297437548637 0 0 0 0
2437965168 0.1693771630525589 -0.3257393538951874 -0.0006716400384902954 -0.0030822139233350754 0 0 0 0
2441687252 0.14369970560073853 -0.33224889636039734 -0.0005924422293901443 -0.002712429501116276 0 0 0 0
2445409336 0.11180677264928818 -0.33740097284317017 -0.0005877763032913208 -0.002617419697344303 0 0 0 0
2449131420 0.08093384653329849 -0.3348456621170044 -0.0004220353439450264 -0.002688049338757992 0 0 0 0
2452853504 0.0529831126332283 -0.3291952311992645 -0.00028862711042165756 -0.0028154607862234116 0 0 0 0
2456575588 0.022995516657829285 -0.31838399171829224 -0.0004887878894805908 -0.0031951675191521645 0 0 0 0
2460297672 -0.001100987195968628 -0.30162280797958374 -0.0007277661934494972 -0.0036095203831791878 0 0 0 0
2464019756 -0.0269952192902565 -0.28256669640541077 -0.0011315420269966125 -0.004007869400084019 0 0 0 0
2467741840 -0.04658234864473343 -0.2603001594543457 -0.0018750755116343498 -0.004388384521007538 0 0 0 0
2471463924 -0.06634575873613358 -0.2331031858921051 -0.0027765296399593353 -0.004445158876478672 0 0 0 0
2475186008 -0.07342881709337234 -0.20698127150535583 -0.003638150170445442 -0.004161035642027855 0 0 0 0
2478908092 -0.08115725219249725 -0.1788552701473236 -0.004095094278454781 -0.003901965916156769 0 0 0 0
2482630176 -0.08336110413074493 -0.1503497064113617 -0.004610839299857616 -0.0036711832508444786 0 0 0 0
2486352260 -0.0826604962348938 -0.1219540536403656 -0.005424315109848976 -0.0032887738198041916 0 0 0 0
2490074344 -0.07822775095701218 -0.0936519056558609 -0.006113081239163876 -0.0029021697118878365 0 0 0 0
2493796428 -0.0689287930727005 -0.06733196973800659 -0.00692426972091198 -0.0022927410900592804 0 0 0 0
2497518512 -0.05725734680891037 -0.042358964681625366 -0.007605510763823986 -0.0013011572882533073 0 0 0 0
2501240596 -0.041841525584459305 -0.01906348019838333 -0.007829578593373299 -0.00021784286946058273 0 0 0 0
2504962680 -0.0236124936491251 0.0028643375262618065 -0.008212807588279247 0.0008397651836276054 0 0 0 0
2508684764 4.06922772526741e-05 0.02199740894138813 -0.008530465885996819 0.002019762061536312 0 0 0 0
2512406848 0.02666161023080349 0.03648702800273895 -0.008405466563999653 0.003339076414704323 0 0 0 0
2516128932 0.05586756765842438 0.04590226709842682 -0.008130578324198723 0.00489632785320282 0 0 0 0
2519851016 0.08505689352750778 0.05085219815373421 -0.007625077851116657 0.006589421071112156 0 0 0 0
2523573100 0.1146731823682785 0.049060992896556854 -0.00638740137219429 0.007940202951431274 0 0 0 0
2527295184 0.14266014099121094 0.04190104454755783 -0.004800956696271896 0.008875373750925064 0 0 0 0
2531017268 0.16720837354660034 0.033046904951334 -0.0032556718215346336 0.009332206100225449 0 0 0 0
2534739352 0.19011931121349335 0.018509522080421448 -0.0019247718155384064 0.009600947611033916 0 0 0 0
2538461436 0.21017321944236755 0.0027651116251945496 -0.0007085241377353668 0.010061537846922874 0 0 0 0
2542183520 0.2272503823041916 -0.01393437385559082 0.0012112818658351898 0.010106055997312069 0 0 0 0
2545905604 0.24194061756134033 -0.03413312882184982 0.0028212470933794975 0.009573856368660927 0 0 0 0
2549627688 0.2518056333065033 -0.05564035475254059 0.004195163957774639 0.00885216984897852 0 0 0 0
2553349772 0.2587195634841919 -0.07968558371067047 0.00528195034712553 0.00814878847450018 0 0 0 0
2557071856 0.2607113718986511 -0.10239086300134659 0.006578476168215275 0.00723638478666544 0 0 0 0
2560793940 0.2609352469444275 -0.12555736303329468 0.007658049464225769 0.006465055979788303 0 0 0 0
2564516024 0.25801753997802734 -0.14685896039009094 0.008792403154075146 0.005281195044517517 0 0 0 0
2568238108 0.2527487874031067 -0.16486437618732452 0.009859081357717514 0.003972840495407581 0 0 0 0
2571960192 0.2470361590385437 -0.18264661729335785 0.01078105065971613 0.002346430905163288 0 0 0 0
2575682276 0.23609736561775208 -0.20084083080291748 0.011602593585848808 0.00034911371767520905 0 0 0 0
2579404360 0.22482497990131378 -0.21535854041576385 0.011959015391767025 -0.0017050663009285927 0 0 0 0
2583126444 0.20758315920829773 -0.23124633729457855 0.011680779978632927 -0.004556470550596714 0 0 0 0
2586848528 0.18911635875701904 -0.2433132380247116 0.010744987986981869 -0.006899179890751839 0 0 0 0
2590570612 0.1736302524805069 -0.2501859664916992 0.009196972474455833 -0.009344745427370071 0 0 0 0
2594292696 0.1564568430185318 -0.25432252883911133 0.007191701792180538 -0.011178777553141117 0 0 0 0
2598014780 0.13635708391666412 -0.25732409954071045 0.004804546013474464 -0.012230808846652508 0 0 0 0
2601736864 0.12183675169944763 -0.2568415403366089 0.0021922001615166664 -0.012823320925235748 0 0 0 0
2605458948 0.10168245434761047 -0.25455302000045776 -0.00015851296484470367 -0.01259996835142374 0 0 0 0
2609181032 0.08346673846244812 -0.25118735432624817 -0.002318338491022587 -0.012236709706485271 0 0 0 0
2612903116 0.06771715730428696 -0.24270424246788025 -0.004389109089970589 -0.011279569007456303 0 0 0 0
2616625200 0.057146377861499786 -0.23204560577869415 -0.0058334702625870705 -0.0101799126714468 0 0 0 0
2620347284 0.045484501868486404 -0.2210354208946228 -0.006946847774088383 -0.00894341990351677 0 0 0 0
2624069368 0.03537523001432419 -0.20892606675624847 -0.007800891064107418 -0.0077615706250071526 0 0 0 0
2627791452 0.028996679931879044 -0.1945132464170456 -0.008367928676307201 -0.006663155741989613 0 0 0 0
2631513536 0.02326626516878605 -0.1799488067626953 -0.009289933368563652 -0.0055177174508571625 0 0 0 0
2635235620 0.019840475171804428 -0.1643206924200058 -0.010156622156500816 -0.004389525391161442 0 0 0 0
2638957704 0.02068020962178707 -0.15107515454292297 -0.010814779438078403 -0.003236588090658188 0 0 0 0
2642679788 0.02528279274702072 -0.13517270982265472 -0.011711955070495605 -0.0014643874019384384 0 0 0 0
2646401872 0.030679352581501007 -0.12231667339801788 -0.011983677744865417 0.0005606897175312042 0 0 0 0
2650123956 0.03787258639931679 -0.11191142350435257 -0.011854121461510658 0.002583608962595463 0 0 0 0
2653846040 0.0477239191532135 -0.10247088223695755 -0.011327383108437061 0.004517526365816593 0 0 0 0
2657568124 0.058117181062698364 -0.09601203352212906 -0.010511226952075958 0.006568245589733124 0 0 0 0
2661290208 0.06949048489332199 -0.09271809458732605 -0.009220102801918983 0.008443771861493587 0 0 0 0
2665012292 0.08021374046802521 -0.09122476726770401 -0.007303244434297085 0.01010952703654766 0 0 0 0
2668734376 0.09148739278316498 -0.09123993664979935 -0.005014847964048386 0.011176439933478832 0 0 0 0
2672456460 0.10348572582006454 -0.09229959547519684 -0.002587132155895233 0.011852319352328777 0 0 0 0
2676178544 0.11280560493469238 -0.09855682402849197 -5.567725747823715e-05 0.011659304611384869 0 0 0 0
2679900628 0.12137976288795471 -0.10583305358886719 0.002301594242453575 0.01103975623846054 0 0 0 0
2683622712 0.12983106076717377 -0.11337897926568985 0.004352138377726078 0.00980363693088293 0 0 0 0
2687344796 0.1328442096710205 -0.12461403757333755 0.006003900431096554 0.008223303593695164 0 0 0 0
2691066880 0.13507451117038727 -0.13589240610599518 0.006948911584913731 0.006259818561375141 0 0 0 0
2694788964 0.134469136595726 -0.1470460146665573 0.007400644011795521 0.004643791355192661 0 0 0 0
2698511048 0.13196158409118652 -0.15861256420612335 0.007441970519721508 0.0031365258619189262 0 0 0 0
2702233132 0.12580211460590363 -0.17008289694786072 0.007673246785998344 0.0019859904423356056 0 0 0 0
2705955216 0.1187630146741867 -0.17712175846099854 0.007722941227257252 0.0007149185985326767 0 0 0 0
2709677300 0.10600696504116058 -0.18624921143054962 0.007723676972091198 -0.0005902722477912903 0 0 0 0
2713399384 0.09778629243373871 -0.19008900225162506 0.007497122511267662 -0.0018520085141062737 0 0 0 0
2717121468 0.08513398468494415 -0.19267965853214264 0.007277291268110275 -0.003302893601357937 0 0 0 0
2720843552 0.07158593088388443 -0.1949942409992218 0.0064200786873698235 -0.004758669063448906 0 0 0 0
2724565636 0.05837435647845268 -0.1928047388792038 0.0053175268694758415 -0.006119247525930405 0 0 0 0
2728287720 0.044633518904447556 -0.18839317560195923 0.0039838217198848724 -0.0068640680983662605 0 0 0 0
2732009804 0.03149032965302467 -0.1817815750837326 0.002639003098011017 -0.0075046587735414505 0 0 0 0
2735731888 0.020950809121131897 -0.17132216691970825 0.0014701224863529205 -0.007740924134850502 0 0 0 0
2739453972 0.010770529508590698 -0.16011199355125427 6.29425048828125e-05 -0.00790072325617075 0 0 0 0
2743176056 0.0027564875781536102 -0.14635220170021057 -0.0012165205553174019 -0.007937869988381863 0 0 0 0
2746898140 -0.005046004429459572 -0.1314866840839386 -0.002817690372467041 -0.00797987636178732 0 0 0 0
2750620224 -0.008128020912408829 -0.11343590915203094 -0.004497158341109753 -0.00755914393812418 0 0 0 0
2754342308 -0.008667568676173687 -0.09536512196063995 -0.006518527865409851 -0.00636500958353281 0 0 0 0
2758064392 -0.004852304235100746 -0.0767553523182869 -0.007751772180199623 -0.00468495674431324 0 0 0 0
2761786476 0.0015062130987644196 -0.05903994292020798 -0.00838191993534565 -0.002718229778110981 0 0 0 0
2765508560 0.011061213910579681 -0.042286936193704605 -0.008732304908335209 -0.0006569372490048409 0 0 0 0
2769230644 0.02318877913057804 -0.027292640879750252 -0.00838699284940958 0.0013303318992257118 0 0 0 0
2772952728 0.037658218294382095 -0.013979420065879822 -0.007478466257452965 0.0033554118126630783 0 0 0 0
2776674812 0.054425131529569626 -0.002219587564468384 -0.006074743345379829 0.004949923604726791 0 0 0 0
2780396896 0.07423628866672516 0.006811288185417652 -0.004386542364954948 0.005870699882507324 0 0 0 0
2784118980 0.09597775340080261 0.012739956378936768 -0.00270651001483202 0.0063248928636312485 0 0 0 0
2787841064 0.11945348232984543 0.014020757749676704 -0.0010082488879561424 0.006427333690226078 0 0 0 0
2791563148 0.14351823925971985 0.011749498546123505 0.0007358631119132042 0.0061438921838998795 0 0 0 0
2795285232 0.16608698666095734 0.0050569139420986176 0.0020731501281261444 0.005551719106733799 0 0 0 0
2799007316 0.18830594420433044 -0.004920639097690582 0.003305705264210701 0.004593241028487682 0 0 0 0
2802729400 0.20821182429790497 -0.018961939960718155 0.004118002951145172 0.003261071629822254 0 0 0 0
2806451484 0.22473976016044617 -0.03728809952735901 0.004372475668787956 0.0021009081974625587 0 0 0 0
2810173568 0.2393433302640915 -0.054134536534547806 0.004460019059479237 0.001143127679824829 0 0 0 0
2813895652 0.2529744803905487 -0.07803308963775635 0.0047306399792432785 0.00037884991616010666 0 0 0 0
2817617736 0.2621968686580658 -0.09965500980615616 0.0048224544152617455 -0.0006672553718090057 0 0 0 0
2821339820 0.26509106159210205 -0.12925150990486145 0.004480671137571335 -0.0019511701539158821 0 0 0 0
2825061904 0.26569482684135437 -0.1556612253189087 0.0036241067573428154 -0.002834792248904705 0 0 0 0
2828783988 0.26246941089630127 -0.1814919412136078 0.00284742284566164 -0.0032603247091174126 0 0 0 0
2832506072 0.2545729875564575 -0.2074454426765442 0.002256392501294613 -0.003432423807680607 0 0 0 0
2836228156 0.2413931041955948 -0.23153270781040192 0.0016693538054823875 -0.0035607488825917244 0 0 0 0
2839950240 0.22642995417118073 -0.254172682762146 0.0013089431449770927 -0.0036074137315154076 0 0 0 0
2843672324 0.2087668478488922 -0.27021974325180054 0.0009782984852790833 -0.003594224341213703 0 0 0 0
2847394408 0.18796664476394653 -0.2862265408039093 0.0007142024114727974 -0.003790137358009815 0 0 0 0
2851116492 0.16597041487693787 -0.2996632754802704 0.00019803084433078766 -0.0041436441242694855 0 0 0 0
2854838576 0.14170709252357483 -0.3098538815975189 -0.00043430086225271225 -0.004297859966754913 0 0 0 0
2858560660 0.12338344007730484 -0.31586262583732605 -0.0009479820728302002 -0.004580212756991386 0 0 0 0
2862282744 0.09603890776634216 -0.31939467787742615 -0.0016761692240834236 -0.0044679343700408936 0 0 0 0
2866004828 0.07140479981899261 -0.32066044211387634 -0.0022569624707102776 -0.004297963343560696 0 0 0 0
2869726912 0.046029187738895416 -0.31816554069519043 -0.002919137477874756 -0.0039308322593569756 0 0 0 0
2873448996 0.023831740021705627 -0.3133538067340851 -0.0035274336114525795 -0.0034403670579195023 0 0 0 0
2877171080 -0.0015943050384521484 -0.30496945977211 -0.004077059216797352 -0.0028919121250510216 0 0 0 0
2880893164 -0.023254413157701492 -0.29477033019065857 -0.004657058976590633 -0.0022057080641388893 0 0 0 0
2884615248 -0.045630767941474915 -0.27964669466018677 -0.005164290778338909 -0.0011445404961705208 0 0 0 0
2888337332 -0.06062397360801697 -0.26273345947265625 -0.005240009166300297 8.242204785346985e-07 0 0 0 0
2892059416 -0.07998353987932205 -0.24220983684062958 -0.004932200536131859 0.0010844143107533455 0 0 0 0
2895781500 -0.09387893974781036 -0.21988196671009064 -0.0045515140518546104 0.002014235593378544 0 0 0 0
2899503584 -0.10319069027900696 -0.19602800905704498 -0.0039115967229008675 0.0026451153680682182 0 0 0 0
2903225668 -0.11258219182491302 -0.16988259553909302 -0.003290693275630474 0.0033948272466659546 0 0 0 0
2906947752 -0.1139051616191864 -0.14598317444324493 -0.0026704631745815277 0.004004614427685738 0 0 0 0
2910669836 -0.11475883424282074 -0.12160645425319672 -0.0017215525731444359 0.0047088442370295525 0 0 0 0
2914391920 -0.110872782766819 -0.09649792313575745 -0.0004646657034754753 0.0050046248361468315 0 0 0 0
2918114004 -0.10498017072677612 -0.07438298314809799 0.000781613402068615 0.004941604100167751 0 0 0 0
2921836088 -0.09726941585540771 -0.05165597423911095 0.0019376333802938461 0.004580223001539707 0 0 0 0
2925558172 -0.08675739914178848 -0.031294770538806915 0.0027039004489779472 0.0038801589980721474 0 0 0 0
2929280256 -0.07418494671583176 -0.012841975316405296 0.0032937806099653244 0.0032208021730184555 0 0 0 0
2933002340 -0.05937591940164566 0.0058313943445682526 0.0037734219804406166 0.002698955126106739 0 0 0 0
2936724424 -0.04316046088933945 0.021953502669930458 0.004268067888915539 0.0019210269674658775 0 0 0 0
2940446508 -0.025722555816173553 0.035159360617399216 0.004445826634764671 0.0011554528027772903 0 0 0 0
2944168592 -0.005511348135769367 0.04793227091431618 0.004457278177142143 9.695440530776978e-05 0 0 0 0
2947890676 0.015775488689541817 0.0580306202173233 0.003973949700593948 -0.000383574515581131 0 0 0 0
2951612760 0.03916161134839058 0.06483758985996246 0.0038405954837799072 -0.0005073891952633858 0 0 0 0
2955334844 0.06195943430066109 0.06910029798746109 0.003998599946498871 -0.0007268041372299194 0 0 0 0
2959056928 0.08649241924285889 0.07054676860570908 0.004200656898319721 -0.00117554422467947 0 0 0 0
2962779012 0.1109493151307106 0.06885659694671631 0.004458678886294365 -0.0018606064841151237 0 0 0 0
2966501096 0.13497352600097656 0.06427484005689621 0.004500950686633587 -0.0027447352185845375 0 0 0 0
2970223180 0.1585882008075714 0.05575502663850784 0.0039046965539455414 -0.004188551567494869 0 0 0 0
2973945264 0.18053539097309113 0.044122740626335144 0.0029140906408429146 -0.004914040677249432 0 0 0 0
2977667348 0.20148257911205292 0.029426302760839462 0.001776282675564289 -0.005355179309844971 0 0 0 0
2981389432 0.21943190693855286 0.015657255426049232 0.0006453022360801697 -0.005421615205705166 0 0 0 0
2985111516 0.2361559271812439 -0.005652770400047302 -0.0005530295893549919 -0.005241645500063896 0 0 0 0
2988833600 0.24879850447177887 -0.02702363207936287 -0.0016258331015706062 -0.004728084430098534 0 0 0 0
2992555684 0.25873520970344543 -0.04751026630401611 -0.0025129951536655426 -0.004076472483575344 0 0 0 0
2996277768 0.26495903730392456 -0.07101675122976303 -0.0031257392838597298 -0.003178841434419155 0 0 0 0
2999999852 0.2696651220321655 -0.09551656991243362 -0.003527432680130005 -0.0020565874874591827 0 0 0 0
