# HZ S RI R 50
1500000000 -0.0911426842212677 0.008256576955318451 0.04205775260925293 -0.027522604912519455 0 0 0 0
1503722084 -0.06770528107881546 0.03129560500383377 0.035922400653362274 -0.033104076981544495 0 0 0 0
1507444168 -0.038975149393081665 0.04918256029486656 0.03064563311636448 -0.03717495873570442 0 0 0 0
1511166252 -0.006363279186189175 0.06253016740083694 0.024326005950570107 -0.041727177798748016 0 0 0 0
1514888336 0.02789248526096344 0.07035483419895172 0.016936279833316803 -0.045138049870729446 0 0 0 0
1518610420 0.06412617117166519 0.0732157975435257 0.008882870897650719 -0.04729955270886421 0 0 0 0
1522332504 0.10041534900665283 0.07179678976535797 0.0008291639387607574 -0.04837847128510475 0 0 0 0
1526054588 0.13857047259807587 0.06467300653457642 -0.009096568450331688 -0.04744604974985123 0 0 0 0
1529776672 0.17717550694942474 0.05310635641217232 -0.017609775066375732 -0.04331096261739731 0 0 0 0
1533498756 0.2160796821117401 0.03277851641178131 -0.024155164137482643 -0.03714437782764435 0 0 0 0
1537220840 0.25095850229263306 0.0057103559374809265 -0.028484627604484558 -0.03084355778992176 0 0 0 0
1540942924 0.2818129360675812 -0.030621446669101715 -0.03170863911509514 -0.02438187226653099 0 0 0 0
1544665008 0.3071102797985077 -0.06947338581085205 -0.033351898193359375 -0.018169008195400238 0 0 0 0
1548387092 0.32469016313552856 -0.11766748130321503 -0.03395681083202362 -0.01157995406538248 0 0 0 0
1552109176 0.33741557598114014 -0.16125784814357758 -0.03328116610646248 -0.006059583276510239 0 0 0 0
1555831260 0.34307315945625305 -0.20757004618644714 -0.03164931759238243 -0.0011638794094324112 0 0 0 0
1559553344 0.3394339978694916 -0.2553735077381134 -0.029691077768802643 0.0028522713109850883 0 0 0 0
1563275428 0.3309326767921448 -0.30266284942626953 -0.027700306847691536 0.006170378997921944 0 0 0 0
1566997512 0.31437304615974426 -0.3499351143836975 -0.025549117475748062 0.00915463361889124 0 0 0 0
1570719596 0.28882327675819397 -0.3944534957408905 -0.023277409374713898 0.011507765389978886 0 0 0 0
1574441680 0.25709161162376404 -0.4338197112083435 -0.02093815617263317 0.013495832681655884 0 0 0 0
1578163764 0.22006063163280487 -0.4702853560447693 -0.018805133178830147 0.015449229627847672 0 0 0 0
1581885848 0.18288683891296387 -0.5011909008026123 -0.016759879887104034 0.017111675813794136 0 0 0 0
1585607932 0.13893690705299377 -0.5270195007324219 -0.014343269169330597 0.01893867552280426 0 0 0 0
1589330016 0.09136469662189484 -0.5476304888725281 -0.011681009083986282 0.020259760320186615 0 0 0 0
1593052100 0.03702978789806366 -0.5621734857559204 -0.009009843692183495 0.021114826202392578 0 0 0 0
1596774184 -0.020252853631973267 -0.5678647756576538 -0.0064370036125183105 0.021905571222305298 0 0 0 0
1600496268 -0.07592488825321198 -0.5629710555076599 -0.004113161005079746 0.022697189822793007 0 0 0 0
1604218352 -0.13028325140476227 -0.5506979823112488 -0.0014983462169766426 0.023555181920528412 0 0 0 0
1607940436 -0.18370671570301056 -0.5305905938148499 0.0016873348504304886 0.024518122896552086 0 0 0 0
1611662520 -0.23085515201091766 -0.5064558982849121 0.005640684626996517 0.025199629366397858 0 0 0 0
1615384604 -0.2756569981575012 -0.4739992618560791 0.010045291855931282 0.02486780844628811 0 0 0 0
1619106688 -0.32135656476020813 -0.43053877353668213 0.014758488163352013 0.023126257583498955 0 0 0 0
1622828772 -0.3566829562187195 -0.38472694158554077 0.01886557787656784 0.020489562302827835 0 0 0 0
1626550856 -0.3886498808860779 -0.33099785447120667 0.022552650421857834 0.016958625987172127 0 0 0 0
1630272940 -0.41156211495399475 -0.27427831292152405 0.02556833252310753 0.012734871357679367 0 0 0 0
1633995024 -0.4296647012233734 -0.2124454379081726 0.02791043557226658 0.007996246218681335 0 0 0 0
1637717108 -0.438259482383728 -0.14755362272262573 0.029383370652794838 0.002459295094013214 0 0 0 0
1641439192 -0.4370552599430084 -0.08099458366632462 0.029566485434770584 -0.0034600254148244858 0 0 0 0
1645161276 -0.4238566756248474 -0.013405963778495789 0.028479713946580887 -0.00953933410346508 0 0 0 0
1648883360 -0.40214183926582336 0.04951639473438263 0.025409534573554993 -0.01573348045349121 0 0 0 0
1652605444 -0.3707789182662964 0.11463680863380432 0.020652595907449722 -0.020367436110973358 0 0 0 0
1656327528 -0.3327755928039551 0.16933166980743408 0.015673957765102386 -0.023110417649149895 0 0 0 0
1660049612 -0.28127363324165344 0.22532522678375244 0.01036814320832491 -0.024866512045264244 0 0 0 0
1663771696 -0.22185689210891724 0.27153176069259644 0.005324141122400761 -0.025699423626065254 0 0 0 0
1667493780 -0.15462714433670044 0.3085486590862274 0.00011990219354629517 -0.025707587599754333 0 0 0 0
1671215864 -0.08147209882736206 0.334087073802948 -0.005240096710622311 -0.024424752220511436 0 0 0 0
1674937948 -0.005107983946800232 0.3479936122894287 -0.010055921040475368 -0.02152109146118164 0 0 0 0
1678660032 0.07576054334640503 0.34970971941947937 -0.013469954952597618 -0.01727655529975891 0 0 0 0
1682382116 0.15313033759593964 0.33978328108787537 -0.014652570709586143 -0.013176092877984047 0 0 0 0
1686104200 0.23288729786872864 0.31528207659721375 -0.015282872132956982 -0.009552519768476486 0 0 0 0
1689826284 0.3071726858615875 0.27982109785079956 -0.015191454440355301 -0.0066622840240597725 0 0 0 0
1693548368 0.37368637323379517 0.22993457317352295 -0.015028768219053745 -0.003985424526035786 0 0 0 0
1697270452 0.42913469672203064 0.17295821011066437 -0.01442662626504898 -0.0015190336853265762 0 0 0 0
1700992536 0.4765385389328003 0.10687929391860962 -0.013586475513875484 0.0008439626544713974 0 0 0 0
1704714620 0.5108283758163452 0.03352056443691254 -0.012326573953032494 0.002879161387681961 0 0 0 0
1708436704 0.5327266454696655 -0.042803116142749786 -0.010899446904659271 0.004403208382427692 0 0 0 0
1712158788 0.545253574848175 -0.117740198969841 -0.009187081828713417 0.005485566332936287 0 0 0 0
1715880872 0.5442772507667542 -0.19243848323822021 -0.0074980659410357475 0.006009332835674286 0 0 0 0
1719602956 0.5292823314666748 -0.2720099687576294 -0.0061996085569262505 0.006107185035943985 0 0 0 0
1723325040 0.5091084837913513 -0.34141767024993896 -0.00512514915317297 0.006226127035915852 0 0 0 0
1727047124 0.4738904535770416 -0.4074251651763916 -0.003959245048463345 0.006286696530878544 0 0 0 0
1730769208 0.428501158952713 -0.4686354100704193 -0.0029163528233766556 0.005703634582459927 0 0 0 0
1734491292 0.3774285912513733 -0.5204137563705444 -0.002516482025384903 0.0049962243065238 0 0 0 0
1738213376 0.31980520486831665 -0.5622164607048035 -0.002520664595067501 0.004692042246460915 0 0 0 0
1741935460 0.26168665289878845 -0.5935235023498535 -0.0027773110195994377 0.004676545038819313 0 0 0 0
1745657544 0.1924116015434265 -0.6178359389305115 -0.002986743114888668 0.005104828625917435 0 0 0 0
1749379628 0.1252554953098297 -0.6305071115493774 -0.0029854057356715202 0.005928919650614262 0 0 0 0
1753101712 0.0568200945854187 -0.6334190964698792 -0.0023958198726177216 0.006959359161555767 0 0 0 0
1756823796 -0.013509519398212433 -0.6263946890830994 -0.0013338234275579453 0.007741562090814114 0 0 0 0
1760545880 -0.0767940878868103 -0.608576774597168 -8.858274668455124e-05 0.008032623678445816 0 0 0 0
1764267964 -0.13569337129592896 -0.5808179378509521 0.0012864992022514343 0.008251963183283806 0 0 0 0
1767990048 -0.19069485366344452 -0.5470078587532043 0.0028801187872886658 0.00784345529973507 0 0 0 0
1771712132 -0.23600922524929047 -0.5072882175445557 0.004141582176089287 0.007029622793197632 0 0 0 0
1775434216 -0.27877894043922424 -0.45671623945236206 0.004921263083815575 0.0061791762709617615 0 0 0 0
1779156300 -0.3114190101623535 -0.40234917402267456 0.005566670559346676 0.004839996807277203 0 0 0 0
1782878384 -0.3342283070087433 -0.3478556275367737 0.005480007268488407 0.0037586987018585205 0 0 0 0
1786600468 -0.35107606649398804 -0.2876926362514496 0.004998896270990372 0.0033842679113149643 0 0 0 0
1790322552 -0.3593416213989258 -0.2268488109111786 0.004950264468789101 0.003265121951699257 0 0 0 0
1794044636 -0.3569687604904175 -0.16979527473449707 0.005159690976142883 0.0032091839239001274 0 0 0 0
1797766720 -0.34640783071517944 -0.1112358495593071 0.005278392694890499 0.0030624689534306526 0 0 0 0
1801488804 -0.3263596296310425 -0.055879347026348114 0.0052093761041760445 0.0032730121165513992 0 0 0 0
1805210888 -0.2998364567756653 -0.004000604152679443 0.005856509320437908 0.004239896312355995 0 0 0 0
1808932972 -0.26680874824523926 0.04131132364273071 0.007763270288705826 0.005056465044617653 0 0 0 0
1812655056 -0.22752505540847778 0.0800187885761261 0.010688032023608685 0.004450889304280281 0 0 0 0
1816377140 -0.18299950659275055 0.11277887225151062 0.01319517008960247 0.0024263374507427216 0 0 0 0
1820099224 -0.13358187675476074 0.1389245092868805 0.015216046012938023 -0.0009034555405378342 0 0 0 0
1823821308 -0.08140608668327332 0.15467165410518646 0.015652276575565338 -0.005227342247962952 0 0 0 0
1827543392 -0.02676699496805668 0.16268965601921082 0.013962137512862682 -0.009231128729879856 0 0 0 0
1831265476 0.024513069540262222 0.16227257251739502 0.011939909309148788 -0.011587422341108322 0 0 0 0
1834987560 0.07503456622362137 0.15264065563678741 0.009565072134137154 -0.01369618158787489 0 0 0 0
1838709644 0.11826670914888382 0.13861241936683655 0.007032762281596661 -0.015296060591936111 0 0 0 0
1842431728 0.16089311242103577 0.11729086190462112 0.004036587662994862 -0.01643676683306694 0 0 0 0
1846153812 0.19834992289543152 0.09334924817085266 0.0012246109545230865 -0.016918659210205078 0 0 0 0
1849875896 0.23269955813884735 0.06238917261362076 -0.0015044091269373894 -0.016885699704289436 0 0 0 0
1853597980 0.2618297338485718 0.025042612105607986 -0.0044468846172094345 -0.016696752980351448 0 0 0 0
1857320064 0.2831777334213257 -0.01459340751171112 -0.007278154604136944 -0.015817847102880478 0 0 0 0
1861042148 0.2970995306968689 -0.05689831078052521 -0.009405378252267838 -0.01432502269744873 0 0 0 0
1864764232 0.3037056028842926 -0.09916573017835617 -0.011269908398389816 -0.013263711705803871 0 0 0 0
1868486316 0.3051588535308838 -0.14003826677799225 -0.013662462122738361 -0.011945907026529312 0 0 0 0
1872208400 0.29598450660705566 -0.1842663586139679 -0.016072900965809822 -0.0099096167832613 0 0 0 0
1875930484 0.2795325219631195 -0.2220284789800644 -0.017502905800938606 -0.007392394356429577 0 0 0 0
1879652568 0.2612869441509247 -0.25402456521987915 -0.018986321985721588 -0.004564971663057804 0 0 0 0
1883374652 0.2374446988105774 -0.28234702348709106 -0.02009381726384163 -0.0014537815004587173 0 0 0 0
1887096736 0.20922575891017914 -0.3070271611213684 -0.020732883363962173 0.002208544872701168 0 0 0 0
1890818820 0.17949189245700836 -0.32489779591560364 -0.020334724336862564 0.00563098955899477 0 0 0 0
1894540904 0.15069925785064697 -0.33691972494125366 -0.019993558526039124 0.009203620254993439 0 0 0 0
1898262988 0.1151566356420517 -0.3441992700099945 -0.018928248435258865 0.012964855879545212 0 0 0 0
1901985072 0.08225780725479126 -0.3459418714046478 -0.01658695936203003 0.016767680644989014 0 0 0 0
1905707156 0.051472246646881104 -0.3427414894104004 -0.01376267522573471 0.020239930599927902 0 0 0 0
1909429240 0.021976418793201447 -0.33180415630340576 -0.009920578449964523 0.022967420518398285 0 0 0 0
1913151324 -0.0045500248670578 -0.31769534945487976 -0.005405617877840996 0.025045713409781456 0 0 0 0
1916873408 -0.029861684888601303 -0.29925626516342163 -0.0001696217805147171 0.025666775181889534 0 0 0 0
1920595492 -0.05011666566133499 -0.27741867303848267 0.004438212141394615 0.025443606078624725 0 0 0 0
1924317576 -0.06390084326267242 -0.2530214190483093 0.008980284444987774 0.02456706576049328 0 0 0 0
1928039660 -0.07359058409929276 -0.2279348075389862 0.013907215557992458 0.02305835299193859 0 0 0 0
1931761744 -0.08223249018192291 -0.2003861963748932 0.01901133358478546 0.019672974944114685 0 0 0 0
1935483828 -0.08208033442497253 -0.17391853034496307 0.022591665387153625 0.015021705068647861 0 0 0 0
1939205912 -0.07967160642147064 -0.14670903980731964 0.024703387171030045 0.009808732196688652 0 0 0 0
1942927996 -0.07330064475536346 -0.1189732551574707 0.025520451366901398 0.004678075201809406 0 0 0 0
1946650080 -0.06097444146871567 -0.09348680078983307 0.025582073256373405 -0.0007235901430249214 0 0 0 0
1950372164 -0.04396537318825722 -0.07103384286165237 0.02428884245455265 -0.005687878467142582 0 0 0 0
1954094248 -0.021884974092245102 -0.05327839404344559 0.022110432386398315 -0.009534532204270363 0 0 0 0
1957816332 0.002300298772752285 -0.04025809466838837 0.01888563111424446 -0.013119767419993877 0 0 0 0
1961538416 0.0269017294049263 -0.03177623078227043 0.015411866828799248 -0.015589753165841103 0 0 0 0
1965260500 0.052776023745536804 -0.027198385447263718 0.012260387651622295 -0.016694584861397743 0 0 0 0
1968982584 0.0799202024936676 -0.027499422430992126 0.00971120037138462 -0.017300724983215332 0 0 0 0
1972704668 0.10607260465621948 -0.034270551055669785 0.007772017270326614 -0.018416039645671844 0 0 0 0
1976426752 0.1310400366783142 -0.043938834220170975 0.005792845971882343 -0.02010473981499672 0 0 0 0
1980148836 0.15294887125492096 -0.057872846722602844 0.0031651696190238 -0.02204464003443718 0 0 0 0
1983870920 0.17234982550144196 -0.07585540413856506 -0.0011335154995322227 -0.02338556945323944 0 0 0 0
1987593004 0.18734373152256012 -0.09943043440580368 -0.0065506864339113235 -0.02378159761428833 0 0 0 0
1991315088 0.1969285011291504 -0.12314176559448242 -0.011538559570908546 -0.02240510657429695 0 0 0 0
1995037172 0.20265640318393707 -0.1481669843196869 -0.015954729169607162 -0.01991748996078968 0 0 0 0
1998759256 0.20262540876865387 -0.17326751351356506 -0.019639799371361732 -0.016336794942617416 0 0 0 0
2002481340 0.19902139902114868 -0.19882133603096008 -0.022793075069785118 -0.012594373896718025 0 0 0 0
2006203424 0.1906147301197052 -0.2225881963968277 -0.025246478617191315 -0.007782334461808205 0 0 0 0
2009925508 0.1771395355463028 -0.24486786127090454 -0.026544239372015 -0.0024883029982447624 0 0 0 0
2013647592 0.15992394089698792 -0.2655191123485565 -0.026499830186367035 0.003345513716340065 0 0 0 0
2017369676 0.14140383899211884 -0.28081709146499634 -0.024908749386668205 0.008302728645503521 0 0 0 0
2021091760 0.11774307489395142 -0.2942582070827484 -0.022210465744137764 0.013274391181766987 0 0 0 0
2024813844 0.09108076989650726 -0.3026978373527527 -0.018348103389143944 0.016676798462867737 0 0 0 0
2028535928 0.06620074808597565 -0.30463147163391113 -0.014592260122299194 0.018692512065172195 0 0 0 0
2032258012 0.0429476797580719 -0.3026168942451477 -0.011059866286814213 0.02021496184170246 0 0 0 0
2035980096 0.0167812742292881 -0.29835745692253113 -0.007968286983668804 0.021055616438388824 0 0 0 0
2039702180 -0.007551997900009155 -0.2897014915943146 -0.004375061951577663 0.02237246185541153 0 0 0 0
2043424264 -0.031294822692871094 -0.2757927477359772 -7.095839828252792e-05 0.022438297048211098 0 0 0 0
2047146348 -0.05280475318431854 -0.25806882977485657 0.003708847798407078 0.021535247564315796 0 0 0 0
2050868432 -0.07050611823797226 -0.23675762116909027 0.00663759745657444 0.019758978858590126 0 0 0 0
2054590516 -0.08405179530382156 -0.21457721292972565 0.00945526733994484 0.018145646899938583 0 0 0 0
2058312600 -0.09738468378782272 -0.1885679066181183 0.012025845237076283 0.016223538666963577 0 0 0 0
2062034684 -0.10392169654369354 -0.1621972620487213 0.013815406709909439 0.013796284794807434 0 0 0 0
2065756768 -0.10800714045763016 -0.13164028525352478 0.015395548194646835 0.011299852281808853 0 0 0 0
2069478852 -0.10806037485599518 -0.09978850930929184 0.016852378845214844 0.008980542421340942 0 0 0 0
2073200936 -0.10243650525808334 -0.06872553378343582 0.017943117767572403 0.006084274500608444 0 0 0 0
2076923020 -0.09064477682113647 -0.03654935210943222 0.018583426252007484 0.0032594092190265656 0 0 0 0
2080645104 -0.07357772439718246 -0.006077227182686329 0.01874861679971218 8.485373109579086e-05 0 0 0 0
2084367188 -0.04997390881180763 0.02104755863547325 0.018046583980321884 -0.0027095256373286247 0 0 0 0
2088089272 -0.021114902570843697 0.04503144323825836 0.017476052045822144 -0.005193466320633888 0 0 0 0
2091811356 0.013461042195558548 0.06225128099322319 0.016528373584151268 -0.007883463054895401 0 0 0 0
2095533440 0.04938679561018944 0.07287254929542542 0.014928962104022503 -0.010992052964866161 0 0 0 0
2099255524 0.08730559796094894 0.07690449059009552 0.012428058311343193 -0.013733080588281155 0 0 0 0
2102977608 0.1251164674758911 0.07475879788398743 0.009646709077060223 -0.015267543494701385 0 0 0 0
2106699692 0.16138774156570435 0.06584101915359497 0.006925310008227825 -0.01658591628074646 0 0 0 0
2110421776 0.19553230702877045 0.05073567479848862 0.003980587236583233 -0.01765926368534565 0 0 0 0
2114143860 0.22742916643619537 0.030125895515084267 0.0006035827100276947 -0.01798311062157154 0 0 0 0
2117865944 0.2540031969547272 0.00576966255903244 -0.002670533023774624 -0.01792026311159134 0 0 0 0
2121588028 0.27480700612068176 -0.02360166609287262 -0.006100193597376347 -0.01718291826546192 0 0 0 0
2125310112 0.29044109582901 -0.054480329155921936 -0.009813309647142887 -0.015576962381601334 0 0 0 0
2129032196 0.3010583519935608 -0.08790705353021622 -0.012478278949856758 -0.013109242543578148 0 0 0 0
2132754280 0.30701014399528503 -0.12126759439706802 -0.014723657630383968 -0.010021175257861614 0 0 0 0
2136476364 0.3065837323665619 -0.15565988421440125 -0.016068141907453537 -0.006418652832508087 0 0 0 0
2140198448 0.3019636869430542 -0.18901893496513367 -0.016261616721749306 -0.0025447914376854897 0 0 0 0
2143920532 0.29126331210136414 -0.22072333097457886 -0.015438930131494999 0.0008352948352694511 0 0 0 0
2147642616 0.2776073217391968 -0.24842867255210876 -0.013760530389845371 0.0032086744904518127 0 0 0 0
2151364700 0.25762468576431274 -0.2757576107978821 -0.012284889817237854 0.004899110645055771 0 0 0 0
2155086784 0.23353806138038635 -0.29785916209220886 -0.010839089751243591 0.006059201434254646 0 0 0 0
2158808868 0.2086254060268402 -0.3150220215320587 -0.009352711960673332 0.007021068595349789 0 0 0 0
2162530952 0.1806277334690094 -0.3280995786190033 -0.008267165161669254 0.007540722377598286 0 0 0 0
2166253036 0.15160685777664185 -0.33663368225097656 -0.007664916105568409 0.008308172225952148 0 0 0 0
2169975120 0.12227611243724823 -0.34139952063560486 -0.006584073416888714 0.009698367677628994 0 0 0 0
2173697204 0.09294663369655609 -0.3417592942714691 -0.00470657367259264 0.010827703401446342 0 0 0 0
2177419288 0.06405874341726303 -0.3369446396827698 -0.0026804767549037933 0.011267374269664288 0 0 0 0
2181141372 0.033378615975379944 -0.328536719083786 -0.0007197307422757149 0.011108020320534706 0 0 0 0
2184863456 0.010856762528419495 -0.31579267978668213 0.0008236002177000046 0.01083641592413187 0 0 0 0
2188585540 -0.014065831899642944 -0.3006705641746521 0.002255195751786232 0.010389882139861584 0 0 0 0
2192307624 -0.0373246967792511 -0.2804284393787384 0.0037514204159379005 0.01005193218588829 0 0 0 0
2196029708 -0.05556808039546013 -0.2568973898887634 0.005611038766801357 0.009283078834414482 0 0 0 0
2199751792 -0.07097595185041428 -0.2313195914030075 0.007154772989451885 0.007926477119326591 0 0 0 0
2203473876 -0.08085889369249344 -0.19961769878864288 0.008078958839178085 0.006040874868631363 0 0 0 0
2207195960 -0.08758945018053055 -0.16814862191677094 0.008556709624826908 0.004359826445579529 0 0 0 0
2210918044 -0.08633892983198166 -0.13691848516464233 0.008672964759171009 0.0029532145708799362 0 0 0 0
2214640128 -0.0791587308049202 -0.10737583041191101 0.00853396113961935 0.0014079920947551727 0 0 0 0
2218362212 -0.06902486830949783 -0.07852347940206528 0.008440014906227589 6.21844083070755e-06 0 0 0 0
2222084296 -0.05271085351705551 -0.05249563232064247 0.007935740053653717 -0.0015022270381450653 0 0 0 0
2225806380 -0.03271939605474472 -0.027974581345915794 0.0069558583199977875 -0.002666208893060684 0 0 0 0
2229528464 -0.008406351320445538 -0.009843285195529461 0.00606496911495924 -0.00322126317769289 0 0 0 0
2233250548 0.01774335838854313 0.00320476945489645 0.005318049341440201 -0.0038439659401774406 0 0 0 0
2236972632 0.044045984745025635 0.011952215805649757 0.004663045518100262 -0.004158074036240578 0 0 0 0
2240694716 0.07084605097770691 0.016518609598279 0.003982837311923504 -0.004540145397186279 0 0 0 0
2244416800 0.09764417260885239 0.01825248822569847 0.003681456670165062 -0.004715669900178909 0 0 0 0
2248138884 0.12556181848049164 0.019317753612995148 0.0034239357337355614 -0.00508248433470726 0 0 0 0
2251860968 0.15507185459136963 0.006874557584524155 0.0029398221522569656 -0.005850981920957565 0 0 0 0
2255583052 0.1813158243894577 -0.004361957311630249 0.0019910912960767746 -0.00673102680593729 0 0 0 0
2259305136 0.20385631918907166 -0.024049248546361923 0.0007114829495549202 -0.007009854540228844 0 0 0 0
2263027220 0.22213760018348694 -0.047870248556137085 -0.00037399772554636 -0.0073325298726558685 0 0 0 0
2266749304 0.2370200902223587 -0.07020477950572968 -0.0014461763203144073 -0.007383894175291061 0 0 0 0
2270471388 0.24473442137241364 -0.09904409199953079 -0.0026410147547721863 -0.007290279492735863 0 0 0 0
2274193472 0.24590599536895752 -0.12478111684322357 -0.004112635739147663 -0.006814599968492985 0 0 0 0
2277915556 0.24508312344551086 -0.1509646773338318 -0.005088316276669502 -0.006208370439708233 0 0 0 0
2281637640 0.23559334874153137 -0.17883475124835968 -0.005783522501587868 -0.0056295692920684814 0 0 0 0
2285359724 0.2262229174375534 -0.19876620173454285 -0.006582833826541901 -0.004997093230485916 0 0 0 0
2289081808 0.20966345071792603 -0.22106501460075378 -0.0075012752786278725 -0.004198470152914524 0 0 0 0
2292803892 0.19188521802425385 -0.23792824149131775 -0.008225000463426113 -0.0033358456566929817 0 0 0 0
2296525976 0.17824020981788635 -0.24716028571128845 -0.00891256332397461 -0.002557649277150631 0 0 0 0
2300248060 0.15392084419727325 -0.26062414050102234 -0.00995396263897419 -0.0011948896571993828 0 0 0 0
2303970144 0.13718284666538239 -0.2702137231826782 -0.01053803600370884 0.00030346401035785675 0 0 0 0
2307692228 0.11015905439853668 -0.2724640369415283 -0.010610934346914291 0.002452448010444641 0 0 0 0
2311414312 0.08310501277446747 -0.27281665802001953 -0.009794440120458603 0.0044937292113900185 0 0 0 0
2315136396 0.058484598994255066 -0.26826930046081543 -0.008157016709446907 0.005965044721961021 0 0 0 0
2318858480 0.04029185697436333 -0.26042884588241577 -0.0072263916954398155 0.006158294156193733 0 0 0 0
2322580564 0.013193711638450623 -0.24732795357704163 -0.00648322980850935 0.006567434407770634 0 0 0 0
2326302648 -0.006692375987768173 -0.22937054932117462 -0.0059144701808691025 0.007144816219806671 0 0 0 0
2330024732 -0.020405959337949753 -0.20942480862140656 -0.005085582844913006 0.008158614858984947 0 0 0 0
2333746816 -0.03598856180906296 -0.18443059921264648 -0.004137095995247364 0.00846300832927227 0 0 0 0
2337468900 -0.039924003183841705 -0.159315824508667 -0.002985266037285328 0.008985360153019428 0 0 0 0
2341190984 -0.04744108021259308 -0.12959663569927216 -0.002027996815741062 0.009462197311222553 0 0 0 0
2344913068 -0.0452735498547554 -0.10115743428468704 -0.0005824435502290726 0.0098304757848382 0 0 0 0
2348635152 -0.03784531354904175 -0.07418730854988098 0.001235215924680233 0.009697923436760902 0 0 0 0
2352357236 -0.026466811075806618 -0.048185791820287704 0.0028288858011364937 0.009012343361973763 0 0 0 0
2356079320 -0.01136070303618908 -0.023398997262120247 0.0038775205612182617 0.007874561473727226 0 0 0 0
2359801404 0.009003055281937122 -0.0011263908818364143 0.004597481340169907 0.006882989779114723 0 0 0 0
2363523488 0.03355741500854492 0.017931146547198296 0.0055001648142933846 0.006145387887954712 0 0 0 0
2367245572 0.06130141392350197 0.03220891207456589 0.00623734388500452 0.004700666293501854 0 0 0 0
2370967656 0.09115992486476898 0.04116702824831009 0.006376270204782486 0.0030324626713991165 0 0 0 0
2374689740 0.12358580529689789 0.045851439237594604 0.006020344793796539 0.0013972986489534378 0 0 0 0
2378411824 0.1573696881532669 0.04315992444753647 0.0048708077520132065 0.00039367564022541046 0 0 0 0
2382133908 0.19018985331058502 0.03566860780119896 0.0038518086075782776 0.0002575404942035675 0 0 0 0
2385855992 0.22194741666316986 0.019815202802419662 0.003333928994834423 0.0005672797560691833 0 0 0 0
2389578076 0.24968259036540985 0.00012922286987304688 0.003161153756082058 0.0009551942348480225 0 0 0 0
2393300160 0.27197304368019104 -0.02721118927001953 0.003500147722661495 0.0012002671137452126 0 0 0 0
2397022244 0.28963038325309753 -0.055999115109443665 0.00422232411801815 0.0012898687273263931 0 0 0 0
2400744328 0.2987276315689087 -0.0879436656832695 0.004975092597305775 0.0005829315632581711 0 0 0 0
2404466412 0.3049534559249878 -0.11998241394758224 0.005284890532493591 -0.0005670320242643356 0 0 0 0
2408188496 0.3053898215293884 -0.15014344453811646 0.005069061182439327 -0.0017288196831941605 0 0 0 0
2411910580 0.2999214828014374 -0.18040025234222412 0.004599732346832752 -0.0025615328922867775 0 0 0 0
2415632664 0.29138922691345215 -0.20890283584594727 0.004070683382451534 -0.003402804024517536 0 0 0 0
2419354748 0.2779581844806671 -0.23455673456192017 0.0031662220135331154 -0.004264473915100098 0 0 0 0
2423076832 0.2620529234409332 -0.25837984681129456 0.0019819065928459167 -0.0045336950570344925 0 0 0 0
2426798916 0.24263866245746613 -0.2804126441478729 0.0007719248533248901 -0.004469882696866989 0 0 0 0
2430521000 0.22127600014209747 -0.2999957799911499 -6.029196083545685e-05 -0.003891756758093834 0 0 0 0
2434243084 0.19412937760353088 -0.3178185224533081 -0.00043753813952207565 -0.0032895291224122047 0 0 0 0
2437965168 0.17148688435554504 -0.3277302384376526 -0.0005412343889474869 -0.0027092453092336655 0 0 0 0
2441687252 0.1411159336566925 -0.33587220311164856 -0.00033124908804893494 -0.0021929657086730003 0 0 0 0
2445409336 0.10946779698133469 -0.3413006663322449 0.00022798124700784683 -0.002403385005891323 0 0 0 0
2449131420 0.07647489011287689 -0.33795544505119324 0.0006942981854081154 -0.002758672460913658 0 0 0 0
2452853504 0.05118400976061821 -0.33192846179008484 0.0004764590412378311 -0.0034954873844981194 0 0 0 0
2456575588 0.02204890549182892 -0.3208310008049011 -4.974566400051117e-05 -0.004143682308495045 0 0 0 0
2460297672 -0.007907047867774963 -0.3049357831478119 -0.0007916176691651344 -0.004447240382432938 0 0 0 0
2464019756 -0.03185144066810608 -0.28490325808525085 -0.0015314193442463875 -0.004707280546426773 0 0 0 0
2467741840 -0.05141991749405861 -0.2615475356578827 -0.002218938432633877 -0.004843495786190033 0 0 0 0
2471463924 -0.06898293644189835 -0.23436203598976135 -0.003260590136051178 -0.004506542347371578 0 0 0 0
2475186008 -0.08008134365081787 -0.20682942867279053 -0.0037199100479483604 -0.00419270247220993 0 0 0 0
2478908092 -0.08493716269731522 -0.17871494591236115 -0.004221498034894466 -0.00389041006565094 0 0 0 0
2482630176 -0.09015064686536789 -0.1479073464870453 -0.004851284436881542 -0.0035520335659384727 0 0 0 0
2486352260 -0.08709496259689331 -0.11900024116039276 -0.00551606435328722 -0.0033256085589528084 0 0 0 0
2490074344 -0.08189933747053146 -0.09069828689098358 -0.006206853315234184 -0.0028230110183358192 0 0 0 0
2493796428 -0.0721597820520401 -0.06437522917985916 -0.006822014227509499 -0.0023799221962690353 0 0 0 0
2497518512 -0.06007135659456253 -0.03854002058506012 -0.00743352435529232 -0.0013920161873102188 0 0 0 0
2501240596 -0.04452488198876381 -0.014712939038872719 -0.007891792804002762 -0.0005603330209851265 0 0 0 0
2504962680 -0.025008756667375565 0.00706961564719677 -0.008327499032020569 0.0003639599308371544 0 0 0 0
2508684764 -0.0008335849270224571 0.02604316547513008 -0.008666761219501495 0.0017454493790864944 0 0 0 0
2512406848 0.025823043659329414 0.040541715919971466 -0.008753991685807705 0.0032424917444586754 0 0 0 0
2516128932 0.05526052787899971 0.05081719905138016 -0.008719634264707565 0.004591765813529491 0 0 0 0
2519851016 0.08457119017839432 0.05638294667005539 -0.008409783244132996 0.006250681355595589 0 0 0 0
2523573100 0.11572283506393433 0.05343278497457504 -0.007107543759047985 0.008133373223245144 0 0 0 0
2527295184 0.1448928415775299 0.046036496758461 -0.005338315851986408 0.009246434085071087 0 0 0 0
2531017268 0.17020907998085022 0.03715362772345543 -0.003895943984389305 0.009738799184560776 0 0 0 0
2534739352 0.19272424280643463 0.022040605545043945 -0.00233510322868824 0.010374616831541061 0 0 0 0
2538461436 0.21225671470165253 0.004725456237792969 -0.0005815280601382256 0.010731752961874008 0 0 0 0
2542183520 0.23023737967014313 -0.01225201040506363 0.0013308348134160042 0.010446345433592796 0 0 0 0
2545905604 0.24427029490470886 -0.032727375626564026 0.0029000723734498024 0.009814833290874958 0 0 0 0
2549627688 0.25495341420173645 -0.056234210729599 0.004276946187019348 0.009223953820765018 0 0 0 0
2553349772 0.26319241523742676 -0.07711391150951385 0.005592101253569126 0.008779187686741352 0 0 0 0
2557071856 0.26429733633995056 -0.10154158622026443 0.006843783892691135 0.007831466384232044 0 0 0 0
2560793940 0.26551467180252075 -0.12378955632448196 0.008259857073426247 0.006560016423463821 0 0 0 0
2564516024 0.2631908655166626 -0.1447373628616333 0.009306703694164753 0.005523812025785446 0 0 0 0
2568238108 0.25699400901794434 -0.16628561913967133 0.010476931929588318 0.003918669186532497 0 0 0 0
2571960192 0.24966105818748474 -0.18658654391765594 0.011194637045264244 0.0018144240602850914 0 0 0 0
2575682276 0.24026930332183838 -0.20537874102592468 0.011537553742527962 -0.0002067042514681816 0 0 0 0
2579404360 0.2268555611371994 -0.22033075988292694 0.01166428904980421 -0.0022214334458112717 0 0 0 0
2583126444 0.2076580971479416 -0.23705269396305084 0.011089157313108444 -0.004623190499842167 0 0 0 0
2586848528 0.1915905475616455 -0.24781477451324463 0.01043709646910429 -0.006710357964038849 0 0 0 0
2590570612 0.17432786524295807 -0.25490128993988037 0.009133249521255493 -0.008728270418941975 0 0 0 0
2594292696 0.15446165204048157 -0.26064813137054443 0.007341970689594746 -0.010566607117652893 0 0 0 0
2598014780 0.13592734932899475 -0.2629988193511963 0.0050116777420043945 -0.011985689401626587 0 0 0 0
2601736864 0.11702381819486618 -0.26041528582572937 0.002400623634457588 -0.012671221047639847 0 0 0 0
2605458948 0.10084351897239685 -0.25765785574913025 -1.460593193769455e-05 -0.012709515169262886 0 0 0 0
2609181032 0.0820607990026474 -0.2532691955566406 -0.0022163307294249535 -0.012099441140890121 0 0 0 0
2612903116 0.06650920957326889 -0.24548262357711792 -0.004233404994010925 -0.011148441582918167 0 0 0 0
2616625200 0.05189408361911774 -0.23517924547195435 -0.006034372374415398 -0.009730564430356026 0 0 0 0
2620347284 0.04225333780050278 -0.22309519350528717 -0.006856056861579418 -0.008335619233548641 0 0 0 0
2624069368 0.029252439737319946 -0.2109673023223877 -0.0075389426201581955 -0.007162907160818577 0 0 0 0
2627791452 0.023963741958141327 -0.19623702764511108 -0.008031999692320824 -0.0060995472595095634 0 0 0 0
2631513536 0.018958203494548798 -0.18028616905212402 -0.008565758354961872 -0.005048876628279686 0 0 0 0
2635235620 0.013698726892471313 -0.16474691033363342 -0.008909025229513645 -0.0039848508313298225 0 0 0 0
2638957704 0.015175998210906982 -0.14722169935703278 -0.009401599876582623 -0.0033228276297450066 0 0 0 0
2642679788 0.018806345760822296 -0.1318833976984024 -0.01016922015696764 -0.0023572156205773354 0 0 0 0
2646401872 0.024799657985568047 -0.1184571385383606 -0.010826134122908115 -0.0004031118005514145 0 0 0 0
2650123956 0.03436759486794472 -0.10652779787778854 -0.011170707643032074 0.0011296113952994347 0 0 0 0
2653846040 0.043938759714365005 -0.09745610505342484 -0.010807332582771778 0.002986086532473564 0 0 0 0
2657568124 0.05664777383208275 -0.08931519091129303 -0.010239790193736553 0.0049400003626942635 0 0 0 0
2661290208 0.06955763697624207 -0.08539751172065735 -0.009273345582187176 0.006799666211009026 0 0 0 0
2665012292 0.08270436525344849 -0.08338568359613419 -0.007644300349056721 0.008492628112435341 0 0 0 0
2668734376 0.09494416415691376 -0.08437703549861908 -0.0057074083015322685 0.009662711061537266 0 0 0 0
2672456460 0.10732889175415039 -0.08736518025398254 -0.0034158462658524513 0.010264994576573372 0 0 0 0
2676178544 0.1169000193476677 -0.09429343044757843 -0.0012174984440207481 0.010259008035063744 0 0 0 0
2679900628 0.12627872824668884 -0.10342271625995636 0.000853048637509346 0.009781807661056519 0 0 0 0
2683622712 0.13323873281478882 -0.11283004283905029 0.002469734288752079 0.008901231922209263 0 0 0 0
2687344796 0.13824616372585297 -0.12322987616062164 0.0037697143852710724 0.007762272842228413 0 0 0 0
2691066880 0.1410968005657196 -0.13537438213825226 0.004708166234195232 0.006607584655284882 0 0 0 0
2694788964 0.13993115723133087 -0.14769113063812256 0.005580056458711624 0.005457241088151932 0 0 0 0
2698511048 0.13701367378234863 -0.16057848930358887 0.006029591895639896 0.0042475750669837 0 0 0 0
2702233132 0.1285364329814911 -0.17216064035892487 0.006503420881927013 0.0030992599204182625 0 0 0 0
2705955216 0.12015040218830109 -0.18057668209075928 0.006749019026756287 0.0020619817078113556 0 0 0 0
2709677300 0.10934107005596161 -0.18841464817523956 0.007074814289808273 0.0008976049721240997 0 0 0 0
2713399384 0.09857098013162613 -0.1932629644870758 0.007200447842478752 -0.00014130119234323502 0 0 0 0
2717121468 0.08512231707572937 -0.19728530943393707 0.007285388186573982 -0.0017973696812987328 0 0 0 0
2720843552 0.07132066041231155 -0.19764456152915955 0.006763841956853867 -0.003540303558111191 0 0 0 0
2724565636 0.05944672226905823 -0.1954769492149353 0.005699758417904377 -0.004765711724758148 0 0 0 0
2728287720 0.04190034046769142 -0.19050447642803192 0.004523822106420994 -0.0058058686554431915 0 0 0 0
2732009804 0.030455105006694794 -0.18324139714241028 0.0033882325515151024 -0.006349361501634121 0 0 0 0
2735731888 0.01961003988981247 -0.17147600650787354 0.0022167349234223366 -0.006853296421468258 0 0 0 0
2739453972 0.009342432022094727 -0.16083946824073792 0.001067550852894783 -0.007068452425301075 0 0 0 0
2743176056 0.002217121422290802 -0.14749161899089813 -0.0001021428033709526 -0.007360765710473061 0 0 0 0
2746898140 -0.005367450416088104 -0.13219311833381653 -0.0016043763607740402 -0.007419923320412636 0 0 0 0
2750620224 -0.008305255323648453 -0.11446541547775269 -0.0032846247777342796 -0.0073984237387776375 0 0 0 0
2754342308 -0.008413460105657578 -0.09593580663204193 -0.0050965361297130585 -0.0065300846472382545 0 0 0 0
2758064392 -0.005219735205173492 -0.07719768583774567 -0.0064738113433122635 -0.005127302370965481 0 0 0 0
2761786476 0.0014321915805339813 -0.05971721559762955 -0.007439162582159042 -0.0033598337322473526 0 0 0 0
2765508560 0.0110842389985919 -0.043579235672950745 -0.007914972491562366 -0.0013150013983249664 0 0 0 0
2769230644 0.023102417588233948 -0.028323957696557045 -0.007806687615811825 0.0006600674241781235 0 0 0 0
2772952728 0.03798404708504677 -0.015558904968202114 -0.0070503586903214455 0.00250832736492157 0 0 0 0
2776674812 0.054361142218112946 -0.004187023267149925 -0.005992266349494457 0.004104826599359512 0 0 0 0
2780396896 0.07369491457939148 0.004260927438735962 -0.004406719468533993 0.005287844687700272 0 0 0 0
2784118980 0.09450747072696686 0.01041247695684433 -0.0027366196736693382 0.005995904095470905 0 0 0 0
2787841064 0.11699876189231873 0.011898159980773926 -0.000966348685324192 0.006216930225491524 0 0 0 0
2791563148 0.13910488784313202 0.00990229845046997 0.0008102366700768471 0.005982442758977413 0 0 0 0
2795285232 0.16248095035552979 0.007186315953731537 0.0023733247071504593 0.00519002228975296 0 0 0 0
2799007316 0.18519216775894165 -0.004210896790027618 0.0036820750683546066 0.00400417298078537 0 0 0 0
2802729400 0.2051866501569748 -0.020154599100351334 0.004268101416528225 0.002529531717300415 0 0 0 0
2806451484 0.2223619818687439 -0.03829214721918106 0.0043291011825203896 0.0011350149288773537 0 0 0 0
2810173568 0.2373739778995514 -0.05424308031797409 0.004170906729996204 0.00044634658843278885 0 0 0 0
2813895652 0.24935592710971832 -0.07595311105251312 0.004239668138325214 -0.00027987081557512283 0 0 0 0
2817617736 0.26003706455230713 -0.09849648922681808 0.004341281019151211 -0.0012672990560531616 0 0 0 0
2821339820 0.26338890194892883 -0.12590885162353516 0.003841905854642391 -0.0024927183985710144 0 0 0 0
2825061904 0.2640848457813263 -0.15221759676933289 0.002928120084106922 -0.003184288740158081 0 0 0 0
2828783988 0.263147234916687 -0.17562490701675415 0.0020545106381177902 -0.003325439989566803 0 0 0 0
2832506072 0.2558596134185791 -0.20196384191513062 0.001424313522875309 -0.0034005874767899513 0 0 0 0
2836228156 0.24202634394168854 -0.22588686645030975 0.0010237367823719978 -0.0035329125821590424 0 0 0 0
2839950240 0.230753093957901 -0.24723249673843384 0.0004722336307168007 -0.0034322580322623253 0 0 0 0
2843672324 0.20989584922790527 -0.2682829201221466 0.00015102513134479523 -0.003276582807302475 0 0 0 0
2847394408 0.19261416792869568 -0.28214365243911743 -4.3213367462158203e-07 -0.003378930501639843 0 0 0 0
2851116492 0.16910868883132935 -0.2991939187049866 -0.00039828382432460785 -0.0035045379772782326 0 0 0 0
2854838576 0.1472482979297638 -0.30739855766296387 -0.0008783889934420586 -0.003535057418048382 0 0 0 0
2858560660 0.12622880935668945 -0.31495192646980286 -0.001295585185289383 -0.003878137096762657 0 0 0 0
2862282744 0.09707793593406677 -0.3204081654548645 -0.0017643161118030548 -0.003521440550684929 0 0 0 0
2866004828 0.0736052393913269 -0.32203030586242676 -0.0022940989583730698 -0.0033477460965514183 0 0 0 0
2869726912 0.05402040481567383 -0.3184758424758911 -0.002634802833199501 -0.003006461076438427 0 0 0 0
2873448996 0.026895031332969666 -0.31485772132873535 -0.003155527636408806 -0.0027495119720697403 0 0 0 0
2877171080 0.005544751882553101 -0.30644726753234863 -0.003582310862839222 -0.002274665981531143 0 0 0 0
2880893164 -0.01842685043811798 -0.29660096764564514 -0.004149179905653 -0.0015960922464728355 0 0 0 0
2884615248 -0.041502662003040314 -0.28251421451568604 -0.004555754363536835 -0.0007131937891244888 0 0 0 0
2888337332 -0.060771726071834564 -0.26474231481552124 -0.004384368658065796 0.00027163978666067123 0 0 0 0
2892059416 -0.07641053944826126 -0.2462509721517563 -0.004235876724123955 0.001169833354651928 0 0 0 0
2895781500 -0.0911799967288971 -0.22375237941741943 -0.003795013763010502 0.001859532669186592 0 0 0 0
2899503584 -0.10316210985183716 -0.2005702406167984 -0.0033776648342609406 0.0024997033178806305 0 0 0 0
2903225668 -0.1105591282248497 -0.17579424381256104 -0.002955945208668709 0.003316285088658333 0 0 0 0
2906947752 -0.11511708796024323 -0.15171203017234802 -0.0021168943494558334 0.0040649184957146645 0 0 0 0
2910669836 -0.11644626408815384 -0.12702448666095734 -0.0011188574135303497 0.004614653065800667 0 0 0 0
2914391920 -0.11185122281312943 -0.1031363382935524 2.584792673587799e-05 0.004746141843497753 0 0 0 0
2918114004 -0.10913237929344177 -0.07806851714849472 0.0013327812775969505 0.004628375172615051 0 0 0 0
2921836088 -0.10118076205253601 -0.056403279304504395 0.0022584712132811546 0.003961886279284954 0 0 0 0
2925558172 -0.0921749472618103 -0.03354145213961601 0.002940715290606022 0.0031966138631105423 0 0 0 0
2929280256 -0.0792265310883522 -0.014148013666272163 0.0032862136140465736 0.002478456124663353 0 0 0 0
2933002340 -0.06440948694944382 0.00530918687582016 0.003641027957201004 0.0021069319918751717 0 0 0 0
2936724424 -0.04795263335108757 0.021951016038656235 0.003993989899754524 0.0014365781098604202 0 0 0 0
2940446508 -0.02953256294131279 0.03649924322962761 0.004187608137726784 0.0007165828719735146 0 0 0 0
2944168592 -0.009906059131026268 0.048970967531204224 0.004284982569515705 7.706787437200546e-05 0 0 0 0
2947890676 0.012257169932126999 0.05926728621125221 0.0041178250685334206 -0.0005023600533604622 0 0 0 0
2951612760 0.03469381108880043 0.06722784042358398 0.003943949937820435 -0.0010265661403536797 0 0 0 0
2955334844 0.05883079767227173 0.07229224592447281 0.0038824528455734253 -0.0011778594925999641 0 0 0 0
2959056928 0.0829576924443245 0.0750352144241333 0.004073243588209152 -0.0015130173414945602 0 0 0 0
2962779012 0.1081307977437973 0.07285643368959427 0.0041488222777843475 -0.00223681703209877 0 0 0 0
2966501096 0.1322886347770691 0.06875652074813843 0.00412908848375082 -0.003106980584561825 0 0 0 0
2970223180 0.15703654289245605 0.059352267533540726 0.003614659421145916 -0.00427948497235775 0 0 0 0
2973945264 0.179438516497612 0.050658077001571655 0.0026109060272574425 -0.004907545633614063 0 0 0 0
2977667348 0.2007727324962616 0.03493620455265045 0.0015150271356105804 -0.005340104922652245 0 0 0 0
2981389432 0.22048319876194 0.02102120965719223 0.0004603927955031395 -0.00548799242824316 0 0 0 0
2985111516 0.23738254606723785 0.00011330097913742065 -0.0007025394588708878 -0.005130589008331299 0 0 0 0
2988833600 0.25173240900039673 -0.022421136498451233 -0.0015386231243610382 -0.004801574163138866 0 0 0 0
2992555684 0.262376070022583 -0.044814541935920715 -0.002433658577501774 -0.00396440364420414 0 0 0 0
2996277768 0.26939505338668823 -0.06649533659219742 -0.003133676014840603 -0.0032626334577798843 0 0 0 0
2999999852 0.2746582627296448 -0.09317152202129364 -0.0035549290478229523 -0.002476184628903866 0 0 0 0
