# HZ S RI R 50
1500000000 -0.07808221131563187 -0.08033742755651474 0.028515372425317764 -0.035051874816417694 0 0 0 0
1503722084 -0.07546539604663849 -0.058558009564876556 0.022529739886522293 -0.03656888008117676 0 0 0 0
1507444168 -0.067153699696064 -0.034974902868270874 0.017796775326132774 -0.03789333626627922 0 0 0 0
1511166252 -0.05235537886619568 -0.01031704805791378 0.012525777332484722 -0.03988620638847351 0 0 0 0
1514888336 -0.03035258688032627 0.011461086571216583 0.0065457383170723915 -0.04139375686645508 0 0 0 0
1518610420 -0.0028149429708719254 0.030007213354110718 -0.0003002360463142395 -0.04202493280172348 0 0 0 0
1522332504 0.02934565767645836 0.043110501021146774 -0.007358190603554249 -0.04149458557367325 0 0 0 0
1526054588 0.06565262377262115 0.052159279584884644 -0.01456458680331707 -0.03929474204778671 0 0 0 0
1529776672 0.10548851639032364 0.05373723804950714 -0.021426500752568245 -0.03488301485776901 0 0 0 0
1533498756 0.14803825318813324 0.04668296128511429 -0.026471486315131187 -0.02901419997215271 0 0 0 0
1537220840 0.18987900018692017 0.032087504863739014 -0.029687441885471344 -0.022818831726908684 0 0 0 0
1540942924 0.2298273891210556 0.006701290607452393 -0.03133031353354454 -0.016455847769975662 0 0 0 0
1544665008 0.2638710141181946 -0.025632813572883606 -0.03172341734170914 -0.010514101013541222 0 0 0 0
1548387092 0.2918150722980499 -0.062320172786712646 -0.031019791960716248 -0.0052698710933327675 0 0 0 0
1552109176 0.31282225251197815 -0.10397026687860489 -0.0295485258102417 -0.0008447142317891121 0 0 0 0
1555831260 0.3288813829421997 -0.14604796469211578 -0.02798309363424778 0.0027184076607227325 0 0 0 0
1559553344 0.3392929434776306 -0.19484052062034607 -0.026688016951084137 0.006027390249073505 0 0 0 0
1563275428 0.34129104018211365 -0.24543721973896027 -0.02497921697795391 0.009624416939914227 0 0 0 0
1566997512 0.3356265127658844 -0.29796120524406433 -0.02240060269832611 0.013016220182180405 0 0 0 0
1570719596 0.319967657327652 -0.3493308424949646 -0.019237639382481575 0.015618450939655304 0 0 0 0
1574441680 0.2959015369415283 -0.39844369888305664 -0.015949618071317673 0.017332447692751884 0 0 0 0
1578163764 0.2666153609752655 -0.4416097402572632 -0.01269156951457262 0.01825377717614174 0 0 0 0
1581885848 0.22428953647613525 -0.48329806327819824 -0.00966278649866581 0.01880522631108761 0 0 0 0
1585607932 0.18567152321338654 -0.5155962109565735 -0.007179730571806431 0.019042151048779488 0 0 0 0
1589330016 0.13404497504234314 -0.5438669919967651 -0.004442654550075531 0.019292565062642097 0 0 0 0
1593052100 0.0815240740776062 -0.5645215511322021 -0.0020176349207758904 0.01919151470065117 0 0 0 0
1596774184 0.030628666281700134 -0.5774139165878296 0.0004119807854294777 0.01877420023083687 0 0 0 0
1600496268 -0.03071686625480652 -0.5823062658309937 0.002629503607749939 0.018312174826860428 0 0 0 0
1604218352 -0.09198804199695587 -0.5805152058601379 0.005043642595410347 0.0176992230117321 0 0 0 0
1607940436 -0.1489589810371399 -0.568983793258667 0.00737195648252964 0.016823867335915565 0 0 0 0
1611662520 -0.20929734408855438 -0.5488317608833313 0.009686027653515339 0.015764079988002777 0 0 0 0
1615384604 -0.2685778737068176 -0.5172373056411743 0.012012212537229061 0.014063178561627865 0 0 0 0
1619106688 -0.3206671476364136 -0.47921907901763916 0.014259172603487968 0.012170967645943165 0 0 0 0
1622828772 -0.3659995198249817 -0.4317707419395447 0.01630016788840294 0.009428741410374641 0 0 0 0
1626550856 -0.4104796051979065 -0.3738628029823303 0.017606524750590324 0.005961853079497814 0 0 0 0
1630272940 -0.4425220489501953 -0.30999359488487244 0.01802837662398815 0.002508833073079586 0 0 0 0
1633995024 -0.4666177034378052 -0.2408108115196228 0.017411649227142334 -0.0009830361232161522 0 0 0 0
1637717108 -0.4788534939289093 -0.17000263929367065 0.01588565856218338 -0.003512471914291382 0 0 0 0
1641439192 -0.4805474877357483 -0.09247137606143951 0.014473061077296734 -0.005441409535706043 0 0 0 0
1645161276 -0.4678814113140106 -0.016744080930948257 0.013130644336342812 -0.0069556524977087975 0 0 0 0
1648883360 -0.44439786672592163 0.058522626757621765 0.011642636731266975 -0.008479641750454903 0 0 0 0
1652605444 -0.4086545407772064 0.12786990404129028 0.010345978662371635 -0.009336910210549831 0 0 0 0
1656327528 -0.36215177178382874 0.19164244830608368 0.009311545640230179 -0.01041816920042038 0 0 0 0
1660049612 -0.3056773543357849 0.24892985820770264 0.008282328024506569 -0.011937281116843224 0 0 0 0
1663771696 -0.24073296785354614 0.2966207265853882 0.006757967174053192 -0.013812667690217495 0 0 0 0
1667493780 -0.16614356637001038 0.33645495772361755 0.00404887180775404 -0.015496941283345222 0 0 0 0
1671215864 -0.08770322799682617 0.36252307891845703 0.0006221439689397812 -0.016310017555952072 0 0 0 0
1674937948 -0.005204290151596069 0.3747483193874359 -0.0029743770137429237 -0.01573796384036541 0 0 0 0
1678660032 0.07909032702445984 0.3738003969192505 -0.006200025789439678 -0.013884412124752998 0 0 0 0
1682382116 0.16021978855133057 0.3596470355987549 -0.008050505071878433 -0.011481382884085178 0 0 0 0
1686104200 0.2402828484773636 0.33253809809684753 -0.008852132596075535 -0.009203421883285046 0 0 0 0
1689826284 0.312397837638855 0.29590195417404175 -0.009326320141553879 -0.007487487979233265 0 0 0 0
1693548368 0.380190372467041 0.24488452076911926 -0.009826748631894588 -0.00613783672451973 0 0 0 0
1697270452 0.4377106726169586 0.1876600980758667 -0.010409773327410221 -0.004814094863831997 0 0 0 0
1700992536 0.4864431917667389 0.1212717741727829 -0.01102355495095253 -0.0034462055191397667 0 0 0 0
1704714620 0.5235748291015625 0.0482952818274498 -0.011615507304668427 -0.001458965241909027 0 0 0 0
1708436704 0.5476576685905457 -0.028369992971420288 -0.011604852974414825 0.0006845090538263321 0 0 0 0
1712158788 0.5600984692573547 -0.1081494390964508 -0.010970134288072586 0.0029598968103528023 0 0 0 0
1715880872 0.5602152347564697 -0.18633931875228882 -0.009868617169559002 0.004823094233870506 0 0 0 0
1719602956 0.5490065813064575 -0.2636882960796356 -0.00809673685580492 0.006442062556743622 0 0 0 0
1723325040 0.52425616979599 -0.3419162333011627 -0.006025251001119614 0.007158974185585976 0 0 0 0
1727047124 0.49501851201057434 -0.4081350564956665 -0.004298915155231953 0.007251810282468796 0 0 0 0
1730769208 0.4455358386039734 -0.47516700625419617 -0.003065505065023899 0.006877508945763111 0 0 0 0
1734491292 0.3945882320404053 -0.5291023254394531 -0.0022174743935465813 0.0068651605397462845 0 0 0 0
1738213376 0.33284687995910645 -0.5747023224830627 -0.001028144732117653 0.006887315772473812 0 0 0 0
1741935460 0.2661132216453552 -0.6114535331726074 0.00039205607026815414 0.006328955292701721 0 0 0 0
1745657544 0.20021112263202667 -0.6357261538505554 0.0010611647740006447 0.005272642709314823 0 0 0 0
1749379628 0.12605004012584686 -0.6486307382583618 0.0014345794916152954 0.004275730811059475 0 0 0 0
1753101712 0.0533335879445076 -0.6525847911834717 0.0013549905270338058 0.003570367582142353 0 0 0 0
1756823796 -0.01691301167011261 -0.6438067555427551 0.0010349741205573082 0.0031774360686540604 0 0 0 0
1760545880 -0.08401916921138763 -0.6243912577629089 0.0006618928164243698 0.0031376145780086517 0 0 0 0
1764267964 -0.14959652721881866 -0.5930249691009521 0.00044188275933265686 0.0032871775329113007 0 0 0 0
1767990048 -0.20502346754074097 -0.5558713674545288 0.0004925979301333427 0.0037665003910660744 0 0 0 0
1771712132 -0.2547384202480316 -0.5114207863807678 0.0010790210217237473 0.004104978404939175 0 0 0 0
1775434216 -0.294565886259079 -0.46166548132896423 0.001529117114841938 0.004218533635139465 0 0 0 0
1779156300 -0.32587939500808716 -0.4067152738571167 0.002026197500526905 0.004094802774488926 0 0 0 0
1782878384 -0.35195204615592957 -0.3480609953403473 0.0023872414603829384 0.0036784689873456955 0 0 0 0
1786600468 -0.3678218722343445 -0.2896711826324463 0.0022753020748496056 0.0033714137971401215 0 0 0 0
1790322552 -0.3748481273651123 -0.226604163646698 0.0021069226786494255 0.0037922076880931854 0 0 0 0
1794044636 -0.37378495931625366 -0.16274413466453552 0.0026441356167197227 0.00430623535066843 0 0 0 0
1797766720 -0.36208274960517883 -0.10193482041358948 0.003059965558350086 0.004589038901031017 0 0 0 0
1801488804 -0.3417554497718811 -0.044934846460819244 0.00384399201720953 0.005565977655351162 0 0 0 0
1805210888 -0.3133321702480316 0.006853386759757996 0.005697139538824558 0.0063398657366633415 0 0 0 0
1808932972 -0.2775842547416687 0.054624851793050766 0.008168743923306465 0.005992637947201729 0 0 0 0
1812655056 -0.23639565706253052 0.09508824348449707 0.010376290418207645 0.004591825418174267 0 0 0 0
1816377140 -0.18852929770946503 0.13068358600139618 0.01214539259672165 0.002525394782423973 0 0 0 0
1820099224 -0.13728880882263184 0.15729737281799316 0.013751966878771782 7.330067455768585e-05 0 0 0 0
1823821308 -0.0813712626695633 0.1752820760011673 0.014516727067530155 -0.0032441122457385063 0 0 0 0
1827543392 -0.02446359395980835 0.18324464559555054 0.013913268223404884 -0.0065999943763017654 0 0 0 0
1831265476 0.03169979900121689 0.1818363219499588 0.012971202842891216 -0.009677753783762455 0 0 0 0
1834987560 0.08551134169101715 0.17102958261966705 0.011219460517168045 -0.012859554961323738 0 0 0 0
1838709644 0.13545019924640656 0.15296976268291473 0.00806420762091875 -0.015541997738182545 0 0 0 0
1842431728 0.1819012463092804 0.12771564722061157 0.0041717467829585075 -0.016751781105995178 0 0 0 0
1846153812 0.22178074717521667 0.0967646986246109 0.0008691633120179176 -0.01642095483839512 0 0 0 0
1849875896 0.2571319341659546 0.05790884792804718 -0.001232163980603218 -0.015657948330044746 0 0 0 0
1853597980 0.2828218340873718 0.018054746091365814 -0.00293070450425148 -0.01563652977347374 0 0 0 0
1857320064 0.3021922707557678 -0.025487251579761505 -0.005034736357629299 -0.015798240900039673 0 0 0 0
1861042148 0.312101811170578 -0.0737115889787674 -0.007683353498578072 -0.015962133184075356 0 0 0 0
1864764232 0.31506597995758057 -0.11864355206489563 -0.01091863214969635 -0.015644844621419907 0 0 0 0
1868486316 0.3101673722267151 -0.16163529455661774 -0.014724008738994598 -0.014150962233543396 0 0 0 0
1872208400 0.29916709661483765 -0.20189449191093445 -0.017835179343819618 -0.01161249354481697 0 0 0 0
1875930484 0.2821299433708191 -0.2401028275489807 -0.020693231374025345 -0.007809103466570377 0 0 0 0
1879652568 0.2576894164085388 -0.27409446239471436 -0.0225717443972826 -0.0033023590222001076 0 0 0 0
1883374652 0.23197780549526215 -0.30031317472457886 -0.023091264069080353 0.0015503903850913048 0 0 0 0
1887096736 0.198220357298851 -0.32325929403305054 -0.021911466494202614 0.006424206309020519 0 0 0 0
1890818820 0.16643261909484863 -0.3382907509803772 -0.020084723830223083 0.009830313734710217 0 0 0 0
1894540904 0.1346053183078766 -0.3467492163181305 -0.018404517322778702 0.012653796002268791 0 0 0 0
1898262988 0.09745974838733673 -0.3520079255104065 -0.016467340290546417 0.01587693765759468 0 0 0 0
1901985072 0.06473183631896973 -0.35046976804733276 -0.014072142541408539 0.01886140927672386 0 0 0 0
1905707156 0.03231235593557358 -0.34257030487060547 -0.01083825621753931 0.021626189351081848 0 0 0 0
1909429240 0.0020812004804611206 -0.32925844192504883 -0.006749842315912247 0.024120721966028214 0 0 0 0
1913151324 -0.023195110261440277 -0.3113149106502533 -0.0022564511746168137 0.02553919330239296 0 0 0 0
1916873408 -0.045919403433799744 -0.29011285305023193 0.002943369559943676 0.026107102632522583 0 0 0 0
1920595492 -0.06431004405021667 -0.26460298895835876 0.007953647524118423 0.025533191859722137 0 0 0 0
1924317576 -0.07663340866565704 -0.23667168617248535 0.012835412286221981 0.024168550968170166 0 0 0 0
1928039660 -0.0828394740819931 -0.2075534462928772 0.01834160089492798 0.021978281438350677 0 0 0 0
1931761744 -0.08492933958768845 -0.17866134643554688 0.023826947435736656 0.017727965489029884 0 0 0 0
1935483828 -0.07972127199172974 -0.15024255216121674 0.027855975553393364 0.011221108958125114 0 0 0 0
1939205912 -0.07099601626396179 -0.12566183507442474 0.029221979901194572 0.003997704014182091 0 0 0 0
1942927996 -0.058785341680049896 -0.10354737192392349 0.02796638384461403 -0.0026384349912405014 0 0 0 0
1946650080 -0.04463787004351616 -0.08343713730573654 0.025667717680335045 -0.008438261225819588 0 0 0 0
1950372164 -0.026577072218060493 -0.06543034315109253 0.022778797894716263 -0.012811793014407158 0 0 0 0
1954094248 -0.006112905219197273 -0.05036057159304619 0.018959801644086838 -0.016862552613019943 0 0 0 0
1957816332 0.017933761700987816 -0.03992065414786339 0.014878389425575733 -0.01995779387652874 0 0 0 0
1961538416 0.04239710047841072 -0.03404173627495766 0.009653966873884201 -0.021923769265413284 0 0 0 0
1965260500 0.06714500486850739 -0.032710324972867966 0.004601023159921169 -0.021730616688728333 0 0 0 0
1968982584 0.09301900863647461 -0.035790007561445236 0.0009167203679680824 -0.020991837605834007 0 0 0 0
1972704668 0.11678163707256317 -0.04441780969500542 -0.002228197641670704 -0.019644081592559814 0 0 0 0
1976426752 0.13835246860980988 -0.055735401809215546 -0.004592088982462883 -0.018612872809171677 0 0 0 0
1980148836 0.15737152099609375 -0.07262861728668213 -0.007203300483524799 -0.017863474786281586 0 0 0 0
1983870920 0.17286422848701477 -0.09186672419309616 -0.010078617371618748 -0.01659318432211876 0 0 0 0
1987593004 0.1832459270954132 -0.1138240247964859 -0.013069218024611473 -0.014677003026008606 0 0 0 0
1991315088 0.19042667746543884 -0.135215163230896 -0.015470919199287891 -0.012407416477799416 0 0 0 0
1995037172 0.1935611218214035 -0.15758386254310608 -0.017961768433451653 -0.009197818115353584 0 0 0 0
1998759256 0.19278953969478607 -0.1808513104915619 -0.01923256926238537 -0.005823934450745583 0 0 0 0
2002481340 0.18788111209869385 -0.20300236344337463 -0.019782613962888718 -0.0022274544462561607 0 0 0 0
2006203424 0.1806187629699707 -0.22362862527370453 -0.019475523382425308 0.0017815232276916504 0 0 0 0
2009925508 0.1664571762084961 -0.24489229917526245 -0.01840903051197529 0.004826315678656101 0 0 0 0
2013647592 0.15203037858009338 -0.2619669735431671 -0.017081985250115395 0.007330910302698612 0 0 0 0
2017369676 0.1311134696006775 -0.27749568223953247 -0.015451554208993912 0.009560445323586464 0 0 0 0
2021091760 0.11017195880413055 -0.288082093000412 -0.01392640732228756 0.011691518127918243 0 0 0 0
2024813844 0.08590193092823029 -0.2939417362213135 -0.012234569527208805 0.013709234073758125 0 0 0 0
2028535928 0.06535931676626205 -0.2956165373325348 -0.010243969038128853 0.01572231948375702 0 0 0 0
2032258012 0.0396159365773201 -0.29379069805145264 -0.0077765220776200294 0.017741041257977486 0 0 0 0
2035980096 0.01638069748878479 -0.2887207567691803 -0.004620710387825966 0.019318467006087303 0 0 0 0
2039702180 -0.004377812147140503 -0.28003835678100586 -0.0007045995444059372 0.019648989662528038 0 0 0 0
2043424264 -0.02433481067419052 -0.26921021938323975 0.0029587410390377045 0.01911436766386032 0 0 0 0
2047146348 -0.045110635459423065 -0.25451961159706116 0.005505274049937725 0.017868537455797195 0 0 0 0
2050868432 -0.06363405287265778 -0.23575595021247864 0.008491478860378265 0.01659201644361019 0 0 0 0
2054590516 -0.07797594368457794 -0.21464529633522034 0.010534778237342834 0.015026324428617954 0 0 0 0
2058312600 -0.09198803454637527 -0.18964381515979767 0.012641044333577156 0.013135209679603577 0 0 0 0
2062034684 -0.09786025434732437 -0.16294008493423462 0.014901263639330864 0.01114562526345253 0 0 0 0
2065756768 -0.10276495665311813 -0.13380646705627441 0.01685411110520363 0.008398877456784248 0 0 0 0
2069478852 -0.10094669461250305 -0.10464588552713394 0.018107866868376732 0.0057068802416324615 0 0 0 0
2073200936 -0.09617996960878372 -0.07441888749599457 0.018948452547192574 0.0021991077810525894 0 0 0 0
2076923020 -0.08538945019245148 -0.0448027029633522 0.018883634358644485 -0.0014372169971466064 0 0 0 0
2080645104 -0.069532111287117 -0.016033776104450226 0.01806262880563736 -0.004934167489409447 0 0 0 0
2084367188 -0.04878668114542961 0.01071239449083805 0.016584714874625206 -0.008187086321413517 0 0 0 0
2088089272 -0.022758979350328445 0.03341440111398697 0.014514777809381485 -0.010512062348425388 0 0 0 0
2091811356 0.0077169835567474365 0.05170351266860962 0.012059216387569904 -0.012777757830917835 0 0 0 0
2095533440 0.03948039561510086 0.06446767598390579 0.009085668250918388 -0.014173292554914951 0 0 0 0
2099255524 0.07519423216581345 0.07260901480913162 0.00667235255241394 -0.01486651599407196 0 0 0 0
2102977608 0.11325904726982117 0.075395368039608 0.004269746132194996 -0.015315128490328789 0 0 0 0
2106699692 0.15123628079891205 0.07048209011554718 0.0022605285048484802 -0.015901289880275726 0 0 0 0
2110421776 0.1884721964597702 0.057029858231544495 -0.00045600999146699905 -0.01648983173072338 0 0 0 0
2114143860 0.22196190059185028 0.03821822255849838 -0.0034962454810738564 -0.016531260684132576 0 0 0 0
2117865944 0.2511748969554901 0.011459846049547195 -0.006904304958879948 -0.015582858584821224 0 0 0 0
2121588028 0.27482256293296814 -0.016446921974420547 -0.009582722559571266 -0.013909518718719482 0 0 0 0
2125310112 0.2932589054107666 -0.04896626994013786 -0.01206847745925188 -0.011572889052331448 0 0 0 0
2129032196 0.3047538101673126 -0.08404385298490524 -0.01362570933997631 -0.009053819812834263 0 0 0 0
2132754280 0.31004899740219116 -0.11940200626850128 -0.01499890349805355 -0.006359423510730267 0 0 0 0
2136476364 0.3114769458770752 -0.1517120599746704 -0.015777410939335823 -0.003592774271965027 0 0 0 0
2140198448 0.30605947971343994 -0.18711933493614197 -0.015926534309983253 -0.0002966783940792084 0 0 0 0
2143920532 0.2959944009780884 -0.21916751563549042 -0.014868495985865593 0.0025736065581440926 0 0 0 0
2147642616 0.2832976281642914 -0.2490023523569107 -0.013358629308640957 0.0047285109758377075 0 0 0 0
2151364700 0.26598551869392395 -0.27468645572662354 -0.012510044500231743 0.005957977846264839 0 0 0 0
2155086784 0.24063003063201904 -0.30095380544662476 -0.011402014642953873 0.007470201700925827 0 0 0 0
2158808868 0.21178697049617767 -0.3209603726863861 -0.010293603874742985 0.009075216017663479 0 0 0 0
2162530952 0.18552671372890472 -0.33417513966560364 -0.008807914331555367 0.010614132508635521 0 0 0 0
2166253036 0.15509426593780518 -0.3439618945121765 -0.007345500402152538 0.012027816846966743 0 0 0 0
2169975120 0.12430357187986374 -0.34958532452583313 -0.005186486057937145 0.013398662209510803 0 0 0 0
2173697204 0.0912083312869072 -0.3505120277404785 -0.0025002676993608475 0.014024024829268456 0 0 0 0
2177419288 0.059478990733623505 -0.34726160764694214 0.00012310780584812164 0.01406712643802166 0 0 0 0
2181141372 0.03255617618560791 -0.33676260709762573 0.002368887886404991 0.013432169333100319 0 0 0 0
2184863456 -0.0006592832505702972 -0.3230724632740021 0.00469429325312376 0.0122950104996562 0 0 0 0
2188585540 -0.021845445036888123 -0.3048146367073059 0.006175795570015907 0.011298472993075848 0 0 0 0
2192307624 -0.04597826302051544 -0.28251171112060547 0.007701779715716839 0.010172970592975616 0 0 0 0
2196029708 -0.06477043777704239 -0.2576211094856262 0.009289792738854885 0.008989859372377396 0 0 0 0
2199751792 -0.07939541339874268 -0.2302188277244568 0.010937776416540146 0.007082367315888405 0 0 0 0
2203473876 -0.0885530412197113 -0.19956199824810028 0.012155415490269661 0.004535709507763386 0 0 0 0
2207195960 -0.09531327337026596 -0.16792772710323334 0.012425501830875874 0.0019624996930360794 0 0 0 0
2210918044 -0.09702177345752716 -0.13356801867485046 0.011730598285794258 -0.0007533254101872444 0 0 0 0
2214640128 -0.08988238871097565 -0.10291999578475952 0.010809673927724361 -0.0024970723316073418 0 0 0 0
2218362212 -0.07975313067436218 -0.07143333554267883 0.0098116435110569 -0.003974961116909981 0 0 0 0
2222084296 -0.06421443819999695 -0.04051997885107994 0.008501491509377956 -0.0054877931252121925 0 0 0 0
2225806380 -0.04189668595790863 -0.013488009572029114 0.007300212979316711 -0.0065712472423911095 0 0 0 0
2229528464 -0.01374519057571888 0.009339197538793087 0.005832894705235958 -0.007410014979541302 0 0 0 0
2233250548 0.01773645356297493 0.024921881034970284 0.004329357296228409 -0.008081252686679363 0 0 0 0
2236972632 0.049672823399305344 0.034910283982753754 0.0028355438262224197 -0.008337300270795822 0 0 0 0
2240694716 0.08414905518293381 0.035100307315588 0.0013888822868466377 -0.008156427182257175 0 0 0 0
2244416800 0.11648887395858765 0.03415676951408386 0.00031077954918146133 -0.007944788783788681 0 0 0 0
2248138884 0.1476566344499588 0.025746535509824753 -0.0006790393963456154 -0.007996009662747383 0 0 0 0
2251860968 0.17682935297489166 0.007348541170358658 -0.001846805214881897 -0.007987125776708126 0 0 0 0
2255583052 0.2005857527256012 -0.007398791611194611 -0.003509542904794216 -0.007415992207825184 0 0 0 0
2259305136 0.22142669558525085 -0.03181713819503784 -0.0048369066789746284 -0.00617586262524128 0 0 0 0
2263027220 0.2379336953163147 -0.05509370565414429 -0.005369865335524082 -0.0047554271295666695 0 0 0 0
2266749304 0.24794015288352966 -0.0807853564620018 -0.005388427525758743 -0.0032899687066674232 0 0 0 0
2270471388 0.25284260511398315 -0.11247965693473816 -0.00499014463275671 -0.0021652216091752052 0 0 0 0
2274193472 0.25682738423347473 -0.1356632560491562 -0.00421522743999958 -0.0017436835914850235 0 0 0 0
2277915556 0.2501834034919739 -0.16703179478645325 -0.00342496857047081 -0.002008856274187565 0 0 0 0
2281637640 0.24652181565761566 -0.18726302683353424 -0.0033209165558218956 -0.0027265874668955803 0 0 0 0
2285359724 0.232607901096344 -0.21359507739543915 -0.0042122527956962585 -0.003399152308702469 0 0 0 0
2289081808 0.21425722539424896 -0.23654688894748688 -0.00523472111672163 -0.0035150693729519844 0 0 0 0
2292803892 0.19525055587291718 -0.25608786940574646 -0.0065577710047364235 -0.003395209088921547 0 0 0 0
2296525976 0.1725044548511505 -0.2696327269077301 -0.00817459262907505 -0.0026506874710321426 0 0 0 0
2300248060 0.14431190490722656 -0.2795354425907135 -0.009426657110452652 -0.0011466369032859802 0 0 0 0
2303970144 0.12203369289636612 -0.28732773661613464 -0.009826269932091236 0.000930052250623703 0 0 0 0
2307692228 0.09534286707639694 -0.28450992703437805 -0.00953221321105957 0.0028872648254036903 0 0 0 0
2311414312 0.06335492432117462 -0.2812843322753906 -0.008784966543316841 0.004493460990488529 0 0 0 0
2315136396 0.04553206264972687 -0.27172544598579407 -0.007782948203384876 0.005769661627709866 0 0 0 0
2318858480 0.018826015293598175 -0.26092326641082764 -0.006459160707890987 0.006609806790947914 0 0 0 0
2322580564 -0.006297193467617035 -0.24340465664863586 -0.005566438660025597 0.007045948877930641 0 0 0 0
2326302648 -0.02089809812605381 -0.2224065065383911 -0.004816930741071701 0.007454301230609417 0 0 0 0
2330024732 -0.03637475520372391 -0.19726219773292542 -0.004096429795026779 0.008105961605906487 0 0 0 0
2333746816 -0.047327376902103424 -0.17080840468406677 -0.002933376468718052 0.008879944682121277 0 0 0 0
2337468900 -0.053011808544397354 -0.14221176505088806 -0.0013643614947795868 0.00928123202174902 0 0 0 0
2341190984 -0.05123013257980347 -0.11269446462392807 4.0032900869846344e-05 0.009096024557948112 0 0 0 0
2344913068 -0.04636158049106598 -0.08375195413827896 0.001529773697257042 0.008542759343981743 0 0 0 0
2348635152 -0.035863131284713745 -0.056594252586364746 0.00274704210460186 0.007576683536171913 0 0 0 0
2352357236 -0.021865051239728928 -0.029560964554548264 0.0034712282940745354 0.006618154235184193 0 0 0 0
2356079320 -0.0015788953751325607 -0.006612706929445267 0.003991076722741127 0.005567801184952259 0 0 0 0
2359801404 0.022307448089122772 0.01245142426341772 0.004342413507401943 0.004795924760401249 0 0 0 0
2363523488 0.04905274137854576 0.02639535814523697 0.004640134051442146 0.0038617346435785294 0 0 0 0
2367245572 0.0772971361875534 0.036957982927560806 0.004887271672487259 0.0028463993221521378 0 0 0 0
2370967656 0.10714215785264969 0.041041597723960876 0.004798252135515213 0.0016552740707993507 0 0 0 0
2374689740 0.13659468293190002 0.04250604286789894 0.004292239435017109 0.0005071535706520081 0 0 0 0
2378411824 0.16706764698028564 0.03857553005218506 0.0030731987208127975 4.2407773435115814e-05 0 0 0 0
2382133908 0.1986064314842224 0.02980743534862995 0.002349372021853924 0.00029592495411634445 0 0 0 0
2385855992 0.22758924961090088 0.013497330248355865 0.0019753407686948776 0.0006392272189259529 0 0 0 0
2389578076 0.25396865606307983 -0.006041496992111206 0.0022165263071656227 0.0009116614237427711 0 0 0 0
2393300160 0.276811808347702 -0.030993714928627014 0.0022649159654974937 0.000883275642991066 0 0 0 0
2397022244 0.29284119606018066 -0.059710029512643814 0.0022968053817749023 0.0007066484540700912 0 0 0 0
2400744328 0.3027529716491699 -0.09380804002285004 0.0023179128766059875 0.0003084493800997734 0 0 0 0
2404466412 0.3078332841396332 -0.12537795305252075 0.002304927445948124 0.0003482280299067497 0 0 0 0
2408188496 0.30875563621520996 -0.1572042554616928 0.002199792303144932 0.0002861432731151581 0 0 0 0
2411910580 0.30237850546836853 -0.18901753425598145 0.0025900285691022873 0.00011878833174705505 0 0 0 0
2415632664 0.2939133942127228 -0.21740294992923737 0.0027431929484009743 -0.0003268187865614891 0 0 0 0
2419354748 0.2782825827598572 -0.24384357035160065 0.002525310032069683 -0.000748366117477417 0 0 0 0
2423076832 0.25860974192619324 -0.26774683594703674 0.002262810245156288 -0.0006434060633182526 0 0 0 0
2426798916 0.2362648993730545 -0.28911978006362915 0.002141900360584259 0.002958468161523342 0 0 0 0
2430521000 0.21441830694675446 -0.3043021261692047 0.0024581318721175194 -0.00039593782275915146 0 0 0 0
2434243084 0.1887686848640442 -0.31890183687210083 0.0030397428199648857 -0.0006955470889806747 0 0 0 0
2437965168 0.16437935829162598 -0.32774463295936584 0.003386208787560463 -0.0012036040425300598 0 0 0 0
2441687252 0.13440459966659546 -0.3354111909866333 0.00369205791503191 -0.0021956507116556168 0 0 0 0
2445409336 0.10246355086565018 -0.3401547074317932 0.003748721443116665 -0.003044598735868931 0 0 0 0
2449131420 0.07976124435663223 -0.336618572473526 0.003447737544775009 -0.004131358116865158 0 0 0 0
2452853504 0.04631905257701874 -0.3322942852973938 0.0028316210955381393 -0.005145498551428318 0 0 0 0
2456575588 0.01741693913936615 -0.3225046396255493 0.0019623562693595886 -0.006103575229644775 0 0 0 0
2460297672 -0.01004735752940178 -0.3072158098220825 0.0007243258878588676 -0.006609158590435982 0 0 0 0
2464019756 -0.036640018224716187 -0.2871708869934082 -0.00039016827940940857 -0.006740299053490162 0 0 0 0
2467741840 -0.05924231931567192 -0.26301199197769165 -0.0015948116779327393 -0.006972028873860836 0 0 0 0
2471463924 -0.07810934633016586 -0.23535147309303284 -0.0028287917375564575 -0.00700407475233078 0 0 0 0
2475186008 -0.09877033531665802 -0.2037215530872345 -0.0038251644000411034 -0.006676117889583111 0 0 0 0
2478908092 -0.09886126965284348 -0.1706405133008957 -0.005050397478044033 -0.00644825492054224 0 0 0 0
2482630176 -0.09950697422027588 -0.13661423325538635 -0.006182502023875713 -0.005794812925159931 0 0 0 0
2486352260 -0.09471194446086884 -0.10504268854856491 -0.007334064692258835 -0.00492220651358366 0 0 0 0
2490074344 -0.08491455763578415 -0.07477018237113953 -0.008077170699834824 -0.003820112906396389 0 0 0 0
2493796428 -0.07151012867689133 -0.0470433346927166 -0.008629592135548592 -0.0028016502037644386 0 0 0 0
2497518512 -0.054644063115119934 -0.02261941507458687 -0.00925458688288927 -0.00180753692984581 0 0 0 0
2501240596 -0.034748923033475876 -0.0006596148014068604 -0.009693791158497334 -0.00048764701932668686 0 0 0 0
2504962680 -0.011601953767240047 0.01952376589179039 -0.010053022764623165 0.0009662136435508728 0 0 0 0
2508684764 0.014463545754551888 0.03444337099790573 -0.009947472251951694 0.002982364036142826 0 0 0 0
2512406848 0.042339399456977844 0.04491528496146202 -0.009390043094754219 0.004577363841235638 0 0 0 0
2516128932 0.07062032073736191 0.05148600786924362 -0.008710337802767754 0.005951025523245335 0 0 0 0
2519851016 0.09951582551002502 0.054007142782211304 -0.007901842705905437 0.007234872318804264 0 0 0 0
2523573100 0.12857544422149658 0.04947354272007942 -0.006435234099626541 0.008463498204946518 0 0 0 0
2527295184 0.15561288595199585 0.0436304435133934 -0.004991650581359863 0.009204714559018612 0 0 0 0
2531017268 0.18204593658447266 0.030543789267539978 -0.0035267630591988564 0.009777669794857502 0 0 0 0
2534739352 0.20502720773220062 0.013826305978000164 -0.0017158640548586845 0.01012464426457882 0 0 0 0
2538461436 0.22562792897224426 -0.005054991692304611 -0.0004167342558503151 0.009983851574361324 0 0 0 0
2542183520 0.24081428349018097 -0.027245119214057922 0.0011606775224208832 0.009573127143085003 0 0 0 0
2545905604 0.2523183524608612 -0.05087750405073166 0.0023647435009479523 0.009042172692716122 0 0 0 0
2549627688 0.25946927070617676 -0.07489736378192902 0.003395884297788143 0.008628557436168194 0 0 0 0
2553349772 0.2647133767604828 -0.09768294543027878 0.004275963641703129 0.008118088357150555 0 0 0 0
2557071856 0.2599039077758789 -0.12407908588647842 0.005618728697299957 0.0074396077543497086 0 0 0 0
2560793940 0.25882700085639954 -0.14354339241981506 0.006530094891786575 0.006673869676887989 0 0 0 0
2564516024 0.24899828433990479 -0.1663419008255005 0.0072900475934147835 0.0055772121995687485 0 0 0 0
2568238108 0.24047110974788666 -0.18129251897335052 0.008048675954341888 0.004584408365190029 0 0 0 0
2571960192 0.22645451128482819 -0.19862964749336243 0.008828460238873959 0.0035987216979265213 0 0 0 0
2575682276 0.2150970697402954 -0.20944426953792572 0.009638441726565361 0.0024196431040763855 0 0 0 0
2579404360 0.19951128959655762 -0.2221236526966095 0.010425860062241554 0.0007653394713997841 0 0 0 0
2583126444 0.1848244071006775 -0.2310177981853485 0.010713882744312286 -0.0010772524401545525 0 0 0 0
2586848528 0.17060819268226624 -0.2362367808818817 0.010680613107979298 -0.003047551028430462 0 0 0 0
2590570612 0.15544480085372925 -0.2400149255990982 0.010212957859039307 -0.005053679458796978 0 0 0 0
2594292696 0.14001956582069397 -0.24321937561035156 0.009214549325406551 -0.006863894872367382 0 0 0 0
2598014780 0.1225958839058876 -0.24355459213256836 0.007860222831368446 -0.008611484430730343 0 0 0 0
2601736864 0.11035917699337006 -0.23994995653629303 0.0061501264572143555 -0.009863731451332569 0 0 0 0
2605458948 0.09583210945129395 -0.2339153289794922 0.004312106408178806 -0.010727016255259514 0 0 0 0
2609181032 0.08252745121717453 -0.22882620990276337 0.002582985907793045 -0.010983899235725403 0 0 0 0
2612903116 0.07268504798412323 -0.22088508307933807 0.0011446336284279823 -0.011237520724534988 0 0 0 0
2616625200 0.06288839876651764 -0.21156136691570282 -0.00036977510899305344 -0.01125427894294262 0 0 0 0
2620347284 0.0535719059407711 -0.20209495723247528 -0.0019503915682435036 -0.011285035870969296 0 0 0 0
2624069368 0.049497343599796295 -0.1910061538219452 -0.003471353091299534 -0.011111557483673096 0 0 0 0
2627791452 0.04463202506303787 -0.18089476227760315 -0.004860659129917622 -0.010505893267691135 0 0 0 0
2631513536 0.04374556988477707 -0.1702117919921875 -0.006423057056963444 -0.010202326811850071 0 0 0 0
2635235620 0.04322805628180504 -0.16027194261550903 -0.007973415777087212 -0.009802116081118584 0 0 0 0
2638957704 0.04474359005689621 -0.14821426570415497 -0.009721055626869202 -0.00885060429573059 0 0 0 0
2642679788 0.04727313295006752 -0.13973432779312134 -0.011576632969081402 -0.007095196284353733 0 0 0 0
2646401872 0.05183746665716171 -0.13258248567581177 -0.012874072417616844 -0.005170847289264202 0 0 0 0
2650123956 0.05690773203969002 -0.12492397427558899 -0.013554948382079601 -0.0031514782458543777 0 0 0 0
2653846040 0.06382130086421967 -0.12008480727672577 -0.014410916715860367 -0.0008078059181571007 0 0 0 0
2657568124 0.0710216760635376 -0.11532075703144073 -0.01485132984817028 0.0017979089170694351 0 0 0 0
2661290208 0.07729174196720123 -0.11540379375219345 -0.014371827244758606 0.004753662273287773 0 0 0 0
2665012292 0.08488155156373978 -0.11445803940296173 -0.01333392783999443 0.007528346031904221 0 0 0 0
2668734376 0.090388722717762 -0.11469278484582901 -0.011434066109359264 0.009893945418298244 0 0 0 0
2672456460 0.09526631236076355 -0.11824207007884979 -0.009084346704185009 0.01158840861171484 0 0 0 0
2676178544 0.10009722411632538 -0.12010454386472702 -0.006574946455657482 0.012921150773763657 0 0 0 0
2679900628 0.10568748414516449 -0.122377909719944 -0.004021582193672657 0.01374098751693964 0 0 0 0
2683622712 0.10702744871377945 -0.12712126970291138 -0.0010915258899331093 0.014015008695423603 0 0 0 0
2687344796 0.1102384403347969 -0.13096927106380463 0.0019845496863126755 0.013638508506119251 0 0 0 0
2691066880 0.11408667266368866 -0.13548171520233154 0.004381516017019749 0.012508459389209747 0 0 0 0
2694788964 0.11240261793136597 -0.14428511261940002 0.006639137864112854 0.010911480523645878 0 0 0 0
2698511048 0.1160266101360321 -0.14918872714042664 0.008022688329219818 0.00933755561709404 0 0 0 0
2702233132 0.11200302094221115 -0.15794426202774048 0.009362581185996532 0.007447061128914356 0 0 0 0
2705955216 0.10870333760976791 -0.16499628126621246 0.010403127409517765 0.005431069061160088 0 0 0 0
2709677300 0.10166344046592712 -0.17257986962795258 0.011172067373991013 0.003263787366449833 0 0 0 0
2713399384 0.09222784638404846 -0.17844077944755554 0.011575242504477501 0.001108592376112938 0 0 0 0
2717121468 0.08114317059516907 -0.18221735954284668 0.011243590153753757 -0.0013211574405431747 0 0 0 0
2720843552 0.0703577846288681 -0.18269619345664978 0.010797648690640926 -0.003473701886832714 0 0 0 0
2724565636 0.057570263743400574 -0.18077801167964935 0.009728904813528061 -0.005602804012596607 0 0 0 0
2728287720 0.04750874638557434 -0.17633944749832153 0.008316555060446262 -0.007297980599105358 0 0 0 0
2732009804 0.036923717707395554 -0.1704733967781067 0.006624767556786537 -0.008572098799049854 0 0 0 0
2735731888 0.025264138355851173 -0.16257862746715546 0.005034090951085091 -0.009568198584020138 0 0 0 0
2739453972 0.018011875450611115 -0.15227441489696503 0.0032663270831108093 -0.010247284546494484 0 0 0 0
2743176056 0.009677033871412277 -0.13873611390590668 0.0011166464537382126 -0.010705403052270412 0 0 0 0
2746898140 0.005878309719264507 -0.1241583302617073 -0.0009703272953629494 -0.01075894944369793 0 0 0 0
2750620224 0.0024461038410663605 -0.10878671705722809 -0.003024366684257984 -0.010464952327311039 0 0 0 0
2754342308 0.0041059888899326324 -0.09238460659980774 -0.005317612551152706 -0.009658505208790302 0 0 0 0
2758064392 0.006688132882118225 -0.07584288716316223 -0.007108314894139767 -0.008136026561260223 0 0 0 0
2761786476 0.0145487729460001 -0.06003154069185257 -0.008412107825279236 -0.0062713464722037315 0 0 0 0
2765508560 0.02367660030722618 -0.04633799567818642 -0.009386350400745869 -0.004218162968754768 0 0 0 0
2769230644 0.03467310965061188 -0.034094396978616714 -0.009670624509453773 -0.002231072634458542 0 0 0 0
2772952728 0.04834802448749542 -0.023198630660772324 -0.009590264409780502 -0.0004901876673102379 0 0 0 0
2776674812 0.06363393366336823 -0.013569887727499008 -0.00948356743901968 0.001502828672528267 0 0 0 0
2780396896 0.08057291060686111 -0.007025344297289848 -0.008696806617081165 0.0036257505416870117 0 0 0 0
2784118980 0.09856238216161728 -0.003172345459461212 -0.007473956793546677 0.00538678839802742 0 0 0 0
2787841064 0.11778406798839569 -0.0020830966532230377 -0.005560830235481262 0.00693737156689167 0 0 0 0
2791563148 0.1375148892402649 -0.0042651742696762085 -0.003566286526620388 0.007795318961143494 0 0 0 0
2795285232 0.15541872382164001 -0.010072441771626472 -0.0012093940749764442 0.007958495989441872 0 0 0 0
2799007316 0.17458397150039673 -0.016885606572031975 0.0005873590707778931 0.007351737469434738 0 0 0 0
2802729400 0.19276916980743408 -0.026644013822078705 0.002096722833812237 0.0063209328800439835 0 0 0 0
2806451484 0.20905056595802307 -0.03810935467481613 0.0029796743765473366 0.005346815101802349 0 0 0 0
2810173568 0.22299206256866455 -0.05516791343688965 0.003611130639910698 0.004386428743600845 0 0 0 0
2813895652 0.236078679561615 -0.07418043166399002 0.0042455606162548065 0.003475119359791279 0 0 0 0
2817617736 0.2444930076599121 -0.09410277009010315 0.004751009866595268 0.002552223391830921 0 0 0 0
2821339820 0.24936553835868835 -0.11550989001989365 0.004944038577377796 0.0015724897384643555 0 0 0 0
2825061904 0.25393614172935486 -0.1378277838230133 0.004869523458182812 0.0006195558235049248 0 0 0 0
2828783988 0.25431787967681885 -0.16056756675243378 0.005046765320003033 -0.00015161745250225067 0 0 0 0
2832506072 0.25151678919792175 -0.18378621339797974 0.005066467449069023 -0.0011062519624829292 0 0 0 0
2836228156 0.24486534297466278 -0.20900776982307434 0.004808805882930756 -0.0021219663321971893 0 0 0 0
2839950240 0.23761175572872162 -0.23176120221614838 0.0042714932933449745 -0.0028830990195274353 0 0 0 0
2843672324 0.22359128296375275 -0.25325435400009155 0.00357908196747303 -0.0035005370154976845 0 0 0 0
2847394408 0.20778882503509521 -0.2714305818080902 0.0030618486925959587 -0.003889184445142746 0 0 0 0
2851116492 0.18614280223846436 -0.29118025302886963 0.0026546865701675415 -0.004347493872046471 0 0 0 0
2854838576 0.16426223516464233 -0.3049347400665283 0.002033272758126259 -0.0048923008143901825 0 0 0 0
2858560660 0.1467263400554657 -0.31679287552833557 0.001461964100599289 -0.005756883881986141 0 0 0 0
2862282744 0.11816893517971039 -0.32510682940483093 0.0002698618918657303 -0.006027877330780029 0 0 0 0
2866004828 0.09170602262020111 -0.3300095498561859 -0.000939113087952137 -0.00603079330176115 0 0 0 0
2869726912 0.06922432035207748 -0.32991349697113037 -0.0019567757844924927 -0.005815592594444752 0 0 0 0
2873448996 0.038632407784461975 -0.3268967866897583 -0.003201814368367195 -0.005141629837453365 0 0 0 0
2877171080 0.015335559844970703 -0.32124432921409607 -0.003946206532418728 -0.0042097363620996475 0 0 0 0
2880893164 -0.011074185371398926 -0.31381410360336304 -0.004553303122520447 -0.003112473525106907 0 0 0 0
2884615248 -0.035573817789554596 -0.30108097195625305 -0.004675299860537052 -0.0021835677325725555 0 0 0 0
2888337332 -0.06038793921470642 -0.2853167951107025 -0.004558516666293144 -0.001210295595228672 0 0 0 0
2892059416 -0.08056521415710449 -0.2667621672153473 -0.004478299990296364 -0.00042552314698696136 0 0 0 0
2895781500 -0.09884171932935715 -0.24435240030288696 -0.004168456420302391 0.0003770729526877403 0 0 0 0
2899503584 -0.11402630805969238 -0.21928544342517853 -0.003935597836971283 0.0009761042892932892 0 0 0 0
2903225668 -0.1282169222831726 -0.19180740416049957 -0.003459857776761055 0.0018435819074511528 0 0 0 0
2906947752 -0.13512037694454193 -0.16423501074314117 -0.0029008276760578156 0.0023002726957201958 0 0 0 0
2910669836 -0.13902606070041656 -0.13531410694122314 -0.0022026877850294113 0.002829005941748619 0 0 0 0
2914391920 -0.13883939385414124 -0.10424438118934631 -0.0015154127031564713 0.00299656018614769 0 0 0 0
2918114004 -0.13485772907733917 -0.07521220296621323 -0.0007557934150099754 0.0031275711953639984 0 0 0 0
2921836088 -0.12625229358673096 -0.04730315878987312 -0.00012839771807193756 0.00295387115329504 0 0 0 0
2925558172 -0.11522381007671356 -0.02069402113556862 0.0004498530179262161 0.0027343500405550003 0 0 0 0
2929280256 -0.0989636778831482 0.006239339709281921 0.0007654707878828049 0.0025631971657276154 0 0 0 0
2933002340 -0.07933931797742844 0.028693340718746185 0.000981602817773819 0.002339147962629795 0 0 0 0
2936724424 -0.05667915567755699 0.04853545501828194 0.0011754482984542847 0.0024242904037237167 0 0 0 0
2940446508 -0.03161681070923805 0.06424333155155182 0.001602035015821457 0.002594815567135811 0 0 0 0
2944168592 -0.004732687026262283 0.07624472677707672 0.002180740237236023 0.002544269897043705 0 0 0 0
2947890676 0.0223977193236351 0.08450920134782791 0.002919686958193779 0.002539297565817833 0 0 0 0
2951612760 0.049006134271621704 0.09038963913917542 0.0038145920261740685 0.0021889545023441315 0 0 0 0
2955334844 0.07851395756006241 0.09110061824321747 0.004391130991280079 0.0014701848849654198 0 0 0 0
2959056928 0.106228306889534 0.08838090300559998 0.005000348202884197 0.0006780019029974937 0 0 0 0
2962779012 0.1350736767053604 0.08135216683149338 0.005381044931709766 -0.00036181509494781494 0 0 0 0
2966501096 0.15960964560508728 0.07251062244176865 0.00551354605704546 -0.0016262969002127647 0 0 0 0
2970223180 0.18357416987419128 0.056490786373615265 0.005329842679202557 -0.002922038547694683 0 0 0 0
2973945264 0.2048133760690689 0.04030629247426987 0.0044682687148451805 -0.003946141339838505 0 0 0 0
2977667348 0.2232251614332199 0.020040549337863922 0.0037420913577079773 -0.0049033937975764275 0 0 0 0
2981389432 0.23812925815582275 -0.0026833564043045044 0.0025515370070934296 -0.00565134733915329 0 0 0 0
2985111516 0.2510542571544647 -0.023248733952641487 0.0012594889849424362 -0.006232628598809242 0 0 0 0
2988833600 0.25931665301322937 -0.04437016695737839 -0.0001964326947927475 -0.006023884750902653 0 0 0 0
2992555684 0.264899343252182 -0.06922204792499542 -0.001567925326526165 -0.005591247230768204 0 0 0 0
2996277768 0.2665216326713562 -0.09399125725030899 -0.0027681533247232437 -0.005010279826819897 0 0 0 0
2999999852 0.2669834792613983 -0.11586213111877441 -0.0038651488721370697 -0.003951956517994404 0 0 0 0
