# HZ S RI R 50
1500000000 -0.07920336723327637 -0.0988733321428299 0.04786968603730202 -0.021040070801973343 0 0 0 0
1503722084 -0.08250702917575836 -0.07673296332359314 0.04347837716341019 -0.028134576976299286 0 0 0 0
1507444168 -0.07944090664386749 -0.05078846588730812 0.03921224921941757 -0.03435568884015083 0 0 0 0
1511166252 -0.06836292892694473 -0.022896673530340195 0.033416733145713806 -0.04101859778165817 0 0 0 0
1514888336 -0.04860015958547592 0.0030642300844192505 0.025928180664777756 -0.04691086709499359 0 0 0 0
1518610420 -0.022036537528038025 0.025932230055332184 0.016554949805140495 -0.05106937512755394 0 0 0 0
1522332504 0.010739432647824287 0.043370142579078674 0.005609825253486633 -0.05264877527952194 0 0 0 0
1526054588 0.04725069925189018 0.05482226982712746 -0.00465364009141922 -0.051369428634643555 0 0 0 0
1529776672 0.0872417539358139 0.06000940129160881 -0.013663974590599537 -0.04786594584584236 0 0 0 0
1533498756 0.1308186650276184 0.057929281145334244 -0.021150410175323486 -0.04219423606991768 0 0 0 0
1537220840 0.17569613456726074 0.04526128992438316 -0.026852570474147797 -0.03585498780012131 0 0 0 0
1540942924 0.21868804097175598 0.022421732544898987 -0.03059149533510208 -0.029247816652059555 0 0 0 0
1544665008 0.25635385513305664 -0.007172117009758949 -0.03303597494959831 -0.0230889730155468 0 0 0 0
1548387092 0.28856831789016724 -0.043733980506658554 -0.03448782116174698 -0.0171989593654871 0 0 0 0
1552109176 0.31417906284332275 -0.08408115804195404 -0.03479413688182831 -0.01126314140856266 0 0 0 0
1555831260 0.33457738161087036 -0.12781941890716553 -0.03451889008283615 -0.005918028764426708 0 0 0 0
1559553344 0.34634241461753845 -0.1800680309534073 -0.03370538353919983 -0.0009497608989477158 0 0 0 0
1563275428 0.35164767503738403 -0.23197273910045624 -0.032410554587841034 0.004155966453254223 0 0 0 0
1566997512 0.3462643027305603 -0.28731173276901245 -0.029769480228424072 0.009112889878451824 0 0 0 0
1570719596 0.3333778977394104 -0.33995842933654785 -0.026379181072115898 0.012566249817609787 0 0 0 0
1574441680 0.3110593557357788 -0.3904397487640381 -0.022655297070741653 0.015153247863054276 0 0 0 0
1578163764 0.28298646211624146 -0.43760547041893005 -0.01936526969075203 0.01654927060008049 0 0 0 0
1581885848 0.2427130788564682 -0.4816678464412689 -0.016676491126418114 0.017560869455337524 0 0 0 0
1585607932 0.20155395567417145 -0.5182510614395142 -0.014349144883453846 0.01852283999323845 0 0 0 0
1589330016 0.15006843209266663 -0.5492491722106934 -0.011699138209223747 0.019428441300988197 0 0 0 0
1593052100 0.0955689400434494 -0.5736023187637329 -0.009446186013519764 0.019785918295383453 0 0 0 0
1596774184 0.037522315979003906 -0.5891480445861816 -0.007414327934384346 0.020411834120750427 0 0 0 0
1600496268 -0.026642024517059326 -0.5952013731002808 -0.0053479960188269615 0.021364107728004456 0 0 0 0
1604218352 -0.08853794634342194 -0.5929712653160095 -0.0027691423892974854 0.022302303463220596 0 0 0 0
1607940436 -0.14962472021579742 -0.5798413753509521 0.00022378098219633102 0.022824687883257866 0 0 0 0
1611662520 -0.20954027771949768 -0.558788537979126 0.0034483876079320908 0.02292671799659729 0 0 0 0
1615384604 -0.27126362919807434 -0.5275294184684753 0.006976673379540443 0.02239071950316429 0 0 0 0
1619106688 -0.3246840238571167 -0.4859362840652466 0.010498620569705963 0.021204939112067223 0 0 0 0
1622828772 -0.3748339116573334 -0.4356326460838318 0.01393289864063263 0.019335199147462845 0 0 0 0
1626550856 -0.414450466632843 -0.3803565502166748 0.01685134693980217 0.016816100105643272 0 0 0 0
1630272940 -0.4476947784423828 -0.3135516941547394 0.019198182970285416 0.013752196915447712 0 0 0 0
1633995024 -0.4717031717300415 -0.24348139762878418 0.021031919866800308 0.010247565805912018 0 0 0 0
1637717108 -0.48408955335617065 -0.1682165265083313 0.021964725106954575 0.006869546137750149 0 0 0 0
1641439192 -0.48352888226509094 -0.09478910267353058 0.022629600018262863 0.003565010614693165 0 0 0 0
1645161276 -0.47129666805267334 -0.017329439520835876 0.02281998284161091 -0.00025959592312574387 0 0 0 0
1648883360 -0.4479888379573822 0.05509108304977417 0.022489536553621292 -0.0035897446796298027 0 0 0 0
1652605444 -0.4116799235343933 0.12790724635124207 0.021654415875673294 -0.007031870074570179 0 0 0 0
1656327528 -0.36583149433135986 0.19148439168930054 0.020428644493222237 -0.010505452752113342 0 0 0 0
1660049612 -0.30825918912887573 0.2505682706832886 0.01849689520895481 -0.014004376716911793 0 0 0 0
1663771696 -0.2434133142232895 0.2985844612121582 0.015959465876221657 -0.017197541892528534 0 0 0 0
1667493780 -0.17016708850860596 0.3370121121406555 0.012315372936427593 -0.019960906356573105 0 0 0 0
1671215864 -0.08847241848707199 0.36376717686653137 0.007883637212216854 -0.021578658372163773 0 0 0 0
1674937948 -0.008134018629789352 0.37496402859687805 0.003405933268368244 -0.0219146516174078 0 0 0 0
1678660032 0.07631067931652069 0.3740757703781128 -0.0009331805631518364 -0.020847678184509277 0 0 0 0
1682382116 0.1567693054676056 0.36033642292022705 -0.003871639259159565 -0.018963370472192764 0 0 0 0
1686104200 0.23666535317897797 0.3344604969024658 -0.006045449525117874 -0.01713944599032402 0 0 0 0
1689826284 0.3097241520881653 0.2968956232070923 -0.007912259548902512 -0.015336035750806332 0 0 0 0
1693548368 0.37715649604797363 0.24793775379657745 -0.00930869858711958 -0.0136477155610919 0 0 0 0
1697270452 0.4353873133659363 0.18933817744255066 -0.010578742250800133 -0.011789796873927116 0 0 0 0
1700992536 0.48332977294921875 0.12563590705394745 -0.011410200968384743 -0.010159468278288841 0 0 0 0
1704714620 0.5203989744186401 0.04973970353603363 -0.012392455711960793 -0.008249355480074883 0 0 0 0
1708436704 0.5458720326423645 -0.022791199386119843 -0.013012933544814587 -0.006416701711714268 0 0 0 0
1712158788 0.5582485795021057 -0.10407419502735138 -0.013199890032410622 -0.004452955909073353 0 0 0 0
1715880872 0.5589643716812134 -0.18066444993019104 -0.01313962321728468 -0.002394573763012886 0 0 0 0
1719602956 0.5480742454528809 -0.2587760388851166 -0.012567615136504173 -0.000667080283164978 0 0 0 0
1723325040 0.5250764489173889 -0.33567097783088684 -0.011916324496269226 0.0007836977019906044 0 0 0 0
1727047124 0.49529212713241577 -0.40218183398246765 -0.011230168864130974 0.0019927099347114563 0 0 0 0
1730769208 0.4520176351070404 -0.4668944180011749 -0.010614014230668545 0.002919665537774563 0 0 0 0
1734491292 0.39933907985687256 -0.522642195224762 -0.01010790653526783 0.003999575041234493 0 0 0 0
1738213376 0.3415805697441101 -0.5710951685905457 -0.009136680513620377 0.005233685486018658 0 0 0 0
1741935460 0.27581125497817993 -0.607980489730835 -0.008005799725651741 0.005904024466872215 0 0 0 0
1745657544 0.21012982726097107 -0.6330317258834839 -0.00699292216449976 0.00601404532790184 0 0 0 0
1749379628 0.13833096623420715 -0.6496326923370361 -0.006483911536633968 0.005849123932421207 0 0 0 0
1753101712 0.06571309268474579 -0.6529330611228943 -0.006585311144590378 0.006055183708667755 0 0 0 0
1756823796 -0.00410500168800354 -0.6482176184654236 -0.0067465947940945625 0.0067047057673335075 0 0 0 0
1760545880 -0.07382538914680481 -0.6320459842681885 -0.00672281626611948 0.008020028471946716 0 0 0 0
1764267964 -0.14162768423557281 -0.6028551459312439 -0.006175076588988304 0.00949921365827322 0 0 0 0
1767990048 -0.196598082780838 -0.5665544271469116 -0.0050832005217671394 0.01117420569062233 0 0 0 0
1771712132 -0.24919188022613525 -0.5245556831359863 -0.0033772876486182213 0.012449594214558601 0 0 0 0
1775434216 -0.292999804019928 -0.47450995445251465 -0.001403074711561203 0.013242971152067184 0 0 0 0
1779156300 -0.327834814786911 -0.42073723673820496 0.0009356969967484474 0.013427325524389744 0 0 0 0
1782878384 -0.35771501064300537 -0.36159172654151917 0.0026687290519475937 0.013011874631047249 0 0 0 0
1786600468 -0.37540456652641296 -0.30200234055519104 0.00403996929526329 0.012620516121387482 0 0 0 0
1790322552 -0.38541218638420105 -0.23781341314315796 0.005396380089223385 0.012604355812072754 0 0 0 0
1794044636 -0.38836953043937683 -0.16964992880821228 0.007620302960276604 0.0124221695587039 0 0 0 0
1797766720 -0.37704700231552124 -0.1080051064491272 0.009403771720826626 0.011821703054010868 0 0 0 0
1801488804 -0.35698172450065613 -0.04660533368587494 0.011485572904348373 0.011133689433336258 0 0 0 0
1805210888 -0.32832667231559753 0.011232621967792511 0.013755669817328453 0.010077212005853653 0 0 0 0
1808932972 -0.2914605736732483 0.06316068023443222 0.01613583043217659 0.008475782349705696 0 0 0 0
1812655056 -0.2476598620414734 0.10695300996303558 0.018114972859621048 0.006202390417456627 0 0 0 0
1816377140 -0.19595271348953247 0.14394479990005493 0.019859859719872475 0.003812553361058235 0 0 0 0
1820099224 -0.13948778808116913 0.17175458371639252 0.021892154589295387 0.0006141038611531258 0 0 0 0
1823821308 -0.08048881590366364 0.18794994056224823 0.023351138457655907 -0.004041513428092003 0 0 0 0
1827543392 -0.020478203892707825 0.19483155012130737 0.023065727204084396 -0.009220009669661522 0 0 0 0
1831265476 0.03672628849744797 0.19145315885543823 0.021408285945653915 -0.013930299319326878 0 0 0 0
1834987560 0.09306343644857407 0.17838189005851746 0.018693236634135246 -0.01847114972770214 0 0 0 0
1838709644 0.14343510568141937 0.15872429311275482 0.014483150094747543 -0.02222299762070179 0 0 0 0
1842431728 0.190276101231575 0.13183005154132843 0.009723542258143425 -0.024153031408786774 0 0 0 0
1846153812 0.23235110938549042 0.09674252569675446 0.005409914068877697 -0.024553045630455017 0 0 0 0
1849875896 0.2655087113380432 0.057645075023174286 0.002162901684641838 -0.024848373606801033 0 0 0 0
1853597980 0.2906559109687805 0.013846606016159058 -0.0014452729374170303 -0.02559129148721695 0 0 0 0
1857320064 0.3080402612686157 -0.02977711707353592 -0.005057213827967644 -0.025588011369109154 0 0 0 0
1861042148 0.3174085319042206 -0.07741113752126694 -0.009225736372172832 -0.02519238367676735 0 0 0 0
1864764232 0.31696850061416626 -0.12616223096847534 -0.013296054676175117 -0.024723894894123077 0 0 0 0
1868486316 0.31039196252822876 -0.16964837908744812 -0.01820524036884308 -0.023382769897580147 0 0 0 0
1872208400 0.29758113622665405 -0.20871953666210175 -0.02322056144475937 -0.020509392023086548 0 0 0 0
1875930484 0.28268107771873474 -0.24716970324516296 -0.02876521460711956 -0.017099972814321518 0 0 0 0
1879652568 0.2538950741291046 -0.28190213441848755 -0.03219042718410492 -0.011484157294034958 0 0 0 0
1883374652 0.22450335323810577 -0.30646833777427673 -0.03399510681629181 -0.004637002944946289 0 0 0 0
1887096736 0.19160541892051697 -0.3268091082572937 -0.033451370894908905 0.002140381373465061 0 0 0 0
1890818820 0.15852457284927368 -0.34006601572036743 -0.0319388210773468 0.007224756292998791 0 0 0 0
1894540904 0.12677186727523804 -0.34748440980911255 -0.03044457547366619 0.011398631148040295 0 0 0 0
1898262988 0.09396667778491974 -0.3503589928150177 -0.029001867398619652 0.01607632264494896 0 0 0 0
1901985072 0.060399264097213745 -0.347248375415802 -0.027102366089820862 0.02059028670191765 0 0 0 0
1905707156 0.026886120438575745 -0.337841659784317 -0.024058546870946884 0.025737464427947998 0 0 0 0
1909429240 -0.0007235473021864891 -0.3248010277748108 -0.020170290023088455 0.030672309920191765 0 0 0 0
1913151324 -0.027467679232358932 -0.3061467409133911 -0.014246867969632149 0.03520490601658821 0 0 0 0
1916873408 -0.04736991226673126 -0.28398653864860535 -0.007491512224078178 0.038159530609846115 0 0 0 0
1920595492 -0.06568852812051773 -0.2588691711425781 -4.7929584980010986e-05 0.039596643298864365 0 0 0 0
1924317576 -0.07690712064504623 -0.23141981661319733 0.007533908821642399 0.04013883322477341 0 0 0 0
1928039660 -0.08322393149137497 -0.20193509757518768 0.016085360199213028 0.03907042369246483 0 0 0 0
1931761744 -0.08498138189315796 -0.17222850024700165 0.024981055408716202 0.03545299917459488 0 0 0 0
1935483828 -0.07966811209917068 -0.14302700757980347 0.032574255019426346 0.028728343546390533 0 0 0 0
1939205912 -0.06913179904222488 -0.11628512293100357 0.03748398274183273 0.020018016919493675 0 0 0 0
1942927996 -0.05450865998864174 -0.09345724433660507 0.039511874318122864 0.011419149115681648 0 0 0 0
1946650080 -0.036449410021305084 -0.07387520372867584 0.03962014988064766 0.0029069585725665092 0 0 0 0
1950372164 -0.01473991759121418 -0.05863887816667557 0.03824976831674576 -0.004580909386277199 0 0 0 0
1954094248 0.008509190753102303 -0.04826044291257858 0.03529597446322441 -0.011033766902983189 0 0 0 0
1957816332 0.031510524451732635 -0.04316607117652893 0.03183364495635033 -0.016311367973685265 0 0 0 0
1961538416 0.054255254566669464 -0.04053988307714462 0.027676701545715332 -0.02110176905989647 0 0 0 0
1965260500 0.07622607052326202 -0.04187188297510147 0.023668061941862106 -0.02497074566781521 0 0 0 0
1968982584 0.09840906411409378 -0.045624472200870514 0.018479041755199432 -0.02857438288629055 0 0 0 0
1972704668 0.11983410269021988 -0.05364716798067093 0.0136951869353652 -0.030960457399487495 0 0 0 0
1976426752 0.14014188945293427 -0.06527683138847351 0.008315491490066051 -0.03287288546562195 0 0 0 0
1980148836 0.1576654613018036 -0.08110971748828888 0.002186599187552929 -0.03431902453303337 0 0 0 0
1983870920 0.1724558174610138 -0.09942147135734558 -0.004479642026126385 -0.03444693237543106 0 0 0 0
1987593004 0.18234983086585999 -0.12128326296806335 -0.011020142585039139 -0.03257140517234802 0 0 0 0
1991315088 0.18924683332443237 -0.14305925369262695 -0.016928624361753464 -0.029556438326835632 0 0 0 0
1995037172 0.18955636024475098 -0.16753070056438446 -0.021429643034934998 -0.02541768178343773 0 0 0 0
1998759256 0.18782596290111542 -0.18970376253128052 -0.02511463314294815 -0.020659837871789932 0 0 0 0
2002481340 0.18208765983581543 -0.21113428473472595 -0.02725277468562126 -0.015430161729454994 0 0 0 0
2006203424 0.17213711142539978 -0.23171231150627136 -0.02833283320069313 -0.01103066373616457 0 0 0 0
2009925508 0.1562805324792862 -0.251109778881073 -0.02926366776227951 -0.007269085384905338 0 0 0 0
2013647592 0.1394214630126953 -0.2665020823478699 -0.030454270541667938 -0.002408054657280445 0 0 0 0
2017369676 0.12154623866081238 -0.2774181067943573 -0.031257811933755875 0.0024216249585151672 0 0 0 0
2021091760 0.09772926568984985 -0.2857767939567566 -0.030507897958159447 0.00807894766330719 0 0 0 0
2024813844 0.07666609436273575 -0.29046136140823364 -0.028389684855937958 0.013347189873456955 0 0 0 0
2028535928 0.051262266933918 -0.29128721356391907 -0.025486206635832787 0.018213218078017235 0 0 0 0
2032258012 0.030422478914260864 -0.2878645956516266 -0.02225436642765999 0.02231736108660698 0 0 0 0
2035980096 0.008590908721089363 -0.280186265707016 -0.01832173578441143 0.025875551626086235 0 0 0 0
2039702180 -0.011431016027927399 -0.269835501909256 -0.013881497085094452 0.028515685349702835 0 0 0 0
2043424264 -0.030709121376276016 -0.2575318515300751 -0.008744295686483383 0.030305776745080948 0 0 0 0
2047146348 -0.048468105494976044 -0.24175028502941132 -0.003926876001060009 0.03164871037006378 0 0 0 0
2050868432 -0.06475888192653656 -0.22240233421325684 0.0016593364998698235 0.03278958424925804 0 0 0 0
2054590516 -0.07745780050754547 -0.19920258224010468 0.008259817957878113 0.03198791295289993 0 0 0 0
2058312600 -0.08516090363264084 -0.17453056573867798 0.014281824231147766 0.029700107872486115 0 0 0 0
2062034684 -0.08946831524372101 -0.14900705218315125 0.0196236539632082 0.026232866570353508 0 0 0 0
2065756768 -0.09007696807384491 -0.12255768477916718 0.024199094623327255 0.02163577266037464 0 0 0 0
2069478852 -0.08672982454299927 -0.09522388875484467 0.026590105146169662 0.016049746423959732 0 0 0 0
2073200936 -0.08007802069187164 -0.06812013685703278 0.028428172692656517 0.010568042285740376 0 0 0 0
2076923020 -0.0689813643693924 -0.04312778264284134 0.02905224822461605 0.005249647423624992 0 0 0 0
2080645104 -0.05345774069428444 -0.017943937331438065 0.02819252945482731 0.0005197459831833839 0 0 0 0
2084367188 -0.03361639007925987 0.004639723338186741 0.027037419378757477 -0.00358485896140337 0 0 0 0
2088089272 -0.010060927830636501 0.025475703179836273 0.025641094893217087 -0.007511423900723457 0 0 0 0
2091811356 0.018955465406179428 0.041530899703502655 0.02449573203921318 -0.011000538244843483 0 0 0 0
2095533440 0.0497179813683033 0.051917798817157745 0.022519713267683983 -0.014893898740410805 0 0 0 0
2099255524 0.08165019750595093 0.05803656578063965 0.01961274817585945 -0.0187643151730299 0 0 0 0
2102977608 0.11498269438743591 0.05836166441440582 0.01620284654200077 -0.022095641121268272 0 0 0 0
2106699692 0.14902786910533905 0.052869461476802826 0.011948169209063053 -0.024872533977031708 0 0 0 0
2110421776 0.18096303939819336 0.04334845021367073 0.006980392150580883 -0.02677770145237446 0 0 0 0
2114143860 0.21210145950317383 0.027003079652786255 0.002071445807814598 -0.027216030284762383 0 0 0 0
2117865944 0.23990276455879211 0.004766922444105148 -0.0032627256587147713 -0.026787051931023598 0 0 0 0
2121588028 0.26319682598114014 -0.02060619369149208 -0.007769014686346054 -0.025126341730356216 0 0 0 0
2125310112 0.28155189752578735 -0.04964304715394974 -0.01165532786399126 -0.02313578873872757 0 0 0 0
2129032196 0.2916150987148285 -0.08362099528312683 -0.015589017421007156 -0.020413953810930252 0 0 0 0
2132754280 0.29924437403678894 -0.11453789472579956 -0.0187256820499897 -0.017187297344207764 0 0 0 0
2136476364 0.3003845512866974 -0.14846082031726837 -0.021192781627178192 -0.013192910701036453 0 0 0 0
2140198448 0.29766276478767395 -0.17964018881320953 -0.023221485316753387 -0.008638326078653336 0 0 0 0
2143920532 0.2914195656776428 -0.2075161337852478 -0.023836780339479446 -0.003948899917304516 0 0 0 0
2147642616 0.27789270877838135 -0.23992936313152313 -0.023474104702472687 0.0003956453874707222 0 0 0 0
2151364700 0.2628859579563141 -0.2653406262397766 -0.02285090833902359 0.00400652177631855 0 0 0 0
2155086784 0.2414797842502594 -0.291127473115921 -0.021653544157743454 0.007856715470552444 0 0 0 0
2158808868 0.21487818658351898 -0.3107099235057831 -0.019237106665968895 0.01105264201760292 0 0 0 0
2162530952 0.18919245898723602 -0.325143963098526 -0.01676330715417862 0.013212479650974274 0 0 0 0
2166253036 0.15991263091564178 -0.33568593859672546 -0.014063570648431778 0.01510696206241846 0 0 0 0
2169975120 0.12926027178764343 -0.34271398186683655 -0.011113975197076797 0.016530442982912064 0 0 0 0
2173697204 0.10259782522916794 -0.3447626531124115 -0.008103525266051292 0.01737259328365326 0 0 0 0
2177419288 0.0700417011976242 -0.343916654586792 -0.00545957125723362 0.01794728823006153 0 0 0 0
2181141372 0.04037316143512726 -0.33714228868484497 -0.0032545002177357674 0.018330877646803856 0 0 0 0
2184863456 0.009815804660320282 -0.32456278800964355 -0.0006723217666149139 0.0189741849899292 0 0 0 0
2188585540 -0.018175825476646423 -0.30648571252822876 0.002684623934328556 0.018932145088911057 0 0 0 0
2192307624 -0.040740638971328735 -0.2846899628639221 0.0060570500791072845 0.017811881378293037 0 0 0 0
2196029708 -0.05920262634754181 -0.25949397683143616 0.009166428819298744 0.0161745622754097 0 0 0 0
2199751792 -0.0732286274433136 -0.23465071618556976 0.012061702087521553 0.014664941467344761 0 0 0 0
2203473876 -0.08770182728767395 -0.2030172497034073 0.014673097059130669 0.012315328232944012 0 0 0 0
2207195960 -0.08668442815542221 -0.17666923999786377 0.01666947640478611 0.009904645383358002 0 0 0 0
2210918044 -0.09063701331615448 -0.14316082000732422 0.018037578091025352 0.007251390255987644 0 0 0 0
2214640128 -0.08871068060398102 -0.11023186892271042 0.01865912415087223 0.004121590405702591 0 0 0 0
2218362212 -0.07927319407463074 -0.08075445145368576 0.0188160203397274 0.0007306020706892014 0 0 0 0
2222084296 -0.06722512096166611 -0.05063754692673683 0.017880789935588837 -0.0027788272127509117 0 0 0 0
2225806380 -0.04855584725737572 -0.022489678114652634 0.016483662649989128 -0.0058523183688521385 0 0 0 0
2229528464 -0.02370942197740078 0.001252596266567707 0.01497899740934372 -0.008222218602895737 0 0 0 0
2233250548 0.006318703293800354 0.019378699362277985 0.013222502544522285 -0.01057521067559719 0 0 0 0
2236972632 0.03865337371826172 0.031152905896306038 0.010874883271753788 -0.012823490425944328 0 0 0 0
2240694716 0.07254381477832794 0.038005489856004715 0.008084057830274105 -0.01446139719337225 0 0 0 0
2244416800 0.10808344185352325 0.03563131392002106 0.005343717522919178 -0.015343783423304558 0 0 0 0
2248138884 0.1408015489578247 0.03069816529750824 0.002925836481153965 -0.016014844179153442 0 0 0 0
2251860968 0.17178842425346375 0.018051408231258392 0.001494055613875389 -0.01544944941997528 0 0 0 0
2255583052 0.1972981095314026 -0.0029128678143024445 -0.0018765097483992577 -0.015975933521986008 0 0 0 0
2259305136 0.22038030624389648 -0.02203235775232315 -0.005000521428883076 -0.015231961384415627 0 0 0 0
2263027220 0.23623421788215637 -0.05167762190103531 -0.007988682016730309 -0.012947619892656803 0 0 0 0
2266749304 0.25042325258255005 -0.07230247557163239 -0.009616955183446407 -0.010515036061406136 0 0 0 0
2270471388 0.2556593418121338 -0.10550324618816376 -0.010284757241606712 -0.008217970840632915 0 0 0 0
2274193472 0.2583984136581421 -0.1328423023223877 -0.010277894325554371 -0.006544817239046097 0 0 0 0
2277915556 0.2539011836051941 -0.16224455833435059 -0.010216135531663895 -0.00537504069507122 0 0 0 0
2281637640 0.24743996560573578 -0.18731914460659027 -0.010473819449543953 -0.00508450623601675 0 0 0 0
2285359724 0.23614877462387085 -0.21200032532215118 -0.011369753628969193 -0.004399629309773445 0 0 0 0
2289081808 0.22000126540660858 -0.23401711881160736 -0.012405375950038433 -0.002925359643995762 0 0 0 0
2292803892 0.19932176172733307 -0.2547723650932312 -0.012961574830114841 -0.0010359296575188637 0 0 0 0
2296525976 0.1715133786201477 -0.27035588026046753 -0.013273782096803188 0.0008099908009171486 0 0 0 0
2300248060 0.151844322681427 -0.27813252806663513 -0.013348792679607868 0.002523427829146385 0 0 0 0
2303970144 0.12321491539478302 -0.2895399034023285 -0.012719428166747093 0.005008199252188206 0 0 0 0
2307692228 0.10008030384778976 -0.2857823073863983 -0.01189221628010273 0.006564738228917122 0 0 0 0
2311414312 0.07373587042093277 -0.2837628722190857 -0.01080271601676941 0.008465874940156937 0 0 0 0
2315136396 0.04362140968441963 -0.27691650390625 -0.009204472415149212 0.009938154369592667 0 0 0 0
2318858480 0.019529767334461212 -0.2646925151348114 -0.007264695130288601 0.010954304598271847 0 0 0 0
2322580564 -6.37248158454895e-05 -0.24709022045135498 -0.005654140375554562 0.011474020779132843 0 0 0 0
2326302648 -0.02385760098695755 -0.22588208317756653 -0.0039228880777955055 0.0117550790309906 0 0 0 0
2330024732 -0.03681820631027222 -0.2020074874162674 -0.00252679456025362 0.01194603182375431 0 0 0 0
2333746816 -0.0452890545129776 -0.1764410138130188 -0.0009614871814846992 0.011981237679719925 0 0 0 0
2337468900 -0.05519668012857437 -0.14594003558158875 0.0010664789006114006 0.011748388409614563 0 0 0 0
2341190984 -0.05432319641113281 -0.11684226989746094 0.002514525316655636 0.01116538792848587 0 0 0 0
2344913068 -0.05206923559308052 -0.0846354216337204 0.0038787908852100372 0.010365382768213749 0 0 0 0
2348635152 -0.04098433256149292 -0.055297065526247025 0.005215740762650967 0.009334895759820938 0 0 0 0
2352357236 -0.024316929280757904 -0.030116459354758263 0.00626307912170887 0.008160599507391453 0 0 0 0
2356079320 -0.004120733588933945 -0.006544045172631741 0.007001664489507675 0.006961106322705746 0 0 0 0
2359801404 0.019693437963724136 0.0125234704464674 0.008048533461987972 0.005537695251405239 0 0 0 0
2363523488 0.04667624831199646 0.02749689482152462 0.008742814883589745 0.0039639659225940704 0 0 0 0
2367245572 0.0751853659749031 0.038639459758996964 0.008947721682488918 0.002021249383687973 0 0 0 0
2370967656 0.10524363815784454 0.04266580939292908 0.008539507165551186 -0.0002171797677874565 0 0 0 0
2374689740 0.1357903778553009 0.04209508001804352 0.007270600646734238 -0.002034667879343033 0 0 0 0
2378411824 0.16580677032470703 0.03978763148188591 0.005708604119718075 -0.002952062524855137 0 0 0 0
2382133908 0.19629040360450745 0.030418656766414642 0.004138012416660786 -0.003068000078201294 0 0 0 0
2385855992 0.22465388476848602 0.014859132468700409 0.0030225077643990517 -0.002770107239484787 0 0 0 0
2389578076 0.2518005073070526 -0.0012483596801757812 0.0024971207603812218 -0.002589479088783264 0 0 0 0
2393300160 0.2741378843784332 -0.03068317100405693 0.001947571523487568 -0.002375878393650055 0 0 0 0
2397022244 0.29083579778671265 -0.05657002329826355 0.0017584813758730888 -0.002128228545188904 0 0 0 0
2400744328 0.3037184178829193 -0.08686461299657822 0.001533270813524723 -0.0021177446469664574 0 0 0 0
2404466412 0.3106619715690613 -0.1190633699297905 0.0016540773212909698 -0.001799694262444973 0 0 0 0
2408188496 0.31160974502563477 -0.15322260558605194 0.0014029797166585922 -0.0020465226843953133 0 0 0 0
2411910580 0.3101341724395752 -0.18191438913345337 0.0012834127992391586 -0.0023837434127926826 0 0 0 0
2415632664 0.2975713014602661 -0.21711501479148865 0.0008749412372708321 -0.002673325128853321 0 0 0 0
2419354748 0.2837271988391876 -0.2422291338443756 0.0001509394496679306 -0.0027931788936257362 0 0 0 0
2423076832 0.2656923830509186 -0.26828479766845703 -0.0005962634459137917 -0.0024231458082795143 0 0 0 0
2426798916 0.24124468863010406 -0.293001264333725 -0.00118216872215271 -0.0017884327098727226 0 0 0 0
2430521000 0.2174806147813797 -0.3082179129123688 -0.0010117953643202782 -0.0009946469217538834 0 0 0 0
2434243084 0.19233351945877075 -0.32189613580703735 0.00029895640909671783 -0.0036196140572428703 0 0 0 0
2437965168 0.1641511619091034 -0.33332502841949463 0.00011565349996089935 -0.00028123240917921066 0 0 0 0
2441687252 0.13915808498859406 -0.3380280137062073 0.0008894177153706551 -0.0006059687584638596 0 0 0 0
2445409336 0.10883988440036774 -0.34227171540260315 0.0010425643995404243 -0.0012020999565720558 0 0 0 0
2449131420 0.0770174115896225 -0.34161752462387085 0.001271313987672329 -0.00176235381513834 0 0 0 0
2452853504 0.048433542251586914 -0.33486247062683105 0.000921173021197319 -0.0022348230704665184 0 0 0 0
2456575588 0.017547160387039185 -0.32631683349609375 0.0007937373593449593 -0.0028193285688757896 0 0 0 0
2460297672 -0.010819673538208008 -0.3119733929634094 0.0003172820433974266 -0.003372552804648876 0 0 0 0
2464019756 -0.039359793066978455 -0.29134467244148254 5.54034486413002e-05 -0.003544514998793602 0 0 0 0
2467741840 -0.06301932781934738 -0.26681703329086304 -0.0003389250487089157 -0.004027665592730045 0 0 0 0
2471463924 -0.07955794036388397 -0.23945707082748413 -0.0010679299011826515 -0.004270434379577637 0 0 0 0
2475186008 -0.09513087570667267 -0.20822663605213165 -0.0018402133136987686 -0.004634740762412548 0 0 0 0
2478908092 -0.10257042944431305 -0.17402902245521545 -0.002586912363767624 -0.004939635284245014 0 0 0 0
2482630176 -0.1039368212223053 -0.13928751647472382 -0.003563779406249523 -0.0049478402361273766 0 0 0 0
2486352260 -0.10074916481971741 -0.10509786754846573 -0.004857252351939678 -0.004556864500045776 0 0 0 0
2490074344 -0.09233497828245163 -0.07254359126091003 -0.0055681634694337845 -0.003782997839152813 0 0 0 0
2493796428 -0.07674582302570343 -0.04388674348592758 -0.006246902979910374 -0.003413749858736992 0 0 0 0
2497518512 -0.05989498645067215 -0.016743600368499756 -0.00697486475110054 -0.0028726495802402496 0 0 0 0
2501240596 -0.03849853575229645 0.005706474184989929 -0.007894248701632023 -0.0019698189571499825 0 0 0 0
2504962680 -0.013747374527156353 0.02618604712188244 -0.008733712136745453 -0.0005497429519891739 0 0 0 0
2508684764 0.014785428531467915 0.04150187969207764 -0.009046432562172413 0.0005966201424598694 0 0 0 0
2512406848 0.04396132007241249 0.051717791706323624 -0.008972086943686008 0.0025817658752202988 0 0 0 0
2516128932 0.07349428534507751 0.057193778455257416 -0.008716505020856857 0.004130123183131218 0 0 0 0
2519851016 0.10461902618408203 0.058925218880176544 -0.008009622804820538 0.0055610258132219315 0 0 0 0
2523573100 0.13379161059856415 0.053815003484487534 -0.00698016956448555 0.00700763612985611 0 0 0 0
2527295184 0.162773996591568 0.045071642845869064 -0.005569016560912132 0.007841575890779495 0 0 0 0
2531017268 0.18919013440608978 0.03386423736810684 -0.004562859423458576 0.008546117693185806 0 0 0 0
2534739352 0.21307198703289032 0.015700742602348328 -0.0031515220180153847 0.00904849823564291 0 0 0 0
2538461436 0.23355421423912048 -0.005686044692993164 -0.0018917545676231384 0.00940493494272232 0 0 0 0
2542183520 0.24799659848213196 -0.03053920716047287 -0.0002217451110482216 0.009568766690790653 0 0 0 0
2545905604 0.25852465629577637 -0.05638415738940239 0.0013560336083173752 0.009500636719167233 0 0 0 0
2549627688 0.26475077867507935 -0.07938224077224731 0.0026684002950787544 0.008994530886411667 0 0 0 0
2553349772 0.2677396833896637 -0.10638228803873062 0.004123356193304062 0.008508745580911636 0 0 0 0
2557071856 0.26465722918510437 -0.13050240278244019 0.005637395195662975 0.007684514857828617 0 0 0 0
2560793940 0.25998297333717346 -0.15330906212329865 0.006715334951877594 0.006510142236948013 0 0 0 0
2564516024 0.24954906105995178 -0.1755588948726654 0.007612747140228748 0.005235796794295311 0 0 0 0
2568238108 0.2371489405632019 -0.1921963393688202 0.008254439570009708 0.003942482173442841 0 0 0 0
2571960192 0.22480365633964539 -0.20608296990394592 0.008876918815076351 0.0026710443198680878 0 0 0 0
2575682276 0.2081136554479599 -0.21917939186096191 0.009511035867035389 0.0011382689699530602 0 0 0 0
2579404360 0.19522622227668762 -0.22673021256923676 0.009878672659397125 -0.0006786547601222992 0 0 0 0
2583126444 0.17677408456802368 -0.23527315258979797 0.009487316943705082 -0.002949153073132038 0 0 0 0
2586848528 0.1621120721101761 -0.2393069565296173 0.008688477799296379 -0.004633510485291481 0 0 0 0
2590570612 0.14512433111667633 -0.24238698184490204 0.007595543749630451 -0.006339602172374725 0 0 0 0
2594292696 0.12916631996631622 -0.2417571097612381 0.006330306641757488 -0.007744095288217068 0 0 0 0
2598014780 0.11438296735286713 -0.2390696108341217 0.004406408406794071 -0.008771545253694057 0 0 0 0
2601736864 0.1026788204908371 -0.2348148226737976 0.0024008555337786674 -0.009203899651765823 0 0 0 0
2605458948 0.08883045613765717 -0.22855819761753082 0.0006407927721738815 -0.00888456217944622 0 0 0 0
2609181032 0.07633064687252045 -0.22151605784893036 -0.0007475772872567177 -0.008453432470560074 0 0 0 0
2612903116 0.06783074140548706 -0.21240666508674622 -0.0020454442128539085 -0.007759173400700092 0 0 0 0
2616625200 0.05820636451244354 -0.20266419649124146 -0.002831564284861088 -0.006868413649499416 0 0 0 0
2620347284 0.05403079837560654 -0.19228696823120117 -0.0031389715149998665 -0.006066468544304371 0 0 0 0
2624069368 0.048991959542036057 -0.182221457362175 -0.0033293012529611588 -0.005763644352555275 0 0 0 0
2627791452 0.047079045325517654 -0.1724708378314972 -0.004076763987541199 -0.005545230582356453 0 0 0 0
2631513536 0.048362601548433304 -0.16219018399715424 -0.004290024749934673 -0.0051404861733317375 0 0 0 0
2635235620 0.04775463044643402 -0.15264008939266205 -0.0044959597289562225 -0.0052709756419062614 0 0 0 0
2638957704 0.04870142787694931 -0.1428631842136383 -0.005221240222454071 -0.005306198261678219 0 0 0 0
2642679788 0.05280810967087746 -0.13426083326339722 -0.006200417876243591 -0.005474860779941082 0 0 0 0
2646401872 0.05820658057928085 -0.12678684294223785 -0.007434549741446972 -0.005087938159704208 0 0 0 0
2650123956 0.06432070583105087 -0.12004972994327545 -0.008608056232333183 -0.004247912205755711 0 0 0 0
2653846040 0.0723530501127243 -0.11657554656267166 -0.010079115629196167 -0.0029607247561216354 0 0 0 0
2657568124 0.08078332245349884 -0.11446443200111389 -0.011129764840006828 -0.0013093659654259682 0 0 0 0
2661290208 0.08868920058012009 -0.11485904455184937 -0.0117949228733778 0.0006567575037479401 0 0 0 0
2665012292 0.09709036350250244 -0.11605431139469147 -0.011753227561712265 0.0031798575073480606 0 0 0 0
2668734376 0.10206019133329391 -0.11948148161172867 -0.011071216315031052 0.005413910374045372 0 0 0 0
2672456460 0.10788264125585556 -0.12452413141727448 -0.009791607037186623 0.007651753723621368 0 0 0 0
2676178544 0.10885614901781082 -0.13088420033454895 -0.008008897304534912 0.009370601736009121 0 0 0 0
2679900628 0.11119678616523743 -0.13505125045776367 -0.0061843255534768105 0.0105696190148592 0 0 0 0
2683622712 0.11158348619937897 -0.1402348279953003 -0.003906785510480404 0.01168245542794466 0 0 0 0
2687344796 0.11195093393325806 -0.14477375149726868 -0.0013581924140453339 0.012174892239272594 0 0 0 0
2691066880 0.11173120141029358 -0.15164104104042053 0.0010450175032019615 0.011942252516746521 0 0 0 0
2694788964 0.1107805073261261 -0.15567976236343384 0.0031357891857624054 0.011100858449935913 0 0 0 0
2698511048 0.10634379088878632 -0.16385136544704437 0.005092061124742031 0.009918265044689178 0 0 0 0
2702233132 0.10375469923019409 -0.16791453957557678 0.006517315283417702 0.008895134553313255 0 0 0 0
2705955216 0.09580618888139725 -0.17448009550571442 0.00787389650940895 0.007536439225077629 0 0 0 0
2709677300 0.08868663758039474 -0.17862023413181305 0.009372936561703682 0.006004861555993557 0 0 0 0
2713399384 0.07808461785316467 -0.18180294334888458 0.010457067750394344 0.004243842326104641 0 0 0 0
2717121468 0.06759798526763916 -0.18231986463069916 0.01115697342902422 0.0020011411979794502 0 0 0 0
2720843552 0.05619983747601509 -0.17979222536087036 0.011494445614516735 -0.0004428913816809654 0 0 0 0
2724565636 0.04619532823562622 -0.17550942301750183 0.011333941482007504 -0.0027933744713664055 0 0 0 0
2728287720 0.03350953012704849 -0.16921421885490417 0.010435907170176506 -0.005396162159740925 0 0 0 0
2732009804 0.023686569184064865 -0.16128571331501007 0.008864924311637878 -0.007427850738167763 0 0 0 0
2735731888 0.016766436398029327 -0.15119227766990662 0.007383208721876144 -0.009026654995977879 0 0 0 0
2739453972 0.010834284126758575 -0.1396307349205017 0.0054641710594296455 -0.010459324344992638 0 0 0 0
2743176056 0.003129024989902973 -0.12475095689296722 0.003039092756807804 -0.011366238817572594 0 0 0 0
2746898140 0.00287555530667305 -0.10973955690860748 0.0006322003901004791 -0.011816943995654583 0 0 0 0
2750620224 0.0036287158727645874 -0.09497181326150894 -0.0020137112587690353 -0.011653007008135319 0 0 0 0
2754342308 0.005957011133432388 -0.07857591658830643 -0.00439649261534214 -0.010797790251672268 0 0 0 0
2758064392 0.011547571048140526 -0.06305888295173645 -0.00647278968244791 -0.00933141727000475 0 0 0 0
2761786476 0.02098786272108555 -0.047741204500198364 -0.008028723299503326 -0.007443009875714779 0 0 0 0
2765508560 0.03246068209409714 -0.03522426635026932 -0.009123153053224087 -0.005457435734570026 0 0 0 0
2769230644 0.04618970677256584 -0.024870283901691437 -0.009525000117719173 -0.003582731820642948 0 0 0 0
2772952728 0.06086213141679764 -0.01624194160103798 -0.009769611991941929 -0.0015666373074054718 0 0 0 0
2776674812 0.0766361802816391 -0.009842192754149437 -0.009678306989371777 0.00045628007501363754 0 0 0 0
2780396896 0.09400340169668198 -0.006144472397863865 -0.009225237183272839 0.0023963358253240585 0 0 0 0
2784118980 0.11192913353443146 -0.004280570894479752 -0.008275168016552925 0.004223608411848545 0 0 0 0
2787841064 0.13050280511379242 -0.004598669707775116 -0.007079151459038258 0.005828281864523888 0 0 0 0
2791563148 0.14980390667915344 -0.00996650755405426 -0.005303595215082169 0.006974833086133003 0 0 0 0
2795285232 0.16801200807094574 -0.01609480381011963 -0.003261663019657135 0.007820921950042248 0 0 0 0
2799007316 0.1849980503320694 -0.024952560663223267 -0.0012354012578725815 0.007791528478264809 0 0 0 0
2802729400 0.20119483768939972 -0.03714476153254509 0.00047292280942201614 0.007282869890332222 0 0 0 0
2806451484 0.21500784158706665 -0.0514049157500267 0.001899968832731247 0.006483463570475578 0 0 0 0
2810173568 0.22655966877937317 -0.06922441720962524 0.0029489845037460327 0.005681807175278664 0 0 0 0
2813895652 0.23710504174232483 -0.08740820735692978 0.0038996748626232147 0.0047246357426047325 0 0 0 0
2817617736 0.24288409948349 -0.10844425112009048 0.00477663055062294 0.003638641908764839 0 0 0 0
2821339820 0.24654579162597656 -0.12992367148399353 0.005209796130657196 0.0023187091574072838 0 0 0 0
2825061904 0.24680402874946594 -0.14976021647453308 0.005233009345829487 0.0013385610654950142 0 0 0 0
2828783988 0.24303050339221954 -0.17271758615970612 0.005071586929261684 0.0004025101661682129 0 0 0 0
2832506072 0.24101579189300537 -0.19104161858558655 0.005092557519674301 -0.00041345786303281784 0 0 0 0
2836228156 0.23245425522327423 -0.2131960690021515 0.004823467694222927 -0.0012934627011418343 0 0 0 0
2839950240 0.2216462343931198 -0.2337467074394226 0.004523304291069508 -0.0020008161664009094 0 0 0 0
2843672324 0.20944905281066895 -0.254278302192688 0.004105348140001297 -0.002663087099790573 0 0 0 0
2847394408 0.19616194069385529 -0.27062568068504333 0.0036967406049370766 -0.0031187161803245544 0 0 0 0
2851116492 0.17301218211650848 -0.28901293873786926 0.0033855028450489044 -0.003731601871550083 0 0 0 0
2854838576 0.15167051553726196 -0.3001788556575775 0.003072492778301239 -0.0043251365423202515 0 0 0 0
2858560660 0.13366791605949402 -0.3096691370010376 0.002737032249569893 -0.005427205935120583 0 0 0 0
2862282744 0.10645800828933716 -0.3176032304763794 0.0015163132920861244 -0.006304248236119747 0 0 0 0
2866004828 0.08094081282615662 -0.3201097249984741 0.00015750154852867126 -0.006570487283170223 0 0 0 0
2869726912 0.06255900859832764 -0.319364070892334 -0.0011756932362914085 -0.006354980170726776 0 0 0 0
2873448996 0.03371870517730713 -0.31638821959495544 -0.0024618692696094513 -0.005878317169845104 0 0 0 0
2877171080 0.007933482527732849 -0.30895042419433594 -0.003594193607568741 -0.005111820064485073 0 0 0 0
2880893164 -0.012110635638237 -0.29996562004089355 -0.004326269030570984 -0.004088305868208408 0 0 0 0
2884615248 -0.03196831792593002 -0.28750553727149963 -0.004603357054293156 -0.0029787281528115273 0 0 0 0
2888337332 -0.052304692566394806 -0.27353793382644653 -0.004719543270766735 -0.0018755458295345306 0 0 0 0
2892059416 -0.07316098362207413 -0.2547498941421509 -0.004601325839757919 -0.0010452689602971077 0 0 0 0
2895781500 -0.0873907133936882 -0.23531079292297363 -0.004550997167825699 -0.00023665279150009155 0 0 0 0
2899503584 -0.10049473494291306 -0.212175652384758 -0.00441103707998991 0.000535440631210804 0 0 0 0
2903225668 -0.11345262825489044 -0.1875327229499817 -0.00405579898506403 0.0011629806831479073 0 0 0 0
2906947752 -0.12108948826789856 -0.16232657432556152 -0.003732762299478054 0.0020853234454989433 0 0 0 0
2910669836 -0.12577879428863525 -0.13557955622673035 -0.0031146472319960594 0.002880464307963848 0 0 0 0
2914391920 -0.12348225712776184 -0.10855133831501007 -0.0022084731608629227 0.0034454427659511566 0 0 0 0
2918114004 -0.12231676280498505 -0.08015783131122589 -0.0013317270204424858 0.003730076365172863 0 0 0 0
2921836088 -0.11394906044006348 -0.05498899891972542 -0.0003949590027332306 0.003915458917617798 0 0 0 0
2925558172 -0.10330145806074142 -0.03045285865664482 0.0008010584861040115 0.003727138042449951 0 0 0 0
2929280256 -0.09043489396572113 -0.006235919892787933 0.0015331851318478584 0.0032013487070798874 0 0 0 0
2933002340 -0.07347360998392105 0.014666521921753883 0.0017454549670219421 0.002574198879301548 0 0 0 0
2936724424 -0.05384106561541557 0.034390658140182495 0.002028370276093483 0.0024569472298026085 0 0 0 0
2940446508 -0.032106898725032806 0.04937490075826645 0.0026292363181710243 0.002238526940345764 0 0 0 0
2944168592 -0.007873433642089367 0.062223318964242935 0.003138515166938305 0.0018983837217092514 0 0 0 0
2947890676 0.016599640250205994 0.07149431109428406 0.00360267236828804 0.001281045377254486 0 0 0 0
2951612760 0.042950503528118134 0.07856128364801407 0.0038646655157208443 0.0005110185593366623 0 0 0 0
2955334844 0.06821253150701523 0.0821273922920227 0.00390003714710474 0.0003019198775291443 0 0 0 0
2959056928 0.0957300066947937 0.08074778318405151 0.004326432012021542 -0.0003778347745537758 0 0 0 0
2962779012 0.12139420956373215 0.07619501650333405 0.00461150985211134 -0.0013351840898394585 0 0 0 0
2966501096 0.14703576266765594 0.067681223154068 0.004207576625049114 -0.002453620545566082 0 0 0 0
2970223180 0.17135852575302124 0.053776342421770096 0.003592139109969139 -0.0034472495317459106 0 0 0 0
2973945264 0.1920159012079239 0.0408431738615036 0.002853388898074627 -0.004022709093987942 0 0 0 0
2977667348 0.2119956761598587 0.022609924897551537 0.0021045412868261337 -0.004381313920021057 0 0 0 0
2981389432 0.22699058055877686 0.0041127316653728485 0.0012367703020572662 -0.004587511532008648 0 0 0 0
2985111516 0.24013623595237732 -0.017359502613544464 0.0002840636298060417 -0.0049991244450211525 0 0 0 0
2988833600 0.24939095973968506 -0.037871114909648895 -0.0007778685539960861 -0.0048571499064564705 0 0 0 0
2992555684 0.2567654252052307 -0.06110936030745506 -0.001852019689977169 -0.004537411965429783 0 0 0 0
2996277768 0.2595084309577942 -0.08501153439283371 -0.003005184233188629 -0.003967702388763428 0 0 0 0
2999999852 0.2621455788612366 -0.10557470470666885 -0.00394350104033947 -0.0029535889625549316 0 0 0 0
