# HZ S RI R 50
1500000000 -0.07736095041036606 -0.09004898369312286 0.0400007888674736 -0.026990782469511032 0 0 0 0
1503722084 -0.07730308175086975 -0.06864125281572342 0.03461916744709015 -0.03218952938914299 0 0 0 0
1507444168 -0.07179643213748932 -0.0450049489736557 0.02861594408750534 -0.03677648678421974 0 0 0 0
1511166252 -0.0589144192636013 -0.019328752532601357 0.022220758721232414 -0.04044215753674507 0 0 0 0
1514888336 -0.03938931226730347 0.003240251913666725 0.015189887024462223 -0.04340927675366402 0 0 0 0
1518610420 -0.014326164498925209 0.023636791855096817 0.007025464437901974 -0.04524010792374611 0 0 0 0
1522332504 0.01590207777917385 0.04007754847407341 -0.0016197804361581802 -0.04490184038877487 0 0 0 0
1526054588 0.05145689845085144 0.051627375185489655 -0.009967745281755924 -0.0422075092792511 0 0 0 0
1529776672 0.09059298783540726 0.05833285301923752 -0.016419943422079086 -0.03763828054070473 0 0 0 0
1533498756 0.13498608767986298 0.05638753995299339 -0.0210077166557312 -0.03249096870422363 0 0 0 0
1537220840 0.1808588206768036 0.04326717555522919 -0.024265412241220474 -0.027442680671811104 0 0 0 0
1540942924 0.2241702377796173 0.0191558375954628 -0.02651648037135601 -0.02262226864695549 0 0 0 0
1544665008 0.2611228823661804 -0.013762776739895344 -0.028313519433140755 -0.01783859357237816 0 0 0 0
1548387092 0.2899901866912842 -0.052958033978939056 -0.029314134269952774 -0.013107357546687126 0 0 0 0
1552109176 0.3140934407711029 -0.09357006847858429 -0.029450075700879097 -0.008775130845606327 0 0 0 0
1555831260 0.33237430453300476 -0.13837535679340363 -0.02931402623653412 -0.004900873638689518 0 0 0 0
1559553344 0.34331226348876953 -0.18775030970573425 -0.029301315546035767 -0.0008804993703961372 0 0 0 0
1563275428 0.34377825260162354 -0.2402576059103012 -0.028631236404180527 0.0035923579707741737 0 0 0 0
1566997512 0.33949530124664307 -0.290814608335495 -0.02677972987294197 0.007708044722676277 0 0 0 0
1570719596 0.32404768466949463 -0.3427569270133972 -0.02422557771205902 0.01126570999622345 0 0 0 0
1574441680 0.3021301329135895 -0.39062246680259705 -0.021273234859108925 0.013820408843457699 0 0 0 0
1578163764 0.2763463854789734 -0.4337735176086426 -0.01824772357940674 0.015793558210134506 0 0 0 0
1581885848 0.23590807616710663 -0.47617292404174805 -0.015462893061339855 0.01711459457874298 0 0 0 0
1585607932 0.19383178651332855 -0.5112313032150269 -0.01274820789694786 0.018042709678411484 0 0 0 0
1589330016 0.14837191998958588 -0.5415108799934387 -0.01025948766618967 0.018782611936330795 0 0 0 0
1593052100 0.0939960926771164 -0.5645056366920471 -0.007820498198270798 0.019159331917762756 0 0 0 0
1596774184 0.0367102324962616 -0.5799802541732788 -0.005744790658354759 0.019563762471079826 0 0 0 0
1600496268 -0.02077910304069519 -0.5857853889465332 -0.0036122137680649757 0.020122798159718513 0 0 0 0
1604218352 -0.08118237555027008 -0.5838906764984131 -0.0012816442176699638 0.020754115656018257 0 0 0 0
1607940436 -0.14066286385059357 -0.5746942758560181 0.0016556046903133392 0.02097867615520954 0 0 0 0
1611662520 -0.20307886600494385 -0.5568055510520935 0.004706679843366146 0.021119534969329834 0 0 0 0
1615384604 -0.2632410526275635 -0.5257824659347534 0.007999731227755547 0.02036675252020359 0 0 0 0
1619106688 -0.31843918561935425 -0.48697739839553833 0.011481842957437038 0.01905312016606331 0 0 0 0
1622828772 -0.36449679732322693 -0.43998682498931885 0.014513897709548473 0.016880271956324577 0 0 0 0
1626550856 -0.4080371856689453 -0.3843168020248413 0.017055949196219444 0.01433577574789524 0 0 0 0
1630272940 -0.4423028826713562 -0.31826213002204895 0.019311897456645966 0.01115387212485075 0 0 0 0
1633995024 -0.46702611446380615 -0.250110924243927 0.020795151591300964 0.007523158565163612 0 0 0 0
1637717108 -0.48156169056892395 -0.17523597180843353 0.021524183452129364 0.0036377469077706337 0 0 0 0
1641439192 -0.48338598012924194 -0.10347767919301987 0.021584894508123398 8.13063234090805e-05 0 0 0 0
1645161276 -0.4730291962623596 -0.02375684678554535 0.020846396684646606 -0.0036216136068105698 0 0 0 0
1648883360 -0.4500013291835785 0.04945438355207443 0.01968214102089405 -0.0067953625693917274 0 0 0 0
1652605444 -0.4156969487667084 0.1211700439453125 0.01794234663248062 -0.009664424695074558 0 0 0 0
1656327528 -0.3701530396938324 0.18630968034267426 0.016093019396066666 -0.012042900547385216 0 0 0 0
1660049612 -0.3126116991043091 0.2460271269083023 0.013700912706553936 -0.014489302411675453 0 0 0 0
1663771696 -0.24786058068275452 0.29517921805381775 0.011138826608657837 -0.016531525179743767 0 0 0 0
1667493780 -0.1734996885061264 0.33462461829185486 0.00785885937511921 -0.018350157886743546 0 0 0 0
1671215864 -0.09609843790531158 0.36162111163139343 0.004455906338989735 -0.019131440669298172 0 0 0 0
1674937948 -0.012532636523246765 0.3743089735507965 0.0005956515669822693 -0.019314229488372803 0 0 0 0
1678660032 0.06950876116752625 0.37518310546875 -0.0032448265701532364 -0.01835404522716999 0 0 0 0
1682382116 0.15157091617584229 0.3621762692928314 -0.006194365210831165 -0.016374368220567703 0 0 0 0
1686104200 0.23170706629753113 0.33716604113578796 -0.008086835965514183 -0.014112967997789383 0 0 0 0
1689826284 0.3032107949256897 0.30250346660614014 -0.009281919337809086 -0.012242443859577179 0 0 0 0
1693548368 0.37099069356918335 0.25530803203582764 -0.010536238551139832 -0.010487966239452362 0 0 0 0
1697270452 0.4308330714702606 0.19661679863929749 -0.011687390506267548 -0.008587915450334549 0 0 0 0
1700992536 0.48149561882019043 0.1309002935886383 -0.012518731877207756 -0.006475614383816719 0 0 0 0
1704714620 0.5205197334289551 0.05560053884983063 -0.01314146164804697 -0.004242347553372383 0 0 0 0
1708436704 0.5456430315971375 -0.019899025559425354 -0.013229569420218468 -0.002037004567682743 0 0 0 0
1712158788 0.5590738654136658 -0.09937357902526855 -0.012847034260630608 0.00034056883305311203 0 0 0 0
1715880872 0.5610947012901306 -0.17504534125328064 -0.011942625977098942 0.002437487244606018 0 0 0 0
1719602956 0.5507062077522278 -0.25610727071762085 -0.010431795381009579 0.004258556291460991 0 0 0 0
1723325040 0.5287938117980957 -0.33018630743026733 -0.008835837244987488 0.0052023474127054214 0 0 0 0
1727047124 0.49992242455482483 -0.3963698148727417 -0.007562378421425819 0.00564022921025753 0 0 0 0
1730769208 0.4543151259422302 -0.4641486406326294 -0.006382424384355545 0.005945216864347458 0 0 0 0
1734491292 0.40479058027267456 -0.5205926895141602 -0.005387661047279835 0.006380087696015835 0 0 0 0
1738213376 0.34640902280807495 -0.5667630434036255 -0.0042634084820747375 0.006665270775556564 0 0 0 0
1741935460 0.28188884258270264 -0.6059357523918152 -0.002919296734035015 0.006432146765291691 0 0 0 0
1745657544 0.21780994534492493 -0.6327611207962036 -0.0021367501467466354 0.005789071321487427 0 0 0 0
1749379628 0.14434689283370972 -0.6498947143554688 -0.0017807641997933388 0.005250067450106144 0 0 0 0
1753101712 0.07070313394069672 -0.656358003616333 -0.00170968659222126 0.004802964627742767 0 0 0 0
1756823796 -0.005748540163040161 -0.6516390442848206 -0.002064341679215431 0.004635377787053585 0 0 0 0
1760545880 -0.06960994750261307 -0.6345530152320862 -0.002354441210627556 0.00498502142727375 0 0 0 0
1764267964 -0.13777613639831543 -0.6095312833786011 -0.002341983839869499 0.005689078010618687 0 0 0 0
1767990048 -0.1986640989780426 -0.5712276697158813 -0.0019275089725852013 0.006573472172021866 0 0 0 0
1771712132 -0.249683678150177 -0.5293943285942078 -0.0010886546224355698 0.0072138747200369835 0 0 0 0
1775434216 -0.293778657913208 -0.48035770654678345 -0.0002871379256248474 0.007450886070728302 0 0 0 0
1779156300 -0.3319428563117981 -0.42192915081977844 0.000582265667617321 0.007601526565849781 0 0 0 0
1782878384 -0.35766562819480896 -0.3644897937774658 0.001159382052719593 0.0077587272971868515 0 0 0 0
1786600468 -0.3773294985294342 -0.30148255825042725 0.0017086900770664215 0.007870151661336422 0 0 0 0
1790322552 -0.3865909278392792 -0.23850096762180328 0.002389943227171898 0.008400236256420612 0 0 0 0
1794044636 -0.38745301961898804 -0.17265883088111877 0.0034373151138424873 0.008869599550962448 0 0 0 0
1797766720 -0.3772142231464386 -0.10917549580335617 0.0045186784118413925 0.009285409934818745 0 0 0 0
1801488804 -0.3572535514831543 -0.049797192215919495 0.005859739147126675 0.009878132492303848 0 0 0 0
1805210888 -0.32865989208221436 0.006918914616107941 0.00814804807305336 0.010703345760703087 0 0 0 0
1808932972 -0.2917517125606537 0.05917378142476082 0.011362029239535332 0.010933194309473038 0 0 0 0
1812655056 -0.25025805830955505 0.1011938527226448 0.015121418982744217 0.009818281047046185 0 0 0 0
1816377140 -0.20000208914279938 0.13911685347557068 0.01876004785299301 0.0068779392167925835 0 0 0 0
1820099224 -0.1451193243265152 0.16797274351119995 0.021649891510605812 0.002722848206758499 0 0 0 0
1823821308 -0.08800780028104782 0.18585705757141113 0.023061584681272507 -0.0023784106597304344 0 0 0 0
1827543392 -0.027344703674316406 0.19409945607185364 0.022662635892629623 -0.007702630944550037 0 0 0 0
1831265476 0.030189864337444305 0.191995307803154 0.021294543519616127 -0.012260323390364647 0 0 0 0
1834987560 0.08536888659000397 0.18133825063705444 0.01912337727844715 -0.017191266641020775 0 0 0 0
1838709644 0.136874258518219 0.16327525675296783 0.015249661169946194 -0.021272916346788406 0 0 0 0
1842431728 0.18570563197135925 0.13686342537403107 0.010205392725765705 -0.024090934544801712 0 0 0 0
1846153812 0.22718428075313568 0.10639069974422455 0.005996702238917351 -0.025081848725676537 0 0 0 0
1849875896 0.26358968019485474 0.06651514768600464 0.002142759971320629 -0.026034506037831306 0 0 0 0
1853597980 0.2923230826854706 0.021749421954154968 -0.002584456466138363 -0.026974868029356003 0 0 0 0
1857320064 0.3111909031867981 -0.024547066539525986 -0.00784587673842907 -0.02650447003543377 0 0 0 0
1861042148 0.32184961438179016 -0.07239653170108795 -0.01282949186861515 -0.025087252259254456 0 0 0 0
1864764232 0.3238505423069 -0.11998338997364044 -0.017229726538062096 -0.022845391184091568 0 0 0 0
1868486316 0.3188164234161377 -0.16513592004776 -0.021592609584331512 -0.02015702612698078 0 0 0 0
1872208400 0.3055054545402527 -0.20861080288887024 -0.0257242601364851 -0.01617308147251606 0 0 0 0
1875930484 0.2861538529396057 -0.2475479543209076 -0.028887014836072922 -0.010819130577147007 0 0 0 0
1879652568 0.2609793543815613 -0.2817001938819885 -0.03068637102842331 -0.004898924380540848 0 0 0 0
1883374652 0.22962665557861328 -0.30860987305641174 -0.031116321682929993 0.0012366138398647308 0 0 0 0
1887096736 0.19713716208934784 -0.3291623294353485 -0.029880588874220848 0.006812180392444134 0 0 0 0
1890818820 0.16264940798282623 -0.3427838385105133 -0.027787812054157257 0.011471955105662346 0 0 0 0
1894540904 0.12744823098182678 -0.3500428795814514 -0.0255547184497118 0.01567705161869526 0 0 0 0
1898262988 0.09389179944992065 -0.3526485562324524 -0.023029634729027748 0.019830141216516495 0 0 0 0
1901985072 0.05930253118276596 -0.34973815083503723 -0.019597958773374557 0.02363240346312523 0 0 0 0
1905707156 0.02789120376110077 -0.3396834135055542 -0.015493728220462799 0.027127157896757126 0 0 0 0
1909429240 -0.0010109543800354004 -0.3266238272190094 -0.010989183560013771 0.030020728707313538 0 0 0 0
1913151324 -0.0256417915225029 -0.308709055185318 -0.005796543322503567 0.03231220692396164 0 0 0 0
1916873408 -0.048293016850948334 -0.2869125306606293 0.0003805859014391899 0.033466439694166183 0 0 0 0
1920595492 -0.0654347613453865 -0.26074832677841187 0.006159292533993721 0.0334617979824543 0 0 0 0
1924317576 -0.07929958403110504 -0.23166167736053467 0.01327016856521368 0.03280965983867645 0 0 0 0
1928039660 -0.083694688975811 -0.20145809650421143 0.02003476396203041 0.03037976659834385 0 0 0 0
1931761744 -0.08432064205408096 -0.1715705543756485 0.0271565243601799 0.0256120003759861 0 0 0 0
1935483828 -0.07831420004367828 -0.14280623197555542 0.03260420262813568 0.01818503439426422 0 0 0 0
1939205912 -0.06634649634361267 -0.11889785528182983 0.03502396121621132 0.009774179197847843 0 0 0 0
1942927996 -0.052788082510232925 -0.09666050970554352 0.03457647189497948 0.0012766038998961449 0 0 0 0
1946650080 -0.03597186505794525 -0.07875095307826996 0.03237025812268257 -0.004938076250255108 0 0 0 0
1950372164 -0.01736745610833168 -0.06272416561841965 0.029263995587825775 -0.01008504070341587 0 0 0 0
1954094248 0.0038384580984711647 -0.050219692289829254 0.026120977476239204 -0.014123572036623955 0 0 0 0
1957816332 0.026973962783813477 -0.042000822722911835 0.02273985557258129 -0.018139664083719254 0 0 0 0
1961538416 0.051203757524490356 -0.03730026260018349 0.018834270536899567 -0.020991584286093712 0 0 0 0
1965260500 0.07601333409547806 -0.03771372139453888 0.014537986367940903 -0.023025382310152054 0 0 0 0
1968982584 0.10027050226926804 -0.04332943260669708 0.010571248829364777 -0.02423754520714283 0 0 0 0
1972704668 0.1229315847158432 -0.05268865078687668 0.007091594859957695 -0.025409625843167305 0 0 0 0
1976426752 0.14316752552986145 -0.06566064059734344 0.00351508054882288 -0.026575691998004913 0 0 0 0
1980148836 0.16105934977531433 -0.08225955814123154 -0.0007883124053478241 -0.02749170921742916 0 0 0 0
1983870920 0.17419645190238953 -0.10327891260385513 -0.005966825410723686 -0.02746759168803692 0 0 0 0
1987593004 0.1814521700143814 -0.12583640217781067 -0.011266889050602913 -0.026220733299851418 0 0 0 0
1991315088 0.1864931285381317 -0.14691805839538574 -0.01599886454641819 -0.023811569437384605 0 0 0 0
1995037172 0.18600869178771973 -0.16983580589294434 -0.020557373762130737 -0.020571278408169746 0 0 0 0
1998759256 0.18367400765419006 -0.1899583488702774 -0.024044403806328773 -0.01633962243795395 0 0 0 0
2002481340 0.1766933798789978 -0.21134793758392334 -0.026691602542996407 -0.011354733258485794 0 0 0 0
2006203424 0.16769203543663025 -0.22996987402439117 -0.028183016926050186 -0.00617628451436758 0 0 0 0
2009925508 0.15373212099075317 -0.248062402009964 -0.028366805985569954 -0.0008674189448356628 0 0 0 0
2013647592 0.1396978795528412 -0.2614099681377411 -0.027986247092485428 0.0039666397497057915 0 0 0 0
2017369676 0.12129227817058563 -0.27452000975608826 -0.026943396776914597 0.009070063009858131 0 0 0 0
2021091760 0.09952213615179062 -0.28448519110679626 -0.024624863639473915 0.013690903782844543 0 0 0 0
2024813844 0.07779114693403244 -0.28905820846557617 -0.0213897954672575 0.018007278442382812 0 0 0 0
2028535928 0.05542260408401489 -0.2898677885532379 -0.017683014273643494 0.021254854276776314 0 0 0 0
2032258012 0.03200880438089371 -0.2865942716598511 -0.013283392414450645 0.023641206324100494 0 0 0 0
2035980096 0.009282469749450684 -0.28042179346084595 -0.008876349776983261 0.025038354098796844 0 0 0 0
2039702180 -0.012223407626152039 -0.27093371748924255 -0.004379027523100376 0.025618618354201317 0 0 0 0
2043424264 -0.02981630340218544 -0.25789180397987366 -8.58549028635025e-05 0.025074440985918045 0 0 0 0
2047146348 -0.04895492643117905 -0.2427421510219574 0.003956702537834644 0.024412522092461586 0 0 0 0
2050868432 -0.0656888410449028 -0.22228527069091797 0.0073665715754032135 0.02302424982190132 0 0 0 0
2054590516 -0.0770052969455719 -0.20036591589450836 0.01028439961373806 0.021516144275665283 0 0 0 0
2058312600 -0.08534958958625793 -0.17530159652233124 0.013082394376397133 0.020273597911000252 0 0 0 0
2062034684 -0.09024131298065186 -0.14945700764656067 0.016642803326249123 0.01838546432554722 0 0 0 0
2065756768 -0.09217346459627151 -0.12129195779561996 0.019888021051883698 0.015121455304324627 0 0 0 0
2069478852 -0.08866050839424133 -0.09406336396932602 0.022475317120552063 0.010931558907032013 0 0 0 0
2073200936 -0.08075461536645889 -0.06724239885807037 0.024177182465791702 0.0066758086904883385 0 0 0 0
2076923020 -0.06903891265392303 -0.041118718683719635 0.0249120332300663 0.002065017819404602 0 0 0 0
2080645104 -0.05294148623943329 -0.0156392864882946 0.02438165806233883 -0.0024766549468040466 0 0 0 0
2084367188 -0.03264337778091431 0.006479065865278244 0.02272968366742134 -0.006879671476781368 0 0 0 0
2088089272 -0.00830378569662571 0.025860019028186798 0.0207111444324255 -0.010368005372583866 0 0 0 0
2091811356 0.0190315879881382 0.04140504449605942 0.017988985404372215 -0.013010188937187195 0 0 0 0
2095533440 0.04860401526093483 0.05293412506580353 0.015296436846256256 -0.015705326572060585 0 0 0 0
2099255524 0.08161815255880356 0.05980457365512848 0.012254205532371998 -0.018072044476866722 0 0 0 0
2102977608 0.11587713658809662 0.06181305646896362 0.008787591941654682 -0.019320383667945862 0 0 0 0
2106699692 0.151687890291214 0.05611494183540344 0.005448745563626289 -0.02000012993812561 0 0 0 0
2110421776 0.18579606711864471 0.044561129063367844 0.001923239789903164 -0.020497744902968407 0 0 0 0
2114143860 0.21796061098575592 0.02461256831884384 -0.0015192236751317978 -0.020298736169934273 0 0 0 0
2117865944 0.24534934759140015 0.0032792463898658752 -0.0047921305522322655 -0.01976412907242775 0 0 0 0
2121588028 0.26753178238868713 -0.025998763740062714 -0.008139866404235363 -0.018487518653273582 0 0 0 0
2125310112 0.28340959548950195 -0.054872334003448486 -0.011141492985188961 -0.016974307596683502 0 0 0 0
2129032196 0.2935965955257416 -0.08718320727348328 -0.014204276725649834 -0.014667537994682789 0 0 0 0
2132754280 0.299459844827652 -0.11903078854084015 -0.016695307567715645 -0.011783096008002758 0 0 0 0
2136476364 0.3011783957481384 -0.1518024504184723 -0.018789267167448997 -0.007969528436660767 0 0 0 0
2140198448 0.29874172806739807 -0.18232077360153198 -0.019747810438275337 -0.003641318529844284 0 0 0 0
2143920532 0.29070279002189636 -0.21566003561019897 -0.0187637098133564 0.0006695752963423729 0 0 0 0
2147642616 0.27700483798980713 -0.24600905179977417 -0.017025528475642204 0.0035644518211483955 0 0 0 0
2151364700 0.2591986358165741 -0.27385011315345764 -0.015136823058128357 0.0055148303508758545 0 0 0 0
2155086784 0.23546092212200165 -0.2962554097175598 -0.013706289231777191 0.007047371007502079 0 0 0 0
2158808868 0.20958048105239868 -0.3155086636543274 -0.012488448061048985 0.00822643656283617 0 0 0 0
2162530952 0.1829439401626587 -0.32850492000579834 -0.011445545591413975 0.009439782239496708 0 0 0 0
2166253036 0.15224123001098633 -0.3389486074447632 -0.010077537968754768 0.011068196035921574 0 0 0 0
2169975120 0.1228567510843277 -0.3434280455112457 -0.008289561606943607 0.012727798894047737 0 0 0 0
2173697204 0.09258027374744415 -0.3447715938091278 -0.005749973468482494 0.013379599899053574 0 0 0 0
2177419288 0.06025044992566109 -0.3407696485519409 -0.003594794310629368 0.013337744399905205 0 0 0 0
2181141372 0.031094931066036224 -0.33119457960128784 -0.0022628605365753174 0.013185018673539162 0 0 0 0
2184863456 0.003387078642845154 -0.3176552653312683 -0.0011082068085670471 0.013459444977343082 0 0 0 0
2188585540 -0.024051252752542496 -0.29851242899894714 0.00030985474586486816 0.013969684019684792 0 0 0 0
2192307624 -0.04198288917541504 -0.2770128846168518 0.002357153221964836 0.014769383706152439 0 0 0 0
2196029708 -0.05949272960424423 -0.2522749900817871 0.005003106780350208 0.014879945665597916 0 0 0 0
2199751792 -0.07295374572277069 -0.22631996870040894 0.008025705814361572 0.014416245743632317 0 0 0 0
2203473876 -0.08068674057722092 -0.19657987356185913 0.010771169327199459 0.012695356272161007 0 0 0 0
2207195960 -0.08523675799369812 -0.16866102814674377 0.01307255495339632 0.010454639792442322 0 0 0 0
2210918044 -0.08578532934188843 -0.13788127899169922 0.01487217377871275 0.007731573656201363 0 0 0 0
2214640128 -0.08402632176876068 -0.10713893175125122 0.015975506976246834 0.004603221081197262 0 0 0 0
2218362212 -0.07417852431535721 -0.08003689348697662 0.01625301130115986 0.0013689370825886726 0 0 0 0
2222084296 -0.062337726354599 -0.04982699453830719 0.015736404806375504 -0.0015191640704870224 0 0 0 0
2225806380 -0.043186236172914505 -0.022579623386263847 0.014779981225728989 -0.004133280366659164 0 0 0 0
2229528464 -0.01844765804708004 0.001882975921034813 0.013629690743982792 -0.00632593035697937 0 0 0 0
2233250548 0.011286676861345768 0.020504893735051155 0.012392949312925339 -0.008391491137444973 0 0 0 0
2236972632 0.04409550875425339 0.031903237104415894 0.010769857093691826 -0.010549305006861687 0 0 0 0
2240694716 0.07757922261953354 0.03799518570303917 0.008684288710355759 -0.01215791329741478 0 0 0 0
2244416800 0.11210010945796967 0.03585245460271835 0.00653619971126318 -0.013247840106487274 0 0 0 0
2248138884 0.14464454352855682 0.027589187026023865 0.003998998552560806 -0.014216486364603043 0 0 0 0
2251860968 0.17409904301166534 0.009808041155338287 0.0010635238140821457 -0.014779052697122097 0 0 0 0
2255583052 0.20038877427577972 -0.007607735693454742 -0.0016809049993753433 -0.0148972412571311 0 0 0 0
2259305136 0.22277063131332397 -0.024709373712539673 -0.004409760236740112 -0.013837291859090328 0 0 0 0
2263027220 0.2398187518119812 -0.05259961634874344 -0.006545180454850197 -0.0119890496134758 0 0 0 0
2266749304 0.2503402531147003 -0.08384338021278381 -0.007837796583771706 -0.010267730802297592 0 0 0 0
2270471388 0.25768929719924927 -0.10938528180122375 -0.008659911341965199 -0.008794478140771389 0 0 0 0
2274193472 0.2574617266654968 -0.1353471577167511 -0.009209197014570236 -0.0076169902458786964 0 0 0 0
2277915556 0.2506922483444214 -0.16955970227718353 -0.009918095543980598 -0.0065949708223342896 0 0 0 0
2281637640 0.24688591063022614 -0.19039247930049896 -0.010721809230744839 -0.005898556672036648 0 0 0 0
2285359724 0.23357345163822174 -0.21673789620399475 -0.01193236280232668 -0.004555602557957172 0 0 0 0
2289081808 0.213408425450325 -0.24115166068077087 -0.012654224410653114 -0.0030636508017778397 0 0 0 0
2292803892 0.19527050852775574 -0.257114976644516 -0.01345653086900711 -0.0011943085119128227 0 0 0 0
2296525976 0.16604039072990417 -0.2741536796092987 -0.01401757262647152 0.0008897995576262474 0 0 0 0
2300248060 0.1438010036945343 -0.2801710367202759 -0.013995977118611336 0.003319963812828064 0 0 0 0
2303970144 0.12305290251970291 -0.2867468297481537 -0.012813644483685493 0.006086999550461769 0 0 0 0
2307692228 0.09212306141853333 -0.28531691431999207 -0.01152023021131754 0.007882514968514442 0 0 0 0
2311414312 0.06617803871631622 -0.2815982401371002 -0.009920453652739525 0.009265716187655926 0 0 0 0
2315136396 0.03886885941028595 -0.2724630534648895 -0.008174829185009003 0.010283904150128365 0 0 0 0
2318858480 0.013905376195907593 -0.2604885697364807 -0.006426255218684673 0.011083840392529964 0 0 0 0
2322580564 -0.011323869228363037 -0.24095861613750458 -0.004445810802280903 0.011593475006520748 0 0 0 0
2326302648 -0.027494721114635468 -0.21886499226093292 -0.0028920378535985947 0.011453749611973763 0 0 0 0
2330024732 -0.04066020995378494 -0.1942090094089508 -0.0015094028785824776 0.011139634996652603 0 0 0 0
2333746816 -0.047273050993680954 -0.16779176890850067 -0.00021638255566358566 0.010944110341370106 0 0 0 0
2337468900 -0.05422649160027504 -0.13879407942295074 0.001182757318019867 0.010810925625264645 0 0 0 0
2341190984 -0.05435080826282501 -0.10762713104486465 0.0025030365213751793 0.010481657460331917 0 0 0 0
2344913068 -0.04727371037006378 -0.07861284911632538 0.004155430011451244 0.009682596661150455 0 0 0 0
2348635152 -0.035836394876241684 -0.05019475892186165 0.005525658838450909 0.008346808142960072 0 0 0 0
2352357236 -0.019445599988102913 -0.023720799013972282 0.005973667837679386 0.006918643601238728 0 0 0 0
2356079320 0.002643931657075882 -0.0007591089233756065 0.00639923382550478 0.005811949260532856 0 0 0 0
2359801404 0.027955690398812294 0.016549697145819664 0.0067217666655778885 0.0048565370962023735 0 0 0 0
2363523488 0.055526405572891235 0.028537096455693245 0.007242806255817413 0.0033436929807066917 0 0 0 0
2367245572 0.08308733999729156 0.03766433149576187 0.007137970067560673 0.0020406926050782204 0 0 0 0
2370967656 0.11351735889911652 0.04146915674209595 0.00687749870121479 0.0005593746900558472 0 0 0 0
2374689740 0.14300240576267242 0.04049865901470184 0.006065706722438335 -0.0007165307179093361 0 0 0 0
2378411824 0.1727149337530136 0.03553890064358711 0.004850250668823719 -0.0014839647337794304 0 0 0 0
2382133908 0.2022063434123993 0.025886178016662598 0.003610312007367611 -0.0015875594690442085 0 0 0 0
2385855992 0.23014117777347565 0.008472859859466553 0.0029192762449383736 -0.0014198431745171547 0 0 0 0
2389578076 0.255127489566803 -0.011517688632011414 0.002324022352695465 -0.001016213558614254 0 0 0 0
2393300160 0.2750728130340576 -0.03629545867443085 0.002292291261255741 -0.0005948394536972046 0 0 0 0
2397022244 0.2909858524799347 -0.06453530490398407 0.0026319315657019615 -0.0006059641018509865 0 0 0 0
2400744328 0.3016277551651001 -0.09477637708187103 0.002724951133131981 -0.0008918642997741699 0 0 0 0
2404466412 0.3078068494796753 -0.12618562579154968 0.003064013086259365 -0.0012298338115215302 0 0 0 0
2408188496 0.3080052137374878 -0.1605013608932495 0.0031623877584934235 -0.0016008289530873299 0 0 0 0
2411910580 0.30464449524879456 -0.18860983848571777 0.003072635270655155 -0.0025596795603632927 0 0 0 0
2415632664 0.2919536530971527 -0.22186723351478577 0.0022399798035621643 -0.0032336628064513206 0 0 0 0
2419354748 0.276598185300827 -0.24985654652118683 0.0010253116488456726 -0.0036575738340616226 0 0 0 0
2423076832 0.2588278651237488 -0.27126196026802063 0.00018738582730293274 -0.0033131837844848633 0 0 0 0
2426798916 0.2333097904920578 -0.2936142086982727 -0.00041463878005743027 -0.0026348475366830826 0 0 0 0
2430521000 0.2080446034669876 -0.31081536412239075 -0.0007763896137475967 -0.0021190261468291283 0 0 0 0
2434243084 0.1820283830165863 -0.3214043974876404 -0.0005553830415010452 -0.0014493092894554138 0 0 0 0
2437965168 0.15828630328178406 -0.3290781080722809 -0.00015703681856393814 -0.001317356713116169 0 0 0 0
2441687252 0.1301776021718979 -0.33473441004753113 0.0003758510574698448 -0.0011628400534391403 0 0 0 0
2445409336 0.10179144889116287 -0.3373136818408966 0.0008662305772304535 -0.0015157414600253105 0 0 0 0
2449131420 0.07062448561191559 -0.335979700088501 0.0009318282827734947 -0.0023583117872476578 0 0 0 0
2452853504 0.04415270686149597 -0.32957714796066284 0.0006163716316223145 -0.0029517468065023422 0 0 0 0
2456575588 0.015234384685754776 -0.31821271777153015 0.00029891543090343475 -0.003605489619076252 0 0 0 0
2460297672 -0.014716316014528275 -0.30248790979385376 -0.0006499644368886948 -0.003836875781416893 0 0 0 0
2464019756 -0.03606364130973816 -0.2820754647254944 -0.001371205784380436 -0.003830987960100174 0 0 0 0
2467741840 -0.05986770614981651 -0.2580868601799011 -0.001901191659271717 -0.0034660575911402702 0 0 0 0
2471463924 -0.07668732851743698 -0.23072165250778198 -0.0021140919998288155 -0.0033245449885725975 0 0 0 0
2475186008 -0.08987413346767426 -0.20041032135486603 -0.0021617766469717026 -0.0032549547031521797 0 0 0 0
2478908092 -0.09595300257205963 -0.16810913383960724 -0.0023878933861851692 -0.0035420767962932587 0 0 0 0
2482630176 -0.09829887747764587 -0.13404247164726257 -0.0029699644073843956 -0.0037587061524391174 0 0 0 0
2486352260 -0.09292232990264893 -0.1027144342660904 -0.004028894938528538 -0.003685290925204754 0 0 0 0
2490074344 -0.0845051184296608 -0.0702812448143959 -0.004736170172691345 -0.0032248953357338905 0 0 0 0
2493796428 -0.06968018412590027 -0.04295343533158302 -0.005204143933951855 -0.003104795701801777 0 0 0 0
2497518512 -0.05184837803244591 -0.01781206950545311 -0.005913835950195789 -0.0028548920527100563 0 0 0 0
2501240596 -0.03055669367313385 0.0029642730951309204 -0.006986795924603939 -0.002170438878238201 0 0 0 0
2504962680 -0.006792119704186916 0.021521829068660736 -0.007700728252530098 -0.0011575082316994667 0 0 0 0
2508684764 0.019682396203279495 0.03595243766903877 -0.00827786885201931 0.0001803673803806305 0 0 0 0
2512406848 0.04806939885020256 0.04526326432824135 -0.008402527309954166 0.0016426872462034225 0 0 0 0
2516128932 0.07631626725196838 0.050576142966747284 -0.008314684964716434 0.0030308952555060387 0 0 0 0
2519851016 0.10476049780845642 0.05151503533124924 -0.007832059636712074 0.004650927148759365 0 0 0 0
2523573100 0.13378509879112244 0.04710293561220169 -0.007029402069747448 0.005965079180896282 0 0 0 0
2527295184 0.1604010909795761 0.0398029163479805 -0.005895618349313736 0.006973946467041969 0 0 0 0
2531017268 0.18666572868824005 0.028275301679968834 -0.0047995708882808685 0.007659478113055229 0 0 0 0
2534739352 0.21028587222099304 0.010452035814523697 -0.003653263673186302 0.008235272951424122 0 0 0 0
2538461436 0.2295820415019989 -0.008690372109413147 -0.0024175625294446945 0.008658653125166893 0 0 0 0
2542183520 0.24475045502185822 -0.03261560946702957 -0.0010271258652210236 0.00879086647182703 0 0 0 0
2545905604 0.25544872879981995 -0.057357314974069595 0.00014291703701019287 0.008774486370384693 0 0 0 0
2549627688 0.26193898916244507 -0.08322702348232269 0.0013243872672319412 0.008784491568803787 0 0 0 0
2553349772 0.26500362157821655 -0.10636985301971436 0.0026837149634957314 0.008754409849643707 0 0 0 0
2557071856 0.26071697473526 -0.13183559477329254 0.004252773709595203 0.008645625784993172 0 0 0 0
2560793940 0.2585362195968628 -0.15254159271717072 0.005874943919479847 0.007728908210992813 0 0 0 0
2564516024 0.24626469612121582 -0.1755412518978119 0.007204496301710606 0.006536682136356831 0 0 0 0
2568238108 0.23525603115558624 -0.1923380047082901 0.008159131743013859 0.005130654200911522 0 0 0 0
2571960192 0.2219354510307312 -0.2062288224697113 0.009104805998504162 0.003723539412021637 0 0 0 0
2575682276 0.20641691982746124 -0.2184867262840271 0.00981234386563301 0.002152680419385433 0 0 0 0
2579404360 0.18998539447784424 -0.22737360000610352 0.010266519151628017 0.0004064999520778656 0 0 0 0
2583126444 0.1732274293899536 -0.2350884974002838 0.010215865448117256 -0.001963028684258461 0 0 0 0
2586848528 0.1578485369682312 -0.23781678080558777 0.009748199954628944 -0.003707192838191986 0 0 0 0
2590570612 0.14122092723846436 -0.23987874388694763 0.008806079626083374 -0.0055317021906375885 0 0 0 0
2594292696 0.12529081106185913 -0.2382899969816208 0.007718680426478386 -0.0071733249351382256 0 0 0 0
2598014780 0.1108817607164383 -0.2358892261981964 0.0060994382947683334 -0.008418017998337746 0 0 0 0
2601736864 0.09744811803102493 -0.2317677140235901 0.004319945350289345 -0.00925479270517826 0 0 0 0
2605458948 0.08655261993408203 -0.22364631295204163 0.0022810939699411392 -0.009587360545992851 0 0 0 0
2609181032 0.0755254402756691 -0.21699795126914978 0.0008873697370290756 -0.009340356104075909 0 0 0 0
2612903116 0.06561968475580215 -0.20793789625167847 -0.00033666566014289856 -0.008988450281322002 0 0 0 0
2616625200 0.06056803837418556 -0.1984160840511322 -0.001138174906373024 -0.008636868558824062 0 0 0 0
2620347284 0.055303167551755905 -0.1883266568183899 -0.0019952142611145973 -0.008576636202633381 0 0 0 0
2624069368 0.0533621683716774 -0.1774076223373413 -0.0030113980174064636 -0.008645831607282162 0 0 0 0
2627791452 0.050783149898052216 -0.16929814219474792 -0.00414642971009016 -0.008198965340852737 0 0 0 0
2631513536 0.05163593590259552 -0.15947294235229492 -0.00517086498439312 -0.007958519272506237 0 0 0 0
2635235620 0.051831647753715515 -0.14951269328594208 -0.006281600333750248 -0.007619477808475494 0 0 0 0
2638957704 0.05362074077129364 -0.14266014099121094 -0.007666906341910362 -0.007092498242855072 0 0 0 0
2642679788 0.05779687315225601 -0.1335926651954651 -0.009045381098985672 -0.005965633317828178 0 0 0 0
2646401872 0.06273826956748962 -0.12823061645030975 -0.010087195783853531 -0.004417375661432743 0 0 0 0
2650123956 0.07065803557634354 -0.1214878186583519 -0.010720856487751007 -0.0034088147804141045 0 0 0 0
2653846040 0.07635712623596191 -0.11948200315237045 -0.01165463775396347 -0.0019172588363289833 0 0 0 0
2657568124 0.08375049382448196 -0.11744113266468048 -0.01248941756784916 -4.042685031890869e-05 0 0 0 0
2661290208 0.0913863331079483 -0.11786292493343353 -0.012876836583018303 0.0025179609656333923 0 0 0 0
2665012292 0.09583748877048492 -0.12152270972728729 -0.012238745577633381 0.005479838699102402 0 0 0 0
2668734376 0.1022670716047287 -0.1237276941537857 -0.010904068127274513 0.007809838280081749 0 0 0 0
2672456460 0.10598014295101166 -0.12867110967636108 -0.008855742402374744 0.009440689347684383 0 0 0 0
2676178544 0.10744203627109528 -0.13329032063484192 -0.006618723273277283 0.010599463246762753 0 0 0 0
2679900628 0.10927966982126236 -0.13762983679771423 -0.004627438262104988 0.011478731408715248 0 0 0 0
2683622712 0.11043035238981247 -0.1416117399930954 -0.0023396145552396774 0.012010503560304642 0 0 0 0
2687344796 0.10868488252162933 -0.14685212075710297 0.00020426511764526367 0.012033812701702118 0 0 0 0
2691066880 0.10858071595430374 -0.15254636108875275 0.0024821115657687187 0.01140907034277916 0 0 0 0
2694788964 0.10695790499448776 -0.15715429186820984 0.0043210843577980995 0.01008591428399086 0 0 0 0
2698511048 0.10372544825077057 -0.16298998892307281 0.0059570977464318275 0.00874596182256937 0 0 0 0
2702233132 0.09873050451278687 -0.1678922176361084 0.007058924064040184 0.007253379561007023 0 0 0 0
2705955216 0.09332258999347687 -0.17255091667175293 0.007868872955441475 0.00582597590982914 0 0 0 0
2709677300 0.08489818871021271 -0.1768115609884262 0.00854624155908823 0.004492816515266895 0 0 0 0
2713399384 0.0770670473575592 -0.17870773375034332 0.009289034642279148 0.003003806807100773 0 0 0 0
2717121468 0.06605478376150131 -0.17898668348789215 0.009782742708921432 0.0014812024310231209 0 0 0 0
2720843552 0.05512623116374016 -0.17714957892894745 0.010118895210325718 -0.0004772748798131943 0 0 0 0
2724565636 0.045374780893325806 -0.17309609055519104 0.00993496272712946 -0.00264585018157959 0 0 0 0
2728287720 0.03579128161072731 -0.16768427193164825 0.009302190504968166 -0.004624335095286369 0 0 0 0
2732009804 0.025871209800243378 -0.15983633697032928 0.00826115533709526 -0.006507543846964836 0 0 0 0
2735731888 0.01719164103269577 -0.14998364448547363 0.0067946044728159904 -0.00790479127317667 0 0 0 0
2739453972 0.012002085335552692 -0.13819782435894012 0.005218415521085262 -0.009069069288671017 0 0 0 0
2743176056 0.0073350900784134865 -0.12401697039604187 0.003325320780277252 -0.010002980008721352 0 0 0 0
2746898140 0.005027469247579575 -0.10926851630210876 0.0012716203927993774 -0.010426308959722519 0 0 0 0
2750620224 0.005477406084537506 -0.09396016597747803 -0.0007741264998912811 -0.010511267930269241 0 0 0 0
2754342308 0.008582331240177155 -0.07862825691699982 -0.0029623406007885933 -0.010132457129657269 0 0 0 0
2758064392 0.014731787145137787 -0.06319849193096161 -0.0049083903431892395 -0.009268357418477535 0 0 0 0
2761786476 0.023915506899356842 -0.04966960847377777 -0.0064727263525128365 -0.008028959855437279 0 0 0 0
2765508560 0.03488880768418312 -0.037964172661304474 -0.007937612012028694 -0.006680130958557129 0 0 0 0
2769230644 0.04770677909255028 -0.027768077328801155 -0.008887561038136482 -0.0047043124213814735 0 0 0 0
2772952728 0.06209869682788849 -0.019270937889814377 -0.009400439448654652 -0.0027469387277960777 0 0 0 0
2776674812 0.0779951736330986 -0.013022009283304214 -0.009510191157460213 -0.0010322052985429764 0 0 0 0
2780396896 0.09419065713882446 -0.009923465549945831 -0.009373906999826431 0.0007223514840006828 0 0 0 0
2784118980 0.1110183447599411 -0.007870364934206009 -0.009071219712495804 0.0024462202563881874 0 0 0 0
2787841064 0.12892156839370728 -0.0070871226489543915 -0.00846673920750618 0.004277155734598637 0 0 0 0
2791563148 0.1468542069196701 -0.011183047667145729 -0.007230202667415142 0.006236039102077484 0 0 0 0
2795285232 0.16475147008895874 -0.01771826669573784 -0.0053865136578679085 0.0077072447165846825 0 0 0 0
2799007316 0.18195469677448273 -0.026634417474269867 -0.0031563956290483475 0.00824294239282608 0 0 0 0
2802729400 0.19809406995773315 -0.03859296441078186 -0.0010445192456245422 0.008207697421312332 0 0 0 0
2806451484 0.21152076125144958 -0.054069750010967255 0.0004708254709839821 0.007685144431889057 0 0 0 0
2810173568 0.22364439070224762 -0.06826426833868027 0.0019199894741177559 0.007038508541882038 0 0 0 0
2813895652 0.23383456468582153 -0.08904331922531128 0.0031990008428692818 0.006291380152106285 0 0 0 0
2817617736 0.24019958078861237 -0.10777746140956879 0.004317643120884895 0.005211181938648224 0 0 0 0
2821339820 0.2434299737215042 -0.1288081556558609 0.005009576678276062 0.003998669795691967 0 0 0 0
2825061904 0.2434709370136261 -0.14907561242580414 0.005393653176724911 0.0029916055500507355 0 0 0 0
2828783988 0.24228903651237488 -0.1686639040708542 0.005925054661929607 0.0020102737471461296 0 0 0 0
2832506072 0.23679493367671967 -0.19080384075641632 0.0063520316034555435 0.0006912853568792343 0 0 0 0
2836228156 0.23081150650978088 -0.2096237987279892 0.0063125137239694595 -0.0007269382476806641 0 0 0 0
2839950240 0.21945494413375854 -0.23059159517288208 0.005925331264734268 -0.001971326768398285 0 0 0 0
2843672324 0.21164268255233765 -0.24689356982707977 0.005446413531899452 -0.002768796868622303 0 0 0 0
2847394408 0.1952793300151825 -0.264485239982605 0.004965633153915405 -0.003702957183122635 0 0 0 0
2851116492 0.1774267554283142 -0.2814963459968567 0.004609264433383942 -0.004602003842592239 0 0 0 0
2854838576 0.1574556678533554 -0.29366299510002136 0.0038583651185035706 -0.005601297132670879 0 0 0 0
2858560660 0.13818153738975525 -0.3034783601760864 0.003036324866116047 -0.0067200129851698875 0 0 0 0
2862282744 0.11348214000463486 -0.31373435258865356 0.0015121595934033394 -0.007472090423107147 0 0 0 0
2866004828 0.09102192521095276 -0.31749653816223145 0.0001419615000486374 -0.0076560452580451965 0 0 0 0
2869726912 0.06696316599845886 -0.31981900334358215 -0.0011886227875947952 -0.007489651441574097 0 0 0 0
2873448996 0.04037049412727356 -0.3170619010925293 -0.0027919597923755646 -0.006949000991880894 0 0 0 0
2877171080 0.013597741723060608 -0.3121406137943268 -0.004033269360661507 -0.006192819215357304 0 0 0 0
2880893164 -0.006263133138418198 -0.30361494421958923 -0.005035435780882835 -0.004871394485235214 0 0 0 0
2884615248 -0.031034035608172417 -0.29243549704551697 -0.005625724792480469 -0.0035555558279156685 0 0 0 0
2888337332 -0.0516904816031456 -0.27697697281837463 -0.005762770771980286 -0.002409089356660843 0 0 0 0
2892059416 -0.07154107838869095 -0.26097312569618225 -0.005757150240242481 -0.001047021709382534 0 0 0 0
2895781500 -0.08980344980955124 -0.2407127320766449 -0.005548777990043163 6.908830255270004e-05 0 0 0 0
2899503584 -0.1050923615694046 -0.21882840991020203 -0.0052030496299266815 0.0010974584147334099 0 0 0 0
2903225668 -0.11663170158863068 -0.19337007403373718 -0.004468855448067188 0.0019784001633524895 0 0 0 0
2906947752 -0.12611886858940125 -0.16664431989192963 -0.003742918372154236 0.0028115948662161827 0 0 0 0
2910669836 -0.12977808713912964 -0.14112278819084167 -0.002916000783443451 0.003296581096947193 0 0 0 0
2914391920 -0.13189400732517242 -0.11140117794275284 -0.0019739214330911636 0.003766825422644615 0 0 0 0
2918114004 -0.12784945964813232 -0.08375365287065506 -0.0009708916768431664 0.0038418425247073174 0 0 0 0
2921836088 -0.12080404907464981 -0.05574733763933182 -0.00024385470896959305 0.003662245348095894 0 0 0 0
2925558172 -0.11092611402273178 -0.02866450324654579 0.0006333757191896439 0.0033563068136572838 0 0 0 0
2929280256 -0.09683156758546829 -0.004142735153436661 0.0011845584958791733 0.0030475612729787827 0 0 0 0
2933002340 -0.07947292178869247 0.018640900030732155 0.0014654835686087608 0.0028571998700499535 0 0 0 0
2936724424 -0.05854659155011177 0.038309380412101746 0.0018428005278110504 0.002458927221596241 0 0 0 0
2940446508 -0.03609644994139671 0.0549442395567894 0.0021767541766166687 0.0024221716448664665 0 0 0 0
2944168592 -0.010900747030973434 0.06823290884494781 0.002670925110578537 0.0021545356139540672 0 0 0 0
2947890676 0.014328239485621452 0.0786300003528595 0.0031605493277311325 0.0020206263288855553 0 0 0 0
2951612760 0.04292217642068863 0.08514513075351715 0.0036727972328662872 0.0016150176525115967 0 0 0 0
2955334844 0.06958518922328949 0.08901560306549072 0.004150110296905041 0.0009310925379395485 0 0 0 0
2959056928 0.0983181819319725 0.08797938376665115 0.004411649890244007 0.00024949386715888977 0 0 0 0
2962779012 0.12640070915222168 0.0823841542005539 0.004705424420535564 -0.0005471725016832352 0 0 0 0
2966501096 0.15356233716011047 0.07255975902080536 0.004903154447674751 -0.0014916174113750458 0 0 0 0
2970223180 0.17743143439292908 0.06124776229262352 0.0046492405235767365 -0.002636987715959549 0 0 0 0
2973945264 0.19963161647319794 0.042757924646139145 0.004227935336530209 -0.0036155767738819122 0 0 0 0
2977667348 0.21978533267974854 0.024061914533376694 0.0034278444945812225 -0.004347385838627815 0 0 0 0
2981389432 0.23547011613845825 0.004157930612564087 0.0027897534891963005 -0.004751275293529034 0 0 0 0
2985111516 0.24813447892665863 -0.023035157471895218 0.0018794611096382141 -0.0054693808779120445 0 0 0 0
2988833600 0.25604385137557983 -0.043140023946762085 0.0005827629938721657 -0.005679504945874214 0 0 0 0
2992555684 0.2624512016773224 -0.06574786454439163 -0.000584430992603302 -0.005815946497023106 0 0 0 0
2996277768 0.26373422145843506 -0.09149164706468582 -0.0022239265963435173 -0.005382121540606022 0 0 0 0
2999999852 0.26543858647346497 -0.11304222792387009 -0.0034415973350405693 -0.004610029980540276 0 0 0 0
