# HZ S RI R 50
1500000000 -0.09910665452480316 -0.025411080569028854 0.04337245225906372 -0.02552076429128647 0 0 0 0
1503722084 -0.08273272216320038 0.0006420519202947617 0.03745940327644348 -0.031975071877241135 0 0 0 0
1507444168 -0.05971626937389374 0.023755881935358047 0.031157320365309715 -0.036751314997673035 0 0 0 0
1511166252 -0.03140019252896309 0.042463529855012894 0.024836959317326546 -0.040792107582092285 0 0 0 0
1514888336 8.208677172660828e-06 0.05620313435792923 0.017727002501487732 -0.043870750814676285 0 0 0 0
1518610420 0.03414811193943024 0.0653715580701828 0.01043047197163105 -0.045992862433195114 0 0 0 0
1522332504 0.07062978297472 0.06949509680271149 0.0022397227585315704 -0.04720163345336914 0 0 0 0
1526054588 0.10916130244731903 0.06849399954080582 -0.0069404058158397675 -0.0466361939907074 0 0 0 0
1529776672 0.14932434260845184 0.06249116361141205 -0.015558447688817978 -0.043054305016994476 0 0 0 0
1533498756 0.19142203032970428 0.04725980758666992 -0.022272273898124695 -0.03754236549139023 0 0 0 0
1537220840 0.2313249111175537 0.023729747161269188 -0.02720920369029045 -0.03134068846702576 0 0 0 0
1540942924 0.2669471502304077 -0.006234303116798401 -0.030435878783464432 -0.02474866434931755 0 0 0 0
1544665008 0.29845452308654785 -0.041330717504024506 -0.0320146270096302 -0.018404634669423103 0 0 0 0
1548387092 0.32363975048065186 -0.0855417400598526 -0.032323338091373444 -0.012496232986450195 0 0 0 0
1552109176 0.3406495749950409 -0.13281649351119995 -0.031586527824401855 -0.007057037204504013 0 0 0 0
1555831260 0.3502706289291382 -0.1825924664735794 -0.030170420184731483 -0.0028534885495901108 0 0 0 0
1559553344 0.3516126275062561 -0.23431260883808136 -0.028723251074552536 0.0004618866369128227 0 0 0 0
1563275428 0.3461051285266876 -0.2848087549209595 -0.02733810618519783 0.0034533366560935974 0 0 0 0
1566997512 0.33122724294662476 -0.336017370223999 -0.025832761079072952 0.006265746429562569 0 0 0 0
1570719596 0.30920252203941345 -0.38637179136276245 -0.02410675585269928 0.009187468327581882 0 0 0 0
1574441680 0.2781442403793335 -0.4297246038913727 -0.022326044738292694 0.011230462230741978 0 0 0 0
1578163764 0.24420583248138428 -0.46731865406036377 -0.02065448835492134 0.012989334762096405 0 0 0 0
1581885848 0.2041405439376831 -0.5023671984672546 -0.019174698740243912 0.015112275257706642 0 0 0 0
1585607932 0.15572702884674072 -0.5329681634902954 -0.017331009730696678 0.017518015578389168 0 0 0 0
1589330016 0.1078946441411972 -0.5550508499145508 -0.014763742685317993 0.019588572904467583 0 0 0 0
1593052100 0.05427277088165283 -0.5709318518638611 -0.01231583021581173 0.021352708339691162 0 0 0 0
1596774184 -0.00472665298730135 -0.5796821117401123 -0.00954121071845293 0.02295506000518799 0 0 0 0
1600496268 -0.06377558410167694 -0.5784936547279358 -0.0062299733981490135 0.02425147406756878 0 0 0 0
1604218352 -0.12036973237991333 -0.5683087110519409 -0.0027861902490258217 0.024995507672429085 0 0 0 0
1607940436 -0.17851261794567108 -0.5494675636291504 0.0007083257660269737 0.02545417658984661 0 0 0 0
1611662520 -0.23156791925430298 -0.5243895053863525 0.004292700439691544 0.025617588311433792 0 0 0 0
1615384604 -0.2872985005378723 -0.48852357268333435 0.008503281511366367 0.025307606905698776 0 0 0 0
1619106688 -0.33295735716819763 -0.44580402970314026 0.012713126838207245 0.02433517575263977 0 0 0 0
1622828772 -0.371664822101593 -0.3977307975292206 0.017178742215037346 0.022437749430537224 0 0 0 0
1626550856 -0.404917448759079 -0.34099042415618896 0.021416449919342995 0.0192891713231802 0 0 0 0
1630272940 -0.42959916591644287 -0.2791891098022461 0.024871569126844406 0.01538833323866129 0 0 0 0
1633995024 -0.4462909400463104 -0.21760641038417816 0.027964651584625244 0.010774461552500725 0 0 0 0
1637717108 -0.4536668360233307 -0.14921723306179047 0.03001745231449604 0.005423442460596561 0 0 0 0
1641439192 -0.45110368728637695 -0.08200913667678833 0.031037654727697372 -0.0005985219031572342 0 0 0 0
1645161276 -0.43850061297416687 -0.00981682725250721 0.030896460637450218 -0.007154484279453754 0 0 0 0
1648883360 -0.4136602282524109 0.054664745926856995 0.02888971008360386 -0.013806324452161789 0 0 0 0
1652605444 -0.38040101528167725 0.1187824234366417 0.024458270519971848 -0.019884560257196426 0 0 0 0
1656327528 -0.33890920877456665 0.17726364731788635 0.01905450038611889 -0.023846693336963654 0 0 0 0
1660049612 -0.28688937425613403 0.22973524034023285 0.01350395753979683 -0.02628944255411625 0 0 0 0
1663771696 -0.22668428719043732 0.2752617299556732 0.007929923012852669 -0.028014134615659714 0 0 0 0
1667493780 -0.15855669975280762 0.3128075897693634 0.0016487529501318932 -0.028464116156101227 0 0 0 0
1671215864 -0.08624535799026489 0.33861273527145386 -0.004288690164685249 -0.027345186099410057 0 0 0 0
1674937948 -0.00989331305027008 0.35278066992759705 -0.009971531108021736 -0.0247722826898098 0 0 0 0
1678660032 0.07033219188451767 0.3552992045879364 -0.014453352428972721 -0.02090180478990078 0 0 0 0
1682382116 0.1476195752620697 0.3452129364013672 -0.01759292371571064 -0.01585940644145012 0 0 0 0
1686104200 0.2256588637828827 0.3237210214138031 -0.018642498180270195 -0.010525187477469444 0 0 0 0
1689826284 0.29832303524017334 0.28998684883117676 -0.018113382160663605 -0.006021768786013126 0 0 0 0
1693548368 0.36771056056022644 0.2423531711101532 -0.01679755374789238 -0.002896718680858612 0 0 0 0
1697270452 0.4258817136287689 0.18713203072547913 -0.015655318275094032 -0.000436980277299881 0 0 0 0
1700992536 0.47460976243019104 0.12279216945171356 -0.014502307400107384 0.0016154227778315544 0 0 0 0
1704714620 0.5130742788314819 0.04747749865055084 -0.013078237883746624 0.0035823117941617966 0 0 0 0
1708436704 0.5380504131317139 -0.024595454335212708 -0.011703426949679852 0.0051732175052165985 0 0 0 0
1712158788 0.5515815019607544 -0.1044374406337738 -0.009901884943246841 0.006545155309140682 0 0 0 0
1715880872 0.5538259744644165 -0.18057377636432648 -0.007980436086654663 0.007236870937049389 0 0 0 0
1719602956 0.5424347519874573 -0.2591400742530823 -0.006315933540463448 0.007245068438351154 0 0 0 0
1723325040 0.5203518271446228 -0.335650235414505 -0.005127450451254845 0.007229326292872429 0 0 0 0
1727047124 0.4894435703754425 -0.4028974175453186 -0.004105555824935436 0.0071858568117022514 0 0 0 0
1730769208 0.4448169469833374 -0.4664945900440216 -0.0031310347840189934 0.006950517185032368 0 0 0 0
1734491292 0.39236071705818176 -0.5229513645172119 -0.0024444162845611572 0.006717206910252571 0 0 0 0
1738213376 0.33528196811676025 -0.5678841471672058 -0.0019813263788819313 0.00646476075053215 0 0 0 0
1741935460 0.27162331342697144 -0.602333128452301 -0.0017948932945728302 0.006302632391452789 0 0 0 0
1745657544 0.20176449418067932 -0.6292141079902649 -0.0015904447063803673 0.006572688929736614 0 0 0 0
1749379628 0.12968021631240845 -0.6440511345863342 -0.0010051615536212921 0.007069766521453857 0 0 0 0
1753101712 0.05892273783683777 -0.6473844647407532 -0.00014510191977024078 0.007530751638114452 0 0 0 0
1756823796 -0.010013759136199951 -0.6399993300437927 0.0011155474931001663 0.007881172932684422 0 0 0 0
1760545880 -0.07853686809539795 -0.6221832633018494 0.002407441847026348 0.007467498071491718 0 0 0 0
1764267964 -0.14312797784805298 -0.5937368273735046 0.003581455908715725 0.0070015862584114075 0 0 0 0
1767990048 -0.19811099767684937 -0.5580074191093445 0.004706778563559055 0.006104186177253723 0 0 0 0
1771712132 -0.2508823573589325 -0.5119689106941223 0.005603092722594738 0.004760055802762508 0 0 0 0
1775434216 -0.2906685471534729 -0.46272191405296326 0.0057533131912350655 0.0034320438280701637 0 0 0 0
1779156300 -0.3237028419971466 -0.407170832157135 0.005653863772749901 0.0019514085724949837 0 0 0 0
1782878384 -0.3480280935764313 -0.34916773438453674 0.004935521632432938 0.0008129533380270004 0 0 0 0
1786600468 -0.3651559352874756 -0.28822508454322815 0.0036361953243613243 0.0003500385209918022 0 0 0 0
1790322552 -0.37210771441459656 -0.22679322957992554 0.0025351084768772125 0.0006049396470189095 0 0 0 0
1794044636 -0.37026751041412354 -0.16441991925239563 0.0017722109332680702 0.0014131292700767517 0 0 0 0
1797766720 -0.3583666980266571 -0.1051129475235939 0.0015920158475637436 0.002437473274767399 0 0 0 0
1801488804 -0.33798667788505554 -0.0457967147231102 0.0019859597086906433 0.003921641036868095 0 0 0 0
1805210888 -0.3086501955986023 0.005311712622642517 0.0032828999683260918 0.0053496696054935455 0 0 0 0
1808932972 -0.2727603316307068 0.05210479348897934 0.005519707687199116 0.00636792927980423 0 0 0 0
1812655056 -0.22969664633274078 0.09350167959928513 0.008495430462062359 0.006107212044298649 0 0 0 0
1816377140 -0.18115955591201782 0.12565332651138306 0.011417368426918983 0.004743299447000027 0 0 0 0
1820099224 -0.12894374132156372 0.14956799149513245 0.01412773597985506 0.0017040502279996872 0 0 0 0
1823821308 -0.0749642476439476 0.1623712033033371 0.015016363002359867 -0.0024770349264144897 0 0 0 0
1827543392 -0.022782932966947556 0.16764375567436218 0.01404692605137825 -0.006297833286225796 0 0 0 0
1831265476 0.02959175407886505 0.16498161852359772 0.012295366264879704 -0.008860481902956963 0 0 0 0
1834987560 0.07931823283433914 0.15479031205177307 0.010514218360185623 -0.010728156194090843 0 0 0 0
1838709644 0.12431210279464722 0.13910146057605743 0.008875181898474693 -0.012428728863596916 0 0 0 0
1842431728 0.16735507547855377 0.11743396520614624 0.007154813967645168 -0.01399178896099329 0 0 0 0
1846153812 0.20551662147045135 0.08992423862218857 0.005041210912168026 -0.015432866290211678 0 0 0 0
1849875896 0.23946189880371094 0.056180842220783234 0.0026926230639219284 -0.016693927347660065 0 0 0 0
1853597980 0.2655530869960785 0.019947104156017303 -0.00019994284957647324 -0.017642859369516373 0 0 0 0
1857320064 0.28503456711769104 -0.02130286395549774 -0.003494550473988056 -0.01763470098376274 0 0 0 0
1861042148 0.29736754298210144 -0.06524394452571869 -0.0062896497547626495 -0.01685461960732937 0 0 0 0
1864764232 0.3024929463863373 -0.10806170105934143 -0.008674724027514458 -0.016217555850744247 0 0 0 0
1868486316 0.3016940951347351 -0.14809569716453552 -0.011409783735871315 -0.015347011387348175 0 0 0 0
1872208400 0.2928452491760254 -0.18826770782470703 -0.014186641201376915 -0.013756755739450455 0 0 0 0
1875930484 0.2778666913509369 -0.22496987879276276 -0.016649911180138588 -0.009576544165611267 0 0 0 0
1879652568 0.2550254166126251 -0.2595821022987366 -0.018387315794825554 -0.006931229494512081 0 0 0 0
1883374652 0.2323262095451355 -0.2850610017776489 -0.020127179101109505 -0.003771856427192688 0 0 0 0
1887096736 0.20443221926689148 -0.30697089433670044 -0.0209250058978796 -6.148405373096466e-05 0 0 0 0
1890818820 0.17485329508781433 -0.3231492340564728 -0.020978154614567757 0.0036731455475091934 0 0 0 0
1894540904 0.14474517107009888 -0.333570659160614 -0.020720118656754494 0.006765865720808506 0 0 0 0
1898262988 0.1121317595243454 -0.3398202657699585 -0.020383939146995544 0.010430263355374336 0 0 0 0
1901985072 0.08075118064880371 -0.3398178219795227 -0.01918039657175541 0.014487257227301598 0 0 0 0
1905707156 0.05005528777837753 -0.3346131443977356 -0.017097311094403267 0.018673432990908623 0 0 0 0
1909429240 0.022502467036247253 -0.3265729546546936 -0.013990708626806736 0.022783413529396057 0 0 0 0
1913151324 -0.0034939758479595184 -0.31321725249290466 -0.009413735941052437 0.02636031247675419 0 0 0 0
1916873408 -0.025865890085697174 -0.29509568214416504 -0.00393608957529068 0.02854050137102604 0 0 0 0
1920595492 -0.04532594233751297 -0.2750685513019562 0.0018872488290071487 0.029517197981476784 0 0 0 0
1924317576 -0.06188155338168144 -0.25019627809524536 0.00781294610351324 0.029304230585694313 0 0 0 0
1928039660 -0.07152293622493744 -0.22436580061912537 0.014468654058873653 0.027582654729485512 0 0 0 0
1931761744 -0.07794028520584106 -0.19792723655700684 0.020929010584950447 0.023705529049038887 0 0 0 0
1935483828 -0.07715645432472229 -0.17198446393013 0.025316525250673294 0.01804937981069088 0 0 0 0
1939205912 -0.07463768124580383 -0.14671732485294342 0.027782399207353592 0.011998403817415237 0 0 0 0
1942927996 -0.06795267760753632 -0.12099313735961914 0.02867463417351246 0.005603022873401642 0 0 0 0
1946650080 -0.05609065666794777 -0.09732282161712646 0.0283089317381382 -0.000632929615676403 0 0 0 0
1950372164 -0.039363566786050797 -0.07557012885808945 0.026449458673596382 -0.005615307949483395 0 0 0 0
1954094248 -0.019187573343515396 -0.05794234573841095 0.023909250274300575 -0.010154318064451218 0 0 0 0
1957816332 0.003678928129374981 -0.04492580145597458 0.020717963576316833 -0.013574899174273014 0 0 0 0
1961538416 0.027160894125699997 -0.0366692841053009 0.017063213512301445 -0.016358157619833946 0 0 0 0
1965260500 0.052225179970264435 -0.031198877841234207 0.013403873890638351 -0.017920052632689476 0 0 0 0
1968982584 0.07771719992160797 -0.031199082732200623 0.010881870985031128 -0.018812716007232666 0 0 0 0
1972704668 0.1042054146528244 -0.035905949771404266 0.008278202265501022 -0.019986918196082115 0 0 0 0
1976426752 0.1285010427236557 -0.045601703226566315 0.005661359988152981 -0.021464509889483452 0 0 0 0
1980148836 0.14979642629623413 -0.059340156614780426 0.0022857841104269028 -0.022874979302287102 0 0 0 0
1983870920 0.1689944565296173 -0.07837546616792679 -0.0019568083807826042 -0.02406872995197773 0 0 0 0
1987593004 0.1836088001728058 -0.10009478777647018 -0.007283701561391354 -0.024069923907518387 0 0 0 0
1991315088 0.19404196739196777 -0.12341310828924179 -0.012236926704645157 -0.02269759774208069 0 0 0 0
1995037172 0.19860216975212097 -0.14842601120471954 -0.016881301999092102 -0.01974342204630375 0 0 0 0
1998759256 0.199085533618927 -0.17435455322265625 -0.020593449473381042 -0.015725180506706238 0 0 0 0
2002481340 0.19451701641082764 -0.19953396916389465 -0.022992657497525215 -0.011281255632638931 0 0 0 0
2006203424 0.1868555247783661 -0.221803218126297 -0.024388667196035385 -0.007252880372107029 0 0 0 0
2009925508 0.1733475625514984 -0.24344933032989502 -0.025243185460567474 -0.002389596775174141 0 0 0 0
2013647592 0.15784461796283722 -0.2609764039516449 -0.0253695510327816 0.0019488455727696419 0 0 0 0
2017369676 0.142174631357193 -0.2754131555557251 -0.024432390928268433 0.006468536332249641 0 0 0 0
2021091760 0.11724558472633362 -0.2896953523159027 -0.022691188380122185 0.011093003675341606 0 0 0 0
2024813844 0.09184269607067108 -0.2983221411705017 -0.019679846242070198 0.014977755956351757 0 0 0 0
2028535928 0.06639286875724792 -0.30145263671875 -0.016640346497297287 0.0177081860601902 0 0 0 0
2032258012 0.04258818179368973 -0.3007659614086151 -0.013127123937010765 0.01984744518995285 0 0 0 0
2035980096 0.01715835928916931 -0.296021044254303 -0.009798355400562286 0.021968558430671692 0 0 0 0
2039702180 -0.007547467947006226 -0.28758683800697327 -0.005958474241197109 0.023585790768265724 0 0 0 0
2043424264 -0.029626544564962387 -0.27437448501586914 -0.0005911290645599365 0.02462812140583992 0 0 0 0
2047146348 -0.051071926951408386 -0.2571832537651062 0.004316332750022411 0.02382197231054306 0 0 0 0
2050868432 -0.06979002803564072 -0.2360425591468811 0.00851787906140089 0.021759837865829468 0 0 0 0
2054590516 -0.08172496408224106 -0.21299032866954803 0.011631221510469913 0.019519736990332603 0 0 0 0
2058312600 -0.09399861097335815 -0.18640252947807312 0.014749127440154552 0.016376640647649765 0 0 0 0
2062034684 -0.10031481832265854 -0.158622145652771 0.016836099326610565 0.012944056652486324 0 0 0 0
2065756768 -0.10261046886444092 -0.13042813539505005 0.018112456426024437 0.009874946437776089 0 0 0 0
2069478852 -0.10160873830318451 -0.10129117965698242 0.019031738862395287 0.00672549195587635 0 0 0 0
2073200936 -0.09491755813360214 -0.0708472952246666 0.019688593223690987 0.0034755049273371696 0 0 0 0
2076923020 -0.08347462117671967 -0.0408371239900589 0.019398078322410583 0.000438859686255455 0 0 0 0
2080645104 -0.0666932538151741 -0.012928852811455727 0.019253898411989212 -0.002965198829770088 0 0 0 0
2084367188 -0.04534414783120155 0.013150802813470364 0.01801341213285923 -0.00606131087988615 0 0 0 0
2088089272 -0.01860964670777321 0.03629999980330467 0.0163662638515234 -0.008792939595878124 0 0 0 0
2091811356 0.013263704255223274 0.05356001481413841 0.014315320178866386 -0.011177759617567062 0 0 0 0
2095533440 0.047900550067424774 0.06577058881521225 0.01209971122443676 -0.01313968375325203 0 0 0 0
2099255524 0.08402717113494873 0.06965892761945724 0.009386413730680943 -0.014513387344777584 0 0 0 0
2102977608 0.12098891288042068 0.06869572401046753 0.006898568011820316 -0.015429740771651268 0 0 0 0
2106699692 0.1566346287727356 0.06019415706396103 0.004685087129473686 -0.01597614586353302 0 0 0 0
2110421776 0.19003279507160187 0.04869091883301735 0.0025961147621273994 -0.01681556925177574 0 0 0 0
2114143860 0.2205086052417755 0.027958739548921585 -0.0003759292885661125 -0.017530865967273712 0 0 0 0
2117865944 0.24650949239730835 0.005170129239559174 -0.003922280855476856 -0.017290890216827393 0 0 0 0
2121588028 0.2685277760028839 -0.022129692137241364 -0.007270055823028088 -0.016561415046453476 0 0 0 0
2125310112 0.2852177023887634 -0.052365340292453766 -0.0104867834597826 -0.014867576770484447 0 0 0 0
2129032196 0.2971978187561035 -0.08393731713294983 -0.013634803704917431 -0.012470932677388191 0 0 0 0
2132754280 0.3023125231266022 -0.11947494000196457 -0.01624787040054798 -0.009118907153606415 0 0 0 0
2136476364 0.3044990301132202 -0.1514701545238495 -0.01796167716383934 -0.005038263276219368 0 0 0 0
2140198448 0.3008420765399933 -0.18322309851646423 -0.017902497202157974 -0.00034717004746198654 0 0 0 0
2143920532 0.28892719745635986 -0.2174806296825409 -0.01608387567102909 0.0038471603766083717 0 0 0 0
2147642616 0.2775319218635559 -0.24419532716274261 -0.013544679619371891 0.006306009367108345 0 0 0 0
2151364700 0.2583247423171997 -0.2689239978790283 -0.011057024821639061 0.007693414576351643 0 0 0 0
2155086784 0.23478546738624573 -0.2944513261318207 -0.008932123892009258 0.008463235571980476 0 0 0 0
2158808868 0.21063441038131714 -0.3109874725341797 -0.007345477119088173 0.008634916506707668 0 0 0 0
2162530952 0.18504750728607178 -0.3264528214931488 -0.006271262653172016 0.008797201327979565 0 0 0 0
2166253036 0.1555938422679901 -0.33570656180381775 -0.005323698744177818 0.009436148218810558 0 0 0 0
2169975120 0.12515148520469666 -0.3421836495399475 -0.0041438015177845955 0.010303223505616188 0 0 0 0
2173697204 0.09561318159103394 -0.34319165349006653 -0.002575353719294071 0.01073064748197794 0 0 0 0
2177419288 0.06559822708368301 -0.3388402462005615 -0.000972856767475605 0.010653829202055931 0 0 0 0
2181141372 0.03945637866854668 -0.3294731378555298 8.956156671047211e-05 0.010216220282018185 0 0 0 0
2184863456 0.007957488298416138 -0.3178230822086334 0.0011234572157263756 0.009984629228711128 0 0 0 0
2188585540 -0.01464299950748682 -0.3017261028289795 0.00206656102091074 0.009959437884390354 0 0 0 0
2192307624 -0.036850765347480774 -0.28129005432128906 0.0035113589838147163 0.010199245996773243 0 0 0 0
2196029708 -0.0568988174200058 -0.2575863003730774 0.005617928691208363 0.009970016777515411 0 0 0 0
2199751792 -0.07292409241199493 -0.2316453456878662 0.0077727241441607475 0.008468818850815296 0 0 0 0
2203473876 -0.08203122019767761 -0.2018413543701172 0.008902757428586483 0.006325983442366123 0 0 0 0
2207195960 -0.08753667026758194 -0.1705024689435959 0.009320104494690895 0.004385068081319332 0 0 0 0
2210918044 -0.09029754996299744 -0.1360553801059723 0.009573659859597683 0.0026441793888807297 0 0 0 0
2214640128 -0.08228917419910431 -0.10653388500213623 0.00961364433169365 0.000815131701529026 0 0 0 0
2218362212 -0.07156834751367569 -0.076402947306633 0.009243306703865528 -0.0008426262065768242 0 0 0 0
2222084296 -0.05488942191004753 -0.048925213515758514 0.008350290358066559 -0.0028151478618383408 0 0 0 0
2225806380 -0.03391643241047859 -0.025433873757719994 0.006976371631026268 -0.004226556979119778 0 0 0 0
2229528464 -0.008666155859827995 -0.005624324083328247 0.0051873186603188515 -0.004861165769398212 0 0 0 0
2233250548 0.019077381119132042 0.008030351251363754 0.0037304237484931946 -0.00474501121789217 0 0 0 0
2236972632 0.04687562957406044 0.01629433035850525 0.0024438919499516487 -0.004262854345142841 0 0 0 0
2240694716 0.07503222674131393 0.020344838500022888 0.0023209741339087486 -0.003473423421382904 0 0 0 0
2244416800 0.10325899720191956 0.018049370497465134 0.0022430140525102615 -0.0033937478438019753 0 0 0 0
2248138884 0.13030336797237396 0.017304692417383194 0.0024798503145575523 -0.003590196371078491 0 0 0 0
2251860968 0.1579427421092987 0.007013630121946335 0.002104664221405983 -0.005184004083275795 0 0 0 0
2255583052 0.18317647278308868 -0.009315300732851028 0.0010337680578231812 -0.005831720307469368 0 0 0 0
2259305136 0.20653489232063293 -0.024627115577459335 5.738344043493271e-05 -0.0056639425456523895 0 0 0 0
2263027220 0.2242831438779831 -0.04907766729593277 -0.0003984002396464348 -0.005295833572745323 0 0 0 0
2266749304 0.2366316318511963 -0.07812314480543137 -0.000742821954190731 -0.005354845896363258 0 0 0 0
2270471388 0.2451147437095642 -0.10222020745277405 -0.0010461676865816116 -0.005745668895542622 0 0 0 0
2274193472 0.24432224035263062 -0.13175806403160095 -0.0018004747107625008 -0.006029685027897358 0 0 0 0
2277915556 0.24353452026844025 -0.15643298625946045 -0.002738882787525654 -0.006162166595458984 0 0 0 0
2281637640 0.23724865913391113 -0.18129074573516846 -0.003652028739452362 -0.006095106713473797 0 0 0 0
2285359724 0.2205575853586197 -0.20737208425998688 -0.004539514891803265 -0.006050736643373966 0 0 0 0
2289081808 0.20880869030952454 -0.22466595470905304 -0.005787479691207409 -0.005783312022686005 0 0 0 0
2292803892 0.19278502464294434 -0.24102915823459625 -0.007083052769303322 -0.005506234243512154 0 0 0 0
2296525976 0.1707269847393036 -0.25384286046028137 -0.008305199444293976 -0.004723682999610901 0 0 0 0
2300248060 0.15105357766151428 -0.26256033778190613 -0.009729297831654549 -0.003954855725169182 0 0 0 0
2303970144 0.13500961661338806 -0.2696417570114136 -0.01094758789986372 -0.0024175848811864853 0 0 0 0
2307692228 0.09797605872154236 -0.2726210951805115 -0.011632229201495647 -4.0424056351184845e-05 0 0 0 0
2311414312 0.07987802475690842 -0.2696935534477234 -0.0116862328723073 0.002008894458413124 0 0 0 0
2315136396 0.0559488981962204 -0.26335808634757996 -0.011124285869300365 0.003801915794610977 0 0 0 0
2318858480 0.032671406865119934 -0.2533727288246155 -0.01040935143828392 0.005288718268275261 0 0 0 0
2322580564 0.014688573777675629 -0.2401478886604309 -0.009401408955454826 0.006909826770424843 0 0 0 0
2326302648 -0.007648870348930359 -0.22170519828796387 -0.008064535446465015 0.00822586752474308 0 0 0 0
2330024732 -0.023115668445825577 -0.19954708218574524 -0.0067408885806798935 0.008905614726245403 0 0 0 0
2333746816 -0.02981829270720482 -0.1771995723247528 -0.005770402029156685 0.009343015030026436 0 0 0 0
2337468900 -0.037589579820632935 -0.15025772154331207 -0.005014114081859589 0.009885385632514954 0 0 0 0
2341190984 -0.0416589230298996 -0.12292741984128952 -0.003882385790348053 0.010992630384862423 0 0 0 0
2344913068 -0.036204151809215546 -0.09697592258453369 -0.0024142442271113396 0.01168959029018879 0 0 0 0
2348635152 -0.03083205595612526 -0.06944341957569122 -0.0003717998042702675 0.012051133438944817 0 0 0 0
2352357236 -0.017686311155557632 -0.045349616557359695 0.0013014217838644981 0.01185947097837925 0 0 0 0
2356079320 -0.0007828362286090851 -0.02266865409910679 0.0030411668121814728 0.011635995469987392 0 0 0 0
2359801404 0.01917951926589012 -0.0033350745216012 0.00487878080457449 0.010995188727974892 0 0 0 0
2363523488 0.04290005937218666 0.01284088660031557 0.006574285216629505 0.010030376724898815 0 0 0 0
2367245572 0.0684707835316658 0.025249363854527473 0.007980462163686752 0.008790098130702972 0 0 0 0
2370967656 0.09682564437389374 0.03236435353755951 0.009115219116210938 0.006923752836883068 0 0 0 0
2374689740 0.12713047862052917 0.03614293783903122 0.009857106022536755 0.0050474535673856735 0 0 0 0
2378411824 0.1587923765182495 0.033667996525764465 0.009818248450756073 0.002924468368291855 0 0 0 0
2382133908 0.19022679328918457 0.02582976035773754 0.009221368469297886 0.0013627232983708382 0 0 0 0
2385855992 0.21893537044525146 0.010230593383312225 0.008626129478216171 0.00029917433857917786 0 0 0 0
2389578076 0.24472445249557495 -0.008320428431034088 0.008139915764331818 -0.0006658555939793587 0 0 0 0
2393300160 0.266510546207428 -0.03156101703643799 0.007525362074375153 -0.0013057766482234001 0 0 0 0
2397022244 0.2815670967102051 -0.061367787420749664 0.007215666584670544 -0.001958925276994705 0 0 0 0
2400744328 0.2936723232269287 -0.0919261947274208 0.007101121358573437 -0.002974739298224449 0 0 0 0
2404466412 0.29874706268310547 -0.12122052907943726 0.006916322745382786 -0.0040716249495744705 0 0 0 0
2408188496 0.2982601821422577 -0.15336398780345917 0.0058813272044062614 -0.005267953500151634 0 0 0 0
2411910580 0.29325422644615173 -0.18377196788787842 0.004806997254490852 -0.006284317933022976 0 0 0 0
2415632664 0.285080224275589 -0.208903506398201 0.003773030824959278 -0.0068274373188614845 0 0 0 0
2419354748 0.27077803015708923 -0.23317351937294006 0.002250579185783863 -0.007505960762500763 0 0 0 0
2423076832 0.25587600469589233 -0.255462646484375 0.0005367221310734749 -0.007682661525905132 0 0 0 0
2426798916 0.23473919928073883 -0.2770962417125702 -0.0009956834837794304 -0.00725302379578352 0 0 0 0
2430521000 0.21578727662563324 -0.29404520988464355 -0.0023061083629727364 -0.0065943533554673195 0 0 0 0
2434243084 0.19348002970218658 -0.30929073691368103 -0.0032509276643395424 -0.005604995414614677 0 0 0 0
2437965168 0.16841766238212585 -0.3204385042190552 -0.003957483917474747 -0.004448003135621548 0 0 0 0
2441687252 0.13991858065128326 -0.32917359471321106 -0.004079432226717472 -0.0032739732414484024 0 0 0 0
2445409336 0.10966426879167557 -0.3338070511817932 -0.0037657031789422035 -0.002366391010582447 0 0 0 0
2449131420 0.08124589920043945 -0.3313952386379242 -0.0033745644614100456 -0.0020816177129745483 0 0 0 0
2452853504 0.05083439499139786 -0.3246898949146271 -0.0032548578456044197 -0.0019721994176506996 0 0 0 0
2456575588 0.020222768187522888 -0.31533098220825195 -0.0033136801794171333 -0.001820961944758892 0 0 0 0
2460297672 -0.005223512649536133 -0.29854854941368103 -0.0032862480729818344 -0.0015219710767269135 0 0 0 0
2464019756 -0.027317844331264496 -0.2797783613204956 -0.0033067427575588226 -0.0015318337827920914 0 0 0 0
2467741840 -0.04877457022666931 -0.2566918134689331 -0.003237750381231308 -0.0014527719467878342 0 0 0 0
2471463924 -0.06416009366512299 -0.2296951711177826 -0.0037532737478613853 -0.0013599693775177002 0 0 0 0
2475186008 -0.07363111525774002 -0.2018257975578308 -0.004016551189124584 -0.0010917335748672485 0 0 0 0
2478908092 -0.07913994044065475 -0.17443929612636566 -0.004076284356415272 -0.0007407478988170624 0 0 0 0
2482630176 -0.08109280467033386 -0.14548353850841522 -0.0040949806571006775 -0.00030579138547182083 0 0 0 0
2486352260 -0.07891267538070679 -0.11734553426504135 -0.00393135379999876 -0.000299256294965744 0 0 0 0
2490074344 -0.07313252985477448 -0.09096617996692657 -0.004086093977093697 -0.00021931994706392288 0 0 0 0
2493796428 -0.06347152590751648 -0.06624177098274231 -0.004474488086998463 -0.00011226069182157516 0 0 0 0
2497518512 -0.05146205052733421 -0.042596474289894104 -0.004760405048727989 0.0003430470824241638 0 0 0 0
2501240596 -0.036208368837833405 -0.020561136305332184 -0.005037006922066212 0.0007546562701463699 0 0 0 0
2504962680 -0.018079783767461777 -0.0013862578198313713 -0.005089059472084045 0.0013499092310667038 0 0 0 0
2508684764 0.004156835377216339 0.017175626009702682 -0.005011348985135555 0.0019195787608623505 0 0 0 0
2512406848 0.02850652113556862 0.03171257674694061 -0.005136883817613125 0.0022523067891597748 0 0 0 0
2516128932 0.05568583682179451 0.04148879647254944 -0.005473061464726925 0.002704366110265255 0 0 0 0
2519851016 0.08392701297998428 0.046824000775814056 -0.005762951448559761 0.0037169456481933594 0 0 0 0
2523573100 0.11295130848884583 0.046105965971946716 -0.005446520633995533 0.0049958741292357445 0 0 0 0
2527295184 0.14074067771434784 0.04079802334308624 -0.004460112191736698 0.00597538985311985 0 0 0 0
2531017268 0.16629451513290405 0.030552122741937637 -0.0037744147703051567 0.006562421098351479 0 0 0 0
2534739352 0.18829169869422913 0.018131442368030548 -0.003046448342502117 0.007333444431424141 0 0 0 0
2538461436 0.2074614018201828 -0.000291973352432251 -0.0017898492515087128 0.008052410557866096 0 0 0 0
2542183520 0.2229226529598236 -0.01849559135735035 -0.0001775091513991356 0.008439834229648113 0 0 0 0
2545905604 0.2372916042804718 -0.03582245483994484 0.0011244211345911026 0.008340646512806416 0 0 0 0
2549627688 0.2463255524635315 -0.05685867369174957 0.002446696162223816 0.008063383400440216 0 0 0 0
2553349772 0.25321829319000244 -0.07788717746734619 0.0035542622208595276 0.007647872902452946 0 0 0 0
2557071856 0.2546955943107605 -0.0984765961766243 0.004751912318170071 0.0071525368839502335 0 0 0 0
2560793940 0.2582048773765564 -0.11795563250780106 0.0057746609672904015 0.0065182289108633995 0 0 0 0
2564516024 0.25517818331718445 -0.139979749917984 0.006877257488667965 0.005738603882491589 0 0 0 0
2568238108 0.2517903745174408 -0.15983203053474426 0.008222011849284172 0.004736666567623615 0 0 0 0
2571960192 0.24529539048671722 -0.17740240693092346 0.008931878954172134 0.0032533444464206696 0 0 0 0
2575682276 0.2385842353105545 -0.19310840964317322 0.009699206799268723 0.0018643653020262718 0 0 0 0
2579404360 0.2255168855190277 -0.21154716610908508 0.01026080921292305 0.00014400389045476913 0 0 0 0
2583126444 0.20861193537712097 -0.2277108132839203 0.010662732645869255 -0.0020051412284374237 0 0 0 0
2586848528 0.19575588405132294 -0.23755937814712524 0.010381625033915043 -0.003986970521509647 0 0 0 0
2590570612 0.18073472380638123 -0.24501579999923706 0.009687678888440132 -0.006079922430217266 0 0 0 0
2594292696 0.1622169315814972 -0.25114205479621887 0.008344100788235664 -0.008046496659517288 0 0 0 0
2598014780 0.14114758372306824 -0.25670936703681946 0.006710014306008816 -0.009888317435979843 0 0 0 0
2601736864 0.1276450753211975 -0.25711098313331604 0.004743598401546478 -0.01092628762125969 0 0 0 0
2605458948 0.11087573319673538 -0.25394076108932495 0.002589588053524494 -0.011407695710659027 0 0 0 0
2609181032 0.09198905527591705 -0.25221678614616394 0.00040330179035663605 -0.01163039542734623 0 0 0 0
2612903116 0.07766718417406082 -0.24552306532859802 -0.0014280658215284348 -0.011219289153814316 0 0 0 0
2616625200 0.061093274503946304 -0.23788727819919586 -0.003205610439181328 -0.01046314649283886 0 0 0 0
2620347284 0.049408670514822006 -0.2277270257472992 -0.004337741062045097 -0.009516557678580284 0 0 0 0
2624069368 0.03920670598745346 -0.2155071645975113 -0.005209861323237419 -0.008767995983362198 0 0 0 0
2627791452 0.031335942447185516 -0.20311975479125977 -0.006351803429424763 -0.007876894436776638 0 0 0 0
2631513536 0.023081280291080475 -0.18912161886692047 -0.007112758234143257 -0.007179861888289452 0 0 0 0
2635235620 0.019610770046710968 -0.1734381765127182 -0.008088824339210987 -0.0065084584057331085 0 0 0 0
2638957704 0.01729894056916237 -0.1597714126110077 -0.00921618938446045 -0.005808694288134575 0 0 0 0
2642679788 0.0202646367251873 -0.14313514530658722 -0.010566134005784988 -0.004652515985071659 0 0 0 0
2646401872 0.02448902279138565 -0.1299648880958557 -0.011602944694459438 -0.0027335016056895256 0 0 0 0
2650123956 0.030578482896089554 -0.11721249669790268 -0.012148303911089897 -0.0007205475121736526 0 0 0 0
2653846040 0.03890533372759819 -0.10668398439884186 -0.012164149433374405 0.001316513866186142 0 0 0 0
2657568124 0.047799259424209595 -0.09817595779895782 -0.011903922073543072 0.003658464178442955 0 0 0 0
2661290208 0.05980633199214935 -0.09116030484437943 -0.011175996623933315 0.005737048573791981 0 0 0 0
2665012292 0.07229723781347275 -0.08750171959400177 -0.00974057987332344 0.007802425883710384 0 0 0 0
2668734376 0.08290734887123108 -0.08668161928653717 -0.008083585649728775 0.009475240483880043 0 0 0 0
2672456460 0.09633246809244156 -0.08664223551750183 -0.005967253819108009 0.010514683090150356 0 0 0 0
2676178544 0.10687810182571411 -0.09076982736587524 -0.003910848870873451 0.01125305239111185 0 0 0 0
2679900628 0.11895804107189178 -0.09572970867156982 -0.0014990661293268204 0.011496134102344513 0 0 0 0
2683622712 0.12796525657176971 -0.10400857776403427 0.0006528589874505997 0.011228302493691444 0 0 0 0
2687344796 0.1346362829208374 -0.11389423906803131 0.002749110572040081 0.010421773418784142 0 0 0 0
2691066880 0.1392076015472412 -0.12497749924659729 0.004241570830345154 0.00920423399657011 0 0 0 0
2694788964 0.14048099517822266 -0.1387137770652771 0.0057024406269192696 0.007942141965031624 0 0 0 0
2698511048 0.13912342488765717 -0.1523231863975525 0.00699611846357584 0.006486961618065834 0 0 0 0
2702233132 0.13476702570915222 -0.16467082500457764 0.007757611572742462 0.004929308779537678 0 0 0 0
2705955216 0.12755313515663147 -0.17492923140525818 0.008108267560601234 0.003267609514296055 0 0 0 0
2709677300 0.11647899448871613 -0.18514829874038696 0.008327326737344265 0.0017883805558085442 0 0 0 0
2713399384 0.10545302927494049 -0.19206836819648743 0.008264201693236828 0.000462421216070652 0 0 0 0
2717121468 0.09210921078920364 -0.19592487812042236 0.008411531336605549 -0.000989910215139389 0 0 0 0
2720843552 0.0792718231678009 -0.19993454217910767 0.008181536570191383 -0.002835754305124283 0 0 0 0
2724565636 0.06229598447680473 -0.19921301305294037 0.00737769715487957 -0.004332533106207848 0 0 0 0
2728287720 0.04886902496218681 -0.1949600726366043 0.006349002011120319 -0.005360020324587822 0 0 0 0
2732009804 0.03348689526319504 -0.18836015462875366 0.005323790013790131 -0.0063385143876075745 0 0 0 0
2735731888 0.019911251962184906 -0.17742353677749634 0.004143203608691692 -0.007408796809613705 0 0 0 0
2739453972 0.011242657899856567 -0.1661747246980667 0.003065314143896103 -0.008209782652556896 0 0 0 0
2743176056 0.00047798454761505127 -0.15206140279769897 0.001675858162343502 -0.008907818235456944 0 0 0 0
2746898140 -0.006042148917913437 -0.1363517940044403 -0.00010662246495485306 -0.009623068384826183 0 0 0 0
2750620224 -0.011326625943183899 -0.11920831352472305 -0.002306024543941021 -0.009919560514390469 0 0 0 0
2754342308 -0.01198488101363182 -0.1003793254494667 -0.004720577038824558 -0.009326968342065811 0 0 0 0
2758064392 -0.010776357725262642 -0.08131632208824158 -0.00694810226559639 -0.007842064835131168 0 0 0 0
2761786476 -0.004845804534852505 -0.06159682944417 -0.008439512923359871 -0.0058252085000276566 0 0 0 0
2765508560 0.004595723003149033 -0.04383789002895355 -0.009415966458618641 -0.0035296017304062843 0 0 0 0
2769230644 0.017082661390304565 -0.026957953348755836 -0.009676050394773483 -0.001248515211045742 0 0 0 0
2772952728 0.031722456216812134 -0.013138855807483196 -0.009276537224650383 0.0013140495866537094 0 0 0 0
2776674812 0.049453288316726685 -0.000706937164068222 -0.008288219571113586 0.0031653549522161484 0 0 0 0
2780396896 0.06916637718677521 0.008832480758428574 -0.006881617940962315 0.004662924446165562 0 0 0 0
2784118980 0.09065933525562286 0.01550118438899517 -0.0052694277837872505 0.005723045207560062 0 0 0 0
2787841064 0.11385271698236465 0.017992783337831497 -0.0036843745037913322 0.0064630405977368355 0 0 0 0
2791563148 0.1378101408481598 0.016556769609451294 -0.0019199224188923836 0.006721007637679577 0 0 0 0
2795285232 0.16279533505439758 0.011171516962349415 -0.00010862760245800018 0.00660418625921011 0 0 0 0
2799007316 0.18606650829315186 0.0025452151894569397 0.0014972127974033356 0.006080049090087414 0 0 0 0
2802729400 0.20801028609275818 -0.010227859020233154 0.00265654269605875 0.00499939639121294 0 0 0 0
2806451484 0.2269439846277237 -0.028240971267223358 0.003358873538672924 0.0038276147097349167 0 0 0 0
2810173568 0.24303443729877472 -0.04686016961932182 0.0036307089030742645 0.0029303403571248055 0 0 0 0
2813895652 0.25711652636528015 -0.07131723314523697 0.003983038477599621 0.0023398008197546005 0 0 0 0
2817617736 0.2655351459980011 -0.09768223762512207 0.004508707672357559 0.0015126168727874756 0 0 0 0
2821339820 0.2731676995754242 -0.12203974276781082 0.004780173301696777 0.0005364688113331795 0 0 0 0
2825061904 0.2754708230495453 -0.14981523156166077 0.0045801689848303795 -0.0004838462918996811 0 0 0 0
2828783988 0.27048149704933167 -0.1791936457157135 0.004187151789665222 -0.0010653715580701828 0 0 0 0
2832506072 0.2664682865142822 -0.2029183954000473 0.0041055828332901 -0.0016806218773126602 0 0 0 0
2836228156 0.2530684769153595 -0.2317611128091812 0.0037936056032776833 -0.0022702310234308243 0 0 0 0
2839950240 0.23756004869937897 -0.25821173191070557 0.0035255802795290947 -0.002862407825887203 0 0 0 0
2843672324 0.21853065490722656 -0.2779502868652344 0.003149122931063175 -0.0033255983144044876 0 0 0 0
2847394408 0.19735029339790344 -0.2937960624694824 0.002812097780406475 -0.0038086501881480217 0 0 0 0
2851116492 0.1727769672870636 -0.30988630652427673 0.002226937562227249 -0.004484990611672401 0 0 0 0
2854838576 0.14895735681056976 -0.31996554136276245 0.001539762131869793 -0.004904443398118019 0 0 0 0
2858560660 0.12713956832885742 -0.3256796896457672 0.0009472686797380447 -0.005624453537166119 0 0 0 0
2862282744 0.0967659205198288 -0.33039572834968567 -0.00013754796236753464 -0.0057516396045684814 0 0 0 0
2866004828 0.07082969695329666 -0.33169838786125183 -0.0010119201615452766 -0.005698671564459801 0 0 0 0
2869726912 0.04782963916659355 -0.3284355103969574 -0.0018038693815469742 -0.005482285283505917 0 0 0 0
2873448996 0.01946786791086197 -0.3224075436592102 -0.0026605669409036636 -0.005047328770160675 0 0 0 0
2877171080 -0.007041230797767639 -0.3137107789516449 -0.0035228822380304337 -0.00471462681889534 0 0 0 0
2880893164 -0.02900819107890129 -0.3022876977920532 -0.004264579154551029 -0.003950207494199276 0 0 0 0
2884615248 -0.050673820078372955 -0.286899596452713 -0.00494309701025486 -0.0032179364934563637 0 0 0 0
2888337332 -0.06986728310585022 -0.2683597505092621 -0.005399225279688835 -0.0021055107936263084 0 0 0 0
2892059416 -0.09140106290578842 -0.24568913877010345 -0.0056358324363827705 -0.0009056543931365013 0 0 0 0
2895781500 -0.1069442629814148 -0.22034351527690887 -0.005434437654912472 0.000148894265294075 0 0 0 0
2899503584 -0.11376011371612549 -0.1954793930053711 -0.005205643363296986 0.0010438142344355583 0 0 0 0
2903225668 -0.12368015944957733 -0.1670970767736435 -0.0049095191061496735 0.0020114462822675705 0 0 0 0
2906947752 -0.12601414322853088 -0.1397227644920349 -0.004468224942684174 0.003106439486145973 0 0 0 0
2910669836 -0.12457108497619629 -0.1123042032122612 -0.0035804584622383118 0.004081942141056061 0 0 0 0
2914391920 -0.11917451024055481 -0.08457517623901367 -0.002287878654897213 0.004881083033978939 0 0 0 0
2918114004 -0.11021929979324341 -0.060207828879356384 -0.0009106285870075226 0.005173704586923122 0 0 0 0
2921836088 -0.09871910512447357 -0.038281600922346115 0.0004323609173297882 0.004835864529013634 0 0 0 0
2925558172 -0.08500970900058746 -0.016778187826275826 0.0013109678402543068 0.004269224591553211 0 0 0 0
2929280256 -0.06920132040977478 0.0011133663356304169 0.0017138272523880005 0.0037445565685629845 0 0 0 0
2933002340 -0.05192619934678078 0.017970634624361992 0.0022065918892621994 0.0035607432946562767 0 0 0 0
2936724424 -0.032904330641031265 0.0320751927793026 0.002782023511826992 0.0032379627227783203 0 0 0 0
2940446508 -0.01308026909828186 0.04330671206116676 0.00352277047932148 0.0028003156185150146 0 0 0 0
2944168592 0.008238974958658218 0.052496522665023804 0.0038725128397345543 0.0020725904032588005 0 0 0 0
2947890676 0.03054904192686081 0.05880523473024368 0.004092364571988583 0.0013869060203433037 0 0 0 0
2951612760 0.05306853726506233 0.06295101344585419 0.004231727682054043 0.0010735783725976944 0 0 0 0
2955334844 0.07526285201311111 0.0646829754114151 0.00457948911935091 0.0006422437727451324 0 0 0 0
2959056928 0.09741156548261642 0.06495042145252228 0.004939873702824116 2.6094727218151093e-05 0 0 0 0
2962779012 0.12058679014444351 0.05978536233305931 0.005347076803445816 -0.0009400565177202225 0 0 0 0
2966501096 0.1420828104019165 0.05313242971897125 0.005533094517886639 -0.0019793016836047173 0 0 0 0
2970223180 0.16298072040081024 0.04401387274265289 0.005213278345763683 -0.003418389707803726 0 0 0 0
2973945264 0.1819898635149002 0.030026618391275406 0.004294401966035366 -0.004502095282077789 0 0 0 0
2977667348 0.19901461899280548 0.017690077424049377 0.0032883035019040108 -0.0054048411548137665 0 0 0 0
2981389432 0.21503348648548126 0.0034680962562561035 0.002001766115427017 -0.005764450877904892 0 0 0 0
2985111516 0.2283083200454712 -0.01570967212319374 0.0006056996062397957 -0.005935731343924999 0 0 0 0
2988833600 0.24017542600631714 -0.03517585247755051 -0.0005699042230844498 -0.0056154681369662285 0 0 0 0
2992555684 0.24918615818023682 -0.05468781292438507 -0.0018138736486434937 -0.004982057958841324 0 0 0 0
2996277768 0.25398483872413635 -0.07749762386083603 -0.002624962478876114 -0.004170544445514679 0 0 0 0
2999999852 0.25818246603012085 -0.09831942617893219 -0.003070807084441185 -0.0032908860594034195 0 0 0 0
