# HZ S RI R 50
1500000000 -0.10279582440853119 0.0037172548472881317 0.03941688686609268 -0.028987476602196693 0 0 0 0
1503722084 -0.08100131899118423 0.029208112508058548 0.033831991255283356 -0.03399891406297684 0 0 0 0
1507444168 -0.051887739449739456 0.05141187086701393 0.02847413532435894 -0.03770032152533531 0 0 0 0
1511166252 -0.017318367958068848 0.06749825924634933 0.022745221853256226 -0.04153388366103172 0 0 0 0
1514888336 0.019060809165239334 0.07715160399675369 0.015705687925219536 -0.0449797622859478 0 0 0 0
1518610420 0.05636759102344513 0.08159982413053513 0.008382352069020271 -0.04717264324426651 0 0 0 0
1522332504 0.0959528386592865 0.07976315915584564 -0.00040729716420173645 -0.04837031662464142 0 0 0 0
1526054588 0.13577868044376373 0.07325157523155212 -0.009722311981022358 -0.04742802307009697 0 0 0 0
1529776672 0.1761762499809265 0.060006033629179 -0.018862396478652954 -0.04319947957992554 0 0 0 0
1533498756 0.2156517505645752 0.0402030423283577 -0.025296702980995178 -0.03717799857258797 0 0 0 0
1537220840 0.25152796506881714 0.010098405182361603 -0.029821179807186127 -0.030608365312218666 0 0 0 0
1540942924 0.28254565596580505 -0.022035591304302216 -0.03304817155003548 -0.02407645247876644 0 0 0 0
1544665008 0.3087335228919983 -0.05931038409471512 -0.03489100560545921 -0.017468532547354698 0 0 0 0
1548387092 0.32869476079940796 -0.10432565212249756 -0.03536391630768776 -0.0108866011723876 0 0 0 0
1552109176 0.34189850091934204 -0.15020081400871277 -0.03457856923341751 -0.005098598077893257 0 0 0 0
1555831260 0.348962664604187 -0.1982208788394928 -0.03290806710720062 1.4682300388813019e-05 0 0 0 0
1559553344 0.34706076979637146 -0.24811318516731262 -0.030912544578313828 0.004381323233246803 0 0 0 0
1563275428 0.3407023847103119 -0.29799962043762207 -0.028744032606482506 0.00804929994046688 0 0 0 0
1566997512 0.32282692193984985 -0.3478725552558899 -0.02593916654586792 0.01131975743919611 0 0 0 0
1570719596 0.29881563782691956 -0.3944890797138214 -0.02294827811419964 0.014100220054388046 0 0 0 0
1574441680 0.26610854268074036 -0.4352740943431854 -0.020085522904992104 0.01581411063671112 0 0 0 0
1578163764 0.23211322724819183 -0.4697510004043579 -0.01757797785103321 0.017152607440948486 0 0 0 0
1581885848 0.18966645002365112 -0.5032544136047363 -0.015208757482469082 0.018688982352614403 0 0 0 0
1585607932 0.1470259130001068 -0.5290215015411377 -0.012668265029788017 0.020000813528895378 0 0 0 0
1589330016 0.0943419486284256 -0.5518357753753662 -0.00963146798312664 0.02106887847185135 0 0 0 0
1593052100 0.0409383624792099 -0.5659322738647461 -0.006897670216858387 0.021607257425785065 0 0 0 0
1596774184 -0.013508960604667664 -0.5707857608795166 -0.004353376105427742 0.021800747141242027 0 0 0 0
1600496268 -0.07052378356456757 -0.567582368850708 -0.0019857361912727356 0.022011255845427513 0 0 0 0
1604218352 -0.12828320264816284 -0.5534747242927551 0.0005551353096961975 0.022157033905386925 0 0 0 0
1607940436 -0.1814163625240326 -0.5337504148483276 0.0033655352890491486 0.02251327969133854 0 0 0 0
1611662520 -0.22886408865451813 -0.5093434453010559 0.006306430324912071 0.0226761344820261 0 0 0 0
1615384604 -0.2770739197731018 -0.4747726321220398 0.010251939296722412 0.022362884134054184 0 0 0 0
1619106688 -0.3184409439563751 -0.43583944439888 0.014222060330212116 0.020960303023457527 0 0 0 0
1622828772 -0.35427457094192505 -0.38944390416145325 0.018044190481305122 0.01845148578286171 0 0 0 0
1626550856 -0.38443031907081604 -0.3404103219509125 0.02134491503238678 0.015122717246413231 0 0 0 0
1630272940 -0.4111439287662506 -0.28391537070274353 0.023903828114271164 0.01128105353564024 0 0 0 0
1633995024 -0.431657612323761 -0.22049963474273682 0.02597857639193535 0.006922127678990364 0 0 0 0
1637717108 -0.4402308762073517 -0.15748973190784454 0.027313755825161934 0.0021063480526208878 0 0 0 0
1641439192 -0.43988996744155884 -0.09422533214092255 0.02772686630487442 -0.0031729480251669884 0 0 0 0
1645161276 -0.42963629961013794 -0.026034608483314514 0.026795949786901474 -0.008924477733671665 0 0 0 0
1648883360 -0.4095291793346405 0.040414027869701385 0.024119514971971512 -0.014390585012733936 0 0 0 0
1652605444 -0.38232719898223877 0.09982003271579742 0.020232580602169037 -0.018745681270956993 0 0 0 0
1656327528 -0.3435068130493164 0.1621447056531906 0.01570911519229412 -0.02165467105805874 0 0 0 0
1660049612 -0.2956705391407013 0.21683546900749207 0.01114092767238617 -0.02379750832915306 0 0 0 0
1663771696 -0.23882457613945007 0.2647976875305176 0.006386090070009232 -0.025305330753326416 0 0 0 0
1667493780 -0.1726239025592804 0.3046731650829315 0.0008409759029746056 -0.025826014578342438 0 0 0 0
1671215864 -0.10140511393547058 0.3339255452156067 -0.004888073541224003 -0.024774853140115738 0 0 0 0
1674937948 -0.0251057967543602 0.35198846459388733 -0.009790072217583656 -0.021916678175330162 0 0 0 0
1678660032 0.05477087199687958 0.3584919571876526 -0.013387857005000114 -0.017829976975917816 0 0 0 0
1682382116 0.1359466016292572 0.35076719522476196 -0.015090461820363998 -0.013360979035496712 0 0 0 0
1686104200 0.21592102944850922 0.33116862177848816 -0.015650901943445206 -0.009768053889274597 0 0 0 0
1689826284 0.2909293472766876 0.2991394102573395 -0.015547024086117744 -0.006679303012788296 0 0 0 0
1693548368 0.3613779544830322 0.2534131407737732 -0.015299573540687561 -0.004254615865647793 0 0 0 0
1697270452 0.4225620925426483 0.19711929559707642 -0.01509590819478035 -0.001959705725312233 0 0 0 0
1700992536 0.47278204560279846 0.1337537169456482 -0.014543545432388783 0.0005789930000901222 0 0 0 0
1704714620 0.5125731229782104 0.05983369052410126 -0.013537919148802757 0.0027476195245981216 0 0 0 0
1708436704 0.5400770306587219 -0.014596929773688316 -0.012131796218454838 0.00467489380389452 0 0 0 0
1712158788 0.5553577542304993 -0.09389887750148773 -0.01033756136894226 0.006259305402636528 0 0 0 0
1715880872 0.557878315448761 -0.17492906749248505 -0.008411682210862637 0.00720603670924902 0 0 0 0
1719602956 0.5481618642807007 -0.2512655258178711 -0.006782691925764084 0.007411775179207325 0 0 0 0
1723325040 0.5276138186454773 -0.32906782627105713 -0.005424992181360722 0.007687987759709358 0 0 0 0
1727047124 0.49760979413986206 -0.39675238728523254 -0.004034862853586674 0.008015141822397709 0 0 0 0
1730769208 0.4521850049495697 -0.4625217318534851 -0.00231881532818079 0.007631177082657814 0 0 0 0
1734491292 0.3990629315376282 -0.5210508108139038 -0.0011201538145542145 0.006721765734255314 0 0 0 0
1738213376 0.3420301377773285 -0.568429172039032 -0.0007352400571107864 0.005831903778016567 0 0 0 0
1741935460 0.2784969210624695 -0.6036024689674377 -0.0007953308522701263 0.005270964466035366 0 0 0 0
1745657544 0.21013212203979492 -0.6319344639778137 -0.0011617979034781456 0.0051801931113004684 0 0 0 0
1749379628 0.13781017065048218 -0.646692156791687 -0.0011431500315666199 0.005663980729877949 0 0 0 0
1753101712 0.06676042079925537 -0.6516437530517578 -0.0006543714553117752 0.006133709102869034 0 0 0 0
1756823796 -0.005679852329194546 -0.6463874578475952 0.00011018756777048111 0.0064935507252812386 0 0 0 0
1760545880 -0.0699537992477417 -0.6296520829200745 0.0008712168782949448 0.006603420712053776 0 0 0 0
1764267964 -0.13889968395233154 -0.6023199558258057 0.0018684910610318184 0.006643164902925491 0 0 0 0
1767990048 -0.19984686374664307 -0.5643079876899719 0.002944868989288807 0.006437295116484165 0 0 0 0
1771712132 -0.24657534062862396 -0.5228098034858704 0.003922204487025738 0.005795068107545376 0 0 0 0
1775434216 -0.28967058658599854 -0.47235211730003357 0.004631071351468563 0.0050048381090164185 0 0 0 0
1779156300 -0.3257530927658081 -0.415932834148407 0.005065469071269035 0.003863048739731312 0 0 0 0
1782878384 -0.34929946064949036 -0.3597473204135895 0.004807432182133198 0.0029184510931372643 0 0 0 0
1786600468 -0.36897170543670654 -0.2964264452457428 0.004301402717828751 0.00244126096367836 0 0 0 0
1790322552 -0.37584608793258667 -0.23315280675888062 0.003896983340382576 0.0026680761948227882 0 0 0 0
1794044636 -0.3737054169178009 -0.17128528654575348 0.004185155034065247 0.003010299988090992 0 0 0 0
1797766720 -0.36313748359680176 -0.10874778032302856 0.004690307192504406 0.002994794398546219 0 0 0 0
1801488804 -0.342841237783432 -0.05237344652414322 0.004977194592356682 0.0030294032767415047 0 0 0 0
1805210888 -0.3157525956630707 -0.002571903169155121 0.005513234995305538 0.0035729529336094856 0 0 0 0
1808932972 -0.28093910217285156 0.047924090176820755 0.006962979212403297 0.004024254158139229 0 0 0 0
1812655056 -0.24027854204177856 0.0888005942106247 0.008904337882995605 0.003691643476486206 0 0 0 0
1816377140 -0.19355612993240356 0.1241028904914856 0.011208695359528065 0.002285446971654892 0 0 0 0
1820099224 -0.14150673151016235 0.15094465017318726 0.013241639360785484 -0.00024224910885095596 0 0 0 0
1823821308 -0.08732476085424423 0.16721001267433167 0.013937251642346382 -0.00394231453537941 0 0 0 0
1827543392 -0.03389475867152214 0.17490853369235992 0.012859362177550793 -0.007428324781358242 0 0 0 0
1831265476 0.01973830908536911 0.1743449568748474 0.011072969995439053 -0.009699463844299316 0 0 0 0
1834987560 0.07150747627019882 0.16603250801563263 0.009342269971966743 -0.011566229164600372 0 0 0 0
1838709644 0.12020404636859894 0.15040181577205658 0.007514634169638157 -0.013374553062021732 0 0 0 0
1842431728 0.1637764871120453 0.13035564124584198 0.005250710994005203 -0.014914410188794136 0 0 0 0
1846153812 0.20451155304908752 0.10351075232028961 0.0025178715586662292 -0.015801329165697098 0 0 0 0
1849875896 0.24092444777488708 0.06873388588428497 -4.103407263755798e-06 -0.016138821840286255 0 0 0 0
1853597980 0.2695700228214264 0.030209682881832123 -0.002437693066895008 -0.016242727637290955 0 0 0 0
1857320064 0.29105550050735474 -0.010691683739423752 -0.005194136872887611 -0.0159688051789999 0 0 0 0
1861042148 0.30557554960250854 -0.05560766160488129 -0.007473660632967949 -0.015305869281291962 0 0 0 0
1864764232 0.3132263123989105 -0.0982694923877716 -0.009775523096323013 -0.01492929458618164 0 0 0 0
1868486316 0.31200090050697327 -0.14288628101348877 -0.012880215421319008 -0.013903608545660973 0 0 0 0
1872208400 0.3037046194076538 -0.1846390664577484 -0.015971526503562927 -0.0118893813341856 0 0 0 0
1875930484 0.2913544774055481 -0.22243478894233704 -0.01843077316880226 -0.009512705728411674 0 0 0 0
1879652568 0.26786908507347107 -0.2580246925354004 -0.020306404680013657 -0.006211657077074051 0 0 0 0
1883374652 0.24406331777572632 -0.2868094742298126 -0.021778855472803116 -0.002554982900619507 0 0 0 0
1887096736 0.21539214253425598 -0.31198835372924805 -0.022606631740927696 0.001380348578095436 0 0 0 0
1890818820 0.18477186560630798 -0.3300071656703949 -0.022663619369268417 0.005340591073036194 0 0 0 0
1894540904 0.15182073414325714 -0.3436238169670105 -0.022309085354208946 0.009189557284116745 0 0 0 0
1898262988 0.11599598824977875 -0.35105326771736145 -0.02114582061767578 0.013854163698852062 0 0 0 0
1901985072 0.08340872824192047 -0.3511873781681061 -0.018812811002135277 0.01845584437251091 0 0 0 0
1905707156 0.05168788135051727 -0.3472714424133301 -0.015307712368667126 0.02248529903590679 0 0 0 0
1909429240 0.020820438861846924 -0.3360539376735687 -0.010665440931916237 0.025729969143867493 0 0 0 0
1913151324 -0.007915005087852478 -0.3215477764606476 -0.005276345647871494 0.027902651578187943 0 0 0 0
1916873408 -0.03159036487340927 -0.3022582232952118 0.0004641907289624214 0.02855752408504486 0 0 0 0
1920595492 -0.05117794871330261 -0.2806037962436676 0.006091399118304253 0.027983592823147774 0 0 0 0
1924317576 -0.06588535755872726 -0.25588345527648926 0.011628826148808002 0.02664591744542122 0 0 0 0
1928039660 -0.07831427454948425 -0.22916841506958008 0.017224054783582687 0.02429717779159546 0 0 0 0
1931761744 -0.08471497893333435 -0.20217245817184448 0.022257087752223015 0.020099859684705734 0 0 0 0
1935483828 -0.08508656919002533 -0.17454813420772552 0.02603384479880333 0.014362921938300133 0 0 0 0
1939205912 -0.08306318521499634 -0.14657506346702576 0.02776072919368744 0.008114711381494999 0 0 0 0
1942927996 -0.0757610946893692 -0.12001413106918335 0.027965545654296875 0.0020926659926772118 0 0 0 0
1946650080 -0.06376194208860397 -0.09468258172273636 0.026838432997465134 -0.003515428863465786 0 0 0 0
1950372164 -0.04586530849337578 -0.07173948734998703 0.02462145686149597 -0.008486252278089523 0 0 0 0
1954094248 -0.024795353412628174 -0.05358145758509636 0.021414902061223984 -0.012454085052013397 0 0 0 0
1957816332 -0.0011754482984542847 -0.03950494900345802 0.01825953833758831 -0.015407146885991096 0 0 0 0
1961538416 0.023403553292155266 -0.03006841614842415 0.014261269010603428 -0.01713930256664753 0 0 0 0
1965260500 0.0502135343849659 -0.024277808144688606 0.01092458050698042 -0.018084166571497917 0 0 0 0
1968982584 0.07819146662950516 -0.023245107382535934 0.008613537065684795 -0.018371591344475746 0 0 0 0
1972704668 0.10586699098348618 -0.029048006981611252 0.006474223919212818 -0.019183170050382614 0 0 0 0
1976426752 0.1318051815032959 -0.03860091790556908 0.004361823201179504 -0.020943593233823776 0 0 0 0
1980148836 0.15472078323364258 -0.05479709431529045 0.001437789760529995 -0.022507064044475555 0 0 0 0
1983870920 0.17512647807598114 -0.07426762580871582 -0.002912553958594799 -0.023810511454939842 0 0 0 0
1987593004 0.1895449310541153 -0.09840454161167145 -0.008296922780573368 -0.023535944521427155 0 0 0 0
1991315088 0.19940321147441864 -0.12245608121156693 -0.01312733069062233 -0.021590517833828926 0 0 0 0
1995037172 0.20365488529205322 -0.1490406095981598 -0.017638228833675385 -0.018705379217863083 0 0 0 0
1998759256 0.20581752061843872 -0.17423015832901 -0.020726433023810387 -0.015131148509681225 0 0 0 0
2002481340 0.2000737190246582 -0.20043936371803284 -0.02319343574345112 -0.010697955265641212 0 0 0 0
2006203424 0.19204752147197723 -0.22340361773967743 -0.024992361664772034 -0.006283838301897049 0 0 0 0
2009925508 0.1779661774635315 -0.24627608060836792 -0.02574879862368107 -0.0014567868784070015 0 0 0 0
2013647592 0.16265857219696045 -0.26494520902633667 -0.02569442428648472 0.003657834604382515 0 0 0 0
2017369676 0.14234817028045654 -0.2814706861972809 -0.024281363934278488 0.008262619376182556 0 0 0 0
2021091760 0.11855284869670868 -0.2954294979572296 -0.0218745656311512 0.012379447929561138 0 0 0 0
2024813844 0.09297969937324524 -0.30324462056159973 -0.019000548869371414 0.016205566003918648 0 0 0 0
2028535928 0.0662221610546112 -0.3066808879375458 -0.015366203151643276 0.018524587154388428 0 0 0 0
2032258012 0.03929038345813751 -0.3050539791584015 -0.012008750811219215 0.02020450308918953 0 0 0 0
2035980096 0.014078833162784576 -0.30040478706359863 -0.009443488903343678 0.02211248315870762 0 0 0 0
2039702180 -0.009961120784282684 -0.29054132103919983 -0.005214234814047813 0.02419712021946907 0 0 0 0
2043424264 -0.03549531474709511 -0.27698999643325806 -0.0001803562045097351 0.02457977831363678 0 0 0 0
2047146348 -0.0566510446369648 -0.2577369511127472 0.0043897610157728195 0.023548390716314316 0 0 0 0
2050868432 -0.07395633310079575 -0.2362358421087265 0.008241808973252773 0.021500926464796066 0 0 0 0
2054590516 -0.08774922788143158 -0.21159425377845764 0.010595043189823627 0.019352290779352188 0 0 0 0
2058312600 -0.09877021610736847 -0.1845473349094391 0.013297121971845627 0.01722586527466774 0 0 0 0
2062034684 -0.10435204207897186 -0.15622448921203613 0.015947623178362846 0.015054442919790745 0 0 0 0
2065756768 -0.10706859827041626 -0.1265476644039154 0.018017569556832314 0.011775737628340721 0 0 0 0
2069478852 -0.10456092655658722 -0.09643414616584778 0.019434962421655655 0.008699167519807816 0 0 0 0
2073200936 -0.09711523354053497 -0.06583820283412933 0.020317912101745605 0.0054009417071938515 0 0 0 0
2076923020 -0.0858142077922821 -0.03514273464679718 0.020784735679626465 0.002077571116387844 0 0 0 0
2080645104 -0.06831641495227814 -0.006104454398155212 0.020740464329719543 -0.0016689253970980644 0 0 0 0
2084367188 -0.04493149742484093 0.02014894038438797 0.019976258277893066 -0.004923975095152855 0 0 0 0
2088089272 -0.016151949763298035 0.043445851653814316 0.018767595291137695 -0.0082015385851264 0 0 0 0
2091811356 0.017534829676151276 0.06072178855538368 0.017093464732170105 -0.01106189750134945 0 0 0 0
2095533440 0.0540485680103302 0.07099564373493195 0.01474488340318203 -0.01443038135766983 0 0 0 0
2099255524 0.09137804806232452 0.07481637597084045 0.011752107180655003 -0.016578534618020058 0 0 0 0
2102977608 0.12966085970401764 0.06982286274433136 0.00832307804375887 -0.018000755459070206 0 0 0 0
2106699692 0.16490298509597778 0.061031945049762726 0.005183766596019268 -0.018845008686184883 0 0 0 0
2110421776 0.19884087145328522 0.04711416736245155 0.001992546021938324 -0.019573703408241272 0 0 0 0
2114143860 0.2279265820980072 0.025573212653398514 -0.0016232458874583244 -0.0198163203895092 0 0 0 0
2117865944 0.25374531745910645 7.168203592300415e-05 -0.005544774234294891 -0.019130486994981766 0 0 0 0
2121588028 0.27405649423599243 -0.030961312353610992 -0.009534494951367378 -0.017595896497368813 0 0 0 0
2125310112 0.2899438142776489 -0.060568615794181824 -0.012656807899475098 -0.015149200335144997 0 0 0 0
2129032196 0.29990154504776 -0.09325012564659119 -0.015531159937381744 -0.011888038367033005 0 0 0 0
2132754280 0.304996520280838 -0.12273146957159042 -0.01715819165110588 -0.008260585367679596 0 0 0 0
2136476364 0.30279600620269775 -0.15855807065963745 -0.018070654943585396 -0.004158264026045799 0 0 0 0
2140198448 0.29909566044807434 -0.19120323657989502 -0.017455358058214188 -0.00030375178903341293 0 0 0 0
2143920532 0.2882395088672638 -0.22202688455581665 -0.01592719927430153 0.00304257869720459 0 0 0 0
2147642616 0.2713089883327484 -0.2514277398586273 -0.013744576834142208 0.005461725406348705 0 0 0 0
2151364700 0.2514882981777191 -0.27726513147354126 -0.011904992163181305 0.006827909499406815 0 0 0 0
2155086784 0.2320883572101593 -0.29510465264320374 -0.010321826674044132 0.0076690372079610825 0 0 0 0
2158808868 0.20500929653644562 -0.31416529417037964 -0.008520105853676796 0.008472872897982597 0 0 0 0
2162530952 0.17693780362606049 -0.32751891016960144 -0.007417104206979275 0.008969586342573166 0 0 0 0
2166253036 0.15096621215343475 -0.33496347069740295 -0.006471345201134682 0.009493152610957623 0 0 0 0
2169975120 0.11852842569351196 -0.33951589465141296 -0.005175949074327946 0.010674080811440945 0 0 0 0
2173697204 0.0923173725605011 -0.33910393714904785 -0.00315956212580204 0.011538295075297356 0 0 0 0
2177419288 0.06162725389003754 -0.3345232605934143 -0.0010956628248095512 0.0114862946793437 0 0 0 0
2181141372 0.03453260660171509 -0.32630133628845215 0.0007089730352163315 0.01096726767718792 0 0 0 0
2184863456 0.006400778889656067 -0.3136827349662781 0.0021057752892374992 0.01050714310258627 0 0 0 0
2188585540 -0.016169436275959015 -0.2976292371749878 0.0035959072411060333 0.009915553964674473 0 0 0 0
2192307624 -0.037782423198223114 -0.2772980332374573 0.0050302185118198395 0.0091459471732378 0 0 0 0
2196029708 -0.05650310218334198 -0.2537081241607666 0.006298404186964035 0.00792338140308857 0 0 0 0
2199751792 -0.0716933086514473 -0.227190300822258 0.006959177553653717 0.006506030447781086 0 0 0 0
2203473876 -0.082969069480896 -0.19529780745506287 0.007268303073942661 0.005263526923954487 0 0 0 0
2207195960 -0.08503033220767975 -0.16470766067504883 0.00774017721414566 0.004536814987659454 0 0 0 0
2210918044 -0.08491858094930649 -0.13258954882621765 0.008101514540612698 0.003481334075331688 0 0 0 0
2214640128 -0.07589845359325409 -0.1048848032951355 0.008913226425647736 0.0024340441450476646 0 0 0 0
2218362212 -0.06610604375600815 -0.07538522779941559 0.009262407198548317 0.0007387250661849976 0 0 0 0
2222084296 -0.050136737525463104 -0.04884110391139984 0.009255016222596169 -0.0011258553713560104 0 0 0 0
2225806380 -0.029184486716985703 -0.02583981305360794 0.00837269052863121 -0.0029142294079065323 0 0 0 0
2229528464 -0.003914001397788525 -0.00712689571082592 0.007384835742413998 -0.004028605297207832 0 0 0 0
2233250548 0.022652793675661087 0.0047265589237213135 0.006238328292965889 -0.004816100932657719 0 0 0 0
2236972632 0.049752362072467804 0.0120959198102355 0.0051649343222379684 -0.0053875865414738655 0 0 0 0
2240694716 0.0758625939488411 0.01520560123026371 0.00431954488158226 -0.005736765451729298 0 0 0 0
2244416800 0.10220334678888321 0.016789574176073074 0.003776046447455883 -0.006118508987128735 0 0 0 0
2248138884 0.1299109011888504 0.014431945979595184 0.0031110690906643867 -0.006478610448539257 0 0 0 0
2251860968 0.15830840170383453 0.005125340074300766 0.0024433238431811333 -0.007443927228450775 0 0 0 0
2255583052 0.18285347521305084 -0.01148061454296112 0.0010935617610812187 -0.008138751611113548 0 0 0 0
2259305136 0.20506232976913452 -0.028365451842546463 -0.0003184610977768898 -0.008244614116847515 0 0 0 0
2263027220 0.22155746817588806 -0.05450616031885147 -0.0016759932041168213 -0.008345440030097961 0 0 0 0
2266749304 0.23643599450588226 -0.07275478541851044 -0.002897072583436966 -0.008241025730967522 0 0 0 0
2270471388 0.24265038967132568 -0.10251367837190628 -0.004301159642636776 -0.007850650697946548 0 0 0 0
2274193472 0.24051222205162048 -0.13236232101917267 -0.005788014270365238 -0.00677337683737278 0 0 0 0
2277915556 0.241977721452713 -0.15318015217781067 -0.006572971120476723 -0.005892512388527393 0 0 0 0
2281637640 0.23579001426696777 -0.17692910134792328 -0.007207546383142471 -0.005050994455814362 0 0 0 0
2285359724 0.22497321665287018 -0.20000401139259338 -0.007838130928575993 -0.004276876337826252 0 0 0 0
2289081808 0.21327020227909088 -0.21801526844501495 -0.008462885394692421 -0.003344923257827759 0 0 0 0
2292803892 0.19462060928344727 -0.23796603083610535 -0.008932147175073624 -0.0023873401805758476 0 0 0 0
2296525976 0.17617791891098022 -0.2514841556549072 -0.009678157977759838 -0.0015216227620840073 0 0 0 0
2300248060 0.1559981107711792 -0.26215770840644836 -0.010275330394506454 7.529277354478836e-05 0 0 0 0
2303970144 0.13385990262031555 -0.2733857035636902 -0.010426441207528114 0.0015345243737101555 0 0 0 0
2307692228 0.1054590493440628 -0.27388209104537964 -0.010207843966782093 0.003491063602268696 0 0 0 0
2311414312 0.08124696463346481 -0.2726810872554779 -0.009406141936779022 0.005232183262705803 0 0 0 0
2315136396 0.0518258772790432 -0.2674998939037323 -0.007922842167317867 0.006686272099614143 0 0 0 0
2318858480 0.030347738415002823 -0.25865834951400757 -0.006863392889499664 0.00706861075013876 0 0 0 0
2322580564 0.014804035425186157 -0.24395513534545898 -0.006086650304496288 0.007614362984895706 0 0 0 0
2326302648 -0.006768442690372467 -0.22569410502910614 -0.0049583446234464645 0.008268105797469616 0 0 0 0
2330024732 -0.01915125921368599 -0.2054477035999298 -0.00369343813508749 0.00867873802781105 0 0 0 0
2333746816 -0.032883405685424805 -0.18132489919662476 -0.0025672921910881996 0.00862833671271801 0 0 0 0
2337468900 -0.04616345092654228 -0.15301750600337982 -0.0014157220721244812 0.008520467206835747 0 0 0 0
2341190984 -0.04448997229337692 -0.12600098550319672 -0.001077784225344658 0.008530194871127605 0 0 0 0
2344913068 -0.04188472777605057 -0.09826378524303436 -7.225107401609421e-05 0.00882431585341692 0 0 0 0
2348635152 -0.03641621768474579 -0.07047123461961746 0.0013069314882159233 0.009003731422126293 0 0 0 0
2352357236 -0.02472742274403572 -0.04469570517539978 0.002657492645084858 0.00846953596919775 0 0 0 0
2356079320 -0.008577503263950348 -0.020336471498012543 0.0038355831056833267 0.007727481424808502 0 0 0 0
2359801404 0.012538892216980457 0.002082311548292637 0.0049175843596458435 0.006860645487904549 0 0 0 0
2363523488 0.03781794384121895 0.02071267180144787 0.005748439580202103 0.005590754561126232 0 0 0 0
2367245572 0.06584873050451279 0.03457757458090782 0.006218254566192627 0.004276501014828682 0 0 0 0
2370967656 0.09710012376308441 0.044054701924324036 0.006406302563846111 0.002411928027868271 0 0 0 0
2374689740 0.1301235407590866 0.04649926722049713 0.005733883008360863 0.0009499629959464073 0 0 0 0
2378411824 0.16481299698352814 0.0418604351580143 0.004626680165529251 2.3592263460159302e-05 0 0 0 0
2382133908 0.19781658053398132 0.03210745006799698 0.003451285883784294 -8.922070264816284e-06 0 0 0 0
2385855992 0.22905242443084717 0.014151863753795624 0.0028053466230630875 0.00030520837754011154 0 0 0 0
2389578076 0.25370070338249207 -0.006978854537010193 0.002645912580192089 0.0008695367723703384 0 0 0 0
2393300160 0.2750920057296753 -0.035876039415597916 0.0028312047943472862 0.0012400466948747635 0 0 0 0
2397022244 0.2880282998085022 -0.06531789898872375 0.003516414202749729 0.0014323201030492783 0 0 0 0
2400744328 0.2992262840270996 -0.09694681316614151 0.004355578683316708 0.0008338093757629395 0 0 0 0
2404466412 0.30178120732307434 -0.12676924467086792 0.0049738893285393715 -3.4281983971595764e-06 0 0 0 0
2408188496 0.30078673362731934 -0.1556127369403839 0.004771644249558449 -0.001135324127972126 0 0 0 0
2411910580 0.29531025886535645 -0.18283894658088684 0.004358435049653053 -0.00199264008551836 0 0 0 0
2415632664 0.2860443592071533 -0.21069158613681793 0.003962868824601173 -0.0030866488814353943 0 0 0 0
2419354748 0.27115556597709656 -0.23710119724273682 0.002958608791232109 -0.0037883594632148743 0 0 0 0
2423076832 0.25701913237571716 -0.2573689818382263 0.0018731215968728065 -0.003953267820179462 0 0 0 0
2426798916 0.2360309511423111 -0.2813661992549896 0.0008781300857663155 -0.003614499233663082 0 0 0 0
2430521000 0.2163109928369522 -0.29774123430252075 0.0004293574020266533 -0.0030587948858737946 0 0 0 0
2434243084 0.19262954592704773 -0.3135627806186676 0.0002439776435494423 -0.002650088630616665 0 0 0 0
2437965168 0.16384980082511902 -0.3251534104347229 0.00028844643384218216 -0.002239794470369816 0 0 0 0
2441687252 0.13761061429977417 -0.3317856788635254 0.000608532689511776 -0.0020943516865372658 0 0 0 0
2445409336 0.10654369741678238 -0.3384794294834137 0.0014155535027384758 -0.002213400788605213 0 0 0 0
2449131420 0.075640007853508 -0.3326464593410492 0.0012797238305211067 -0.0030431514605879784 0 0 0 0
2452853504 0.04619184136390686 -0.32427433133125305 0.0010902173817157745 -0.0037719421088695526 0 0 0 0
2456575588 0.02068522572517395 -0.31432029604911804 0.000555926002562046 -0.004650709219276905 0 0 0 0
2460297672 -0.005453027784824371 -0.2973150908946991 -0.00010397098958492279 -0.005066202953457832 0 0 0 0
2464019756 -0.028573796153068542 -0.27836447954177856 -0.0009776772931218147 -0.005364047363400459 0 0 0 0
2467741840 -0.047680385410785675 -0.25595927238464355 -0.001890118233859539 -0.005507233552634716 0 0 0 0
2471463924 -0.06063981354236603 -0.2322694957256317 -0.002911980263888836 -0.005591277033090591 0 0 0 0
2475186008 -0.0740085169672966 -0.20243044197559357 -0.0036617545410990715 -0.005357821471989155 0 0 0 0
2478908092 -0.07905377447605133 -0.1757470816373825 -0.004583155736327171 -0.005201507359743118 0 0 0 0
2482630176 -0.08206790685653687 -0.14740699529647827 -0.005690775811672211 -0.004645860753953457 0 0 0 0
2486352260 -0.08185676485300064 -0.11910469084978104 -0.006605928763747215 -0.0038890549913048744 0 0 0 0
2490074344 -0.07661405205726624 -0.09160171449184418 -0.00727117620408535 -0.0030509131029248238 0 0 0 0
2493796428 -0.06746705621480942 -0.06563562154769897 -0.007948096841573715 -0.0021852031350135803 0 0 0 0
2497518512 -0.05609705671668053 -0.039920661598443985 -0.008492670953273773 -0.0010550562292337418 0 0 0 0
2501240596 -0.04040946438908577 -0.016624145209789276 -0.008817666210234165 0.00018648244440555573 0 0 0 0
2504962680 -0.020955659449100494 0.00458159577101469 -0.00901311356574297 0.0012758877128362656 0 0 0 0
2508684764 0.0025200285017490387 0.02318943291902542 -0.009126630611717701 0.002641201950609684 0 0 0 0
2512406848 0.028776245191693306 0.03742338344454765 -0.008854937739670277 0.004213555715978146 0 0 0 0
2516128932 0.05775010585784912 0.04710261523723602 -0.008564407005906105 0.005779046565294266 0 0 0 0
2519851016 0.08722095191478729 0.051895905286073685 -0.007801970466971397 0.007439637556672096 0 0 0 0
2523573100 0.117372065782547 0.04892738536000252 -0.006187581457197666 0.00901906006038189 0 0 0 0
2527295184 0.14465148746967316 0.0440077967941761 -0.004297309555113316 0.009813736192882061 0 0 0 0
2531017268 0.16977930068969727 0.03227250277996063 -0.002648307941854 0.010058274492621422 0 0 0 0
2534739352 0.19232898950576782 0.01767243817448616 -0.0011329473927617073 0.01017240434885025 0 0 0 0
2538461436 0.21205493807792664 0.0009214058518409729 0.0006302427500486374 0.010160026140511036 0 0 0 0
2542183520 0.22860977053642273 -0.01690332032740116 0.002321569249033928 0.009873678907752037 0 0 0 0
2545905604 0.24321962893009186 -0.03629408776760101 0.0036706021055579185 0.009149610064923763 0 0 0 0
2549627688 0.25406786799430847 -0.05683717876672745 0.004908169619739056 0.00829998403787613 0 0 0 0
2553349772 0.25991931557655334 -0.08156870305538177 0.0058340029790997505 0.00744334701448679 0 0 0 0
2557071856 0.26160791516304016 -0.10300131142139435 0.0068471385166049 0.006597870960831642 0 0 0 0
2560793940 0.2626664638519287 -0.12472884356975555 0.007770538330078125 0.005669218488037586 0 0 0 0
2564516024 0.2593838572502136 -0.1468079388141632 0.00882542785257101 0.00479993037879467 0 0 0 0
2568238108 0.2542485296726227 -0.16527988016605377 0.00991516001522541 0.003472614102065563 0 0 0 0
2571960192 0.24614748358726501 -0.1852971464395523 0.010901173576712608 0.0016902917996048927 0 0 0 0
2575682276 0.23579652607440948 -0.2037247121334076 0.011243288405239582 -0.00031809043139219284 0 0 0 0
2579404360 0.2221573293209076 -0.2195717692375183 0.011280783452093601 -0.002567773684859276 0 0 0 0
2583126444 0.20657427608966827 -0.23381559550762177 0.01100915390998125 -0.004841574467718601 0 0 0 0
2586848528 0.1893216073513031 -0.24464118480682373 0.010063091292977333 -0.007125227712094784 0 0 0 0
2590570612 0.1724105328321457 -0.2523173689842224 0.008612039498984814 -0.009156093932688236 0 0 0 0
2594292696 0.15302124619483948 -0.25762999057769775 0.006464074365794659 -0.011018060147762299 0 0 0 0
2598014780 0.13621751964092255 -0.25918900966644287 0.004244113340973854 -0.01220786850899458 0 0 0 0
2601736864 0.11755989491939545 -0.2587199807167053 0.0014978284016251564 -0.01251431554555893 0 0 0 0
2605458948 0.0991329699754715 -0.25550371408462524 -0.0007848860695958138 -0.012193391099572182 0 0 0 0
2609181032 0.08101671189069748 -0.25092682242393494 -0.002972913905978203 -0.011577733792364597 0 0 0 0
2612903116 0.06879915297031403 -0.2422623187303543 -0.004679083824157715 -0.010526357218623161 0 0 0 0
2616625200 0.05329866707324982 -0.23255805671215057 -0.006092253141105175 -0.009302331134676933 0 0 0 0
2620347284 0.041691653430461884 -0.22128719091415405 -0.007068336941301823 -0.007711860351264477 0 0 0 0
2624069368 0.03274218738079071 -0.20890042185783386 -0.007618876174092293 -0.006617858074605465 0 0 0 0
2627791452 0.02479851059615612 -0.19478115439414978 -0.008066601119935513 -0.005658295005559921 0 0 0 0
2631513536 0.018983259797096252 -0.1796063333749771 -0.008674625307321548 -0.004648362286388874 0 0 0 0
2635235620 0.017428435385227203 -0.16342368721961975 -0.00905147660523653 -0.0035879146307706833 0 0 0 0
2638957704 0.018137380480766296 -0.14858339726924896 -0.009536399506032467 -0.0027648257091641426 0 0 0 0
2642679788 0.02201603725552559 -0.13211607933044434 -0.010013021528720856 -0.0012257564812898636 0 0 0 0
2646401872 0.02919744700193405 -0.11930820345878601 -0.01042256224900484 0.00021108053624629974 0 0 0 0
2650123956 0.03777437284588814 -0.10830476135015488 -0.01029251515865326 0.002052515745162964 0 0 0 0
2653846040 0.04729561507701874 -0.09936875104904175 -0.009977328591048717 0.0036892686039209366 0 0 0 0
2657568124 0.058936186134815216 -0.09284395724534988 -0.009296098724007607 0.0051540955901145935 0 0 0 0
2661290208 0.07268233597278595 -0.08836081624031067 -0.008300849236547947 0.006905106827616692 0 0 0 0
2665012292 0.0847257673740387 -0.08706159889698029 -0.006867339834570885 0.008443670347332954 0 0 0 0
2668734376 0.09579098969697952 -0.08953708410263062 -0.004817551001906395 0.009348278865218163 0 0 0 0
2672456460 0.10690970718860626 -0.09275705367326736 -0.002671089954674244 0.009918618947267532 0 0 0 0
2676178544 0.11562085151672363 -0.09946377575397491 -0.0006231982260942459 0.009679405950009823 0 0 0 0
2679900628 0.1261337399482727 -0.10509035736322403 0.0013494323939085007 0.009187666699290276 0 0 0 0
2683622712 0.13184082508087158 -0.1166657954454422 0.003209375776350498 0.008157124742865562 0 0 0 0
2687344796 0.13407127559185028 -0.12801748514175415 0.0045142946764826775 0.00655293557792902 0 0 0 0
2691066880 0.1381824016571045 -0.13771843910217285 0.0050077298656105995 0.005144147202372551 0 0 0 0
2694788964 0.13678285479545593 -0.1510956883430481 0.005190612748265266 0.0037770960479974747 0 0 0 0
2698511048 0.1315849870443344 -0.16261516511440277 0.005425087176263332 0.0029421038925647736 0 0 0 0
2702233132 0.12558439373970032 -0.17305172979831696 0.005557992495596409 0.0021941177546977997 0 0 0 0
2705955216 0.11622710525989532 -0.1805732399225235 0.005641891621053219 0.001307767815887928 0 0 0 0
2709677300 0.10410568118095398 -0.18836374580860138 0.005610681138932705 0.0003112228587269783 0 0 0 0
2713399384 0.0945470929145813 -0.19200399518013 0.005665433593094349 -0.0003469027578830719 0 0 0 0
2717121468 0.08257488906383514 -0.19449856877326965 0.005773928016424179 -0.0013394886627793312 0 0 0 0
2720843552 0.06715292483568192 -0.19546954333782196 0.005443502217531204 -0.0027714045718312263 0 0 0 0
2724565636 0.05485714226961136 -0.19221459329128265 0.0046782903373241425 -0.00382157601416111 0 0 0 0
2728287720 0.03959069773554802 -0.18578626215457916 0.003908118233084679 -0.004426635801792145 0 0 0 0
2732009804 0.028787657618522644 -0.1767847090959549 0.003023499622941017 -0.005147148855030537 0 0 0 0
2735731888 0.017173513770103455 -0.16700562834739685 0.002142597921192646 -0.00556956697255373 0 0 0 0
2739453972 0.010388514958322048 -0.15492141246795654 0.0011256569996476173 -0.005909428000450134 0 0 0 0
2743176056 0.004003241658210754 -0.140862375497818 0.0002314690500497818 -0.006257849745452404 0 0 0 0
2746898140 -0.003476712852716446 -0.126384437084198 -0.0011333990842103958 -0.00661926344037056 0 0 0 0
2750620224 -0.005272485315799713 -0.11037793755531311 -0.0028270091861486435 -0.00657024048268795 0 0 0 0
2754342308 -0.003954492509365082 -0.09230762720108032 -0.004400941543281078 -0.005757000297307968 0 0 0 0
2758064392 -0.0006803032010793686 -0.07520460337400436 -0.005791756324470043 -0.004319162108004093 0 0 0 0
2761786476 0.00636676698923111 -0.05847879871726036 -0.006491623818874359 -0.0025676852092146873 0 0 0 0
2765508560 0.016073055565357208 -0.0426565483212471 -0.006840185262262821 -0.0009594671428203583 0 0 0 0
2769230644 0.028043363243341446 -0.028624096885323524 -0.006616896018385887 0.001017657108604908 0 0 0 0
2772952728 0.04244748130440712 -0.0163457989692688 -0.005857684649527073 0.002717401832342148 0 0 0 0
2776674812 0.0595710389316082 -0.005844171158969402 -0.004565509967505932 0.003992489539086819 0 0 0 0
2780396896 0.07904402911663055 0.002255938947200775 -0.0029094861820340157 0.004828617908060551 0 0 0 0
2784118980 0.0996578186750412 0.00651150569319725 -0.0012905336916446686 0.005002270452678204 0 0 0 0
2787841064 0.12027649581432343 0.0071347616612911224 0.0002773907035589218 0.004798601381480694 0 0 0 0
2791563148 0.1424793303012848 0.0022064410150051117 0.001636306755244732 0.0042943404987454414 0 0 0 0
2795285232 0.16398954391479492 -0.001385582610964775 0.002663970924913883 0.00325094535946846 0 0 0 0
2799007316 0.18421787023544312 -0.010880284011363983 0.0033576907590031624 0.0021031126379966736 0 0 0 0
2802729400 0.20278063416481018 -0.025658782571554184 0.003544563427567482 0.0007828120142221451 0 0 0 0
2806451484 0.21890495717525482 -0.04194924980401993 0.0032654469832777977 -2.1364539861679077e-06 0 0 0 0
2810173568 0.23336276412010193 -0.060133494436740875 0.0028816862031817436 -0.0005513550713658333 0 0 0 0
2813895652 0.24559029936790466 -0.07995890080928802 0.0028216904029250145 -0.0008870083838701248 0 0 0 0
2817617736 0.253878116607666 -0.10146927833557129 0.0028435243293642998 -0.0015246476978063583 0 0 0 0
2821339820 0.2574743628501892 -0.1277463138103485 0.0024976003915071487 -0.0022574933245778084 0 0 0 0
2825061904 0.2590698003768921 -0.1517394334077835 0.0017249034717679024 -0.0027278149500489235 0 0 0 0
2828783988 0.2547076940536499 -0.17665189504623413 0.0012078583240509033 -0.002855495549738407 0 0 0 0
2832506072 0.24837031960487366 -0.20005232095718384 0.000832410529255867 -0.0029150918126106262 0 0 0 0
2836228156 0.23802238702774048 -0.22459110617637634 0.00041094236075878143 -0.002958018332719803 0 0 0 0
2839950240 0.22488677501678467 -0.2455909252166748 2.483651041984558e-05 -0.0028820931911468506 0 0 0 0
2843672324 0.206770122051239 -0.26330679655075073 -0.0001505119726061821 -0.0028037698939442635 0 0 0 0
2847394408 0.19014263153076172 -0.2797485291957855 -0.00038686860352754593 -0.0029979348182678223 0 0 0 0
2851116492 0.16657817363739014 -0.2933676540851593 -0.0008061984553933144 -0.003140948712825775 0 0 0 0
2854838576 0.14616043865680695 -0.30313795804977417 -0.001300276257097721 -0.003114459104835987 0 0 0 0
2858560660 0.12775729596614838 -0.30960291624069214 -0.0015348214656114578 -0.003290373831987381 0 0 0 0
2862282744 0.09882526099681854 -0.316863477230072 -0.0019557271152734756 -0.0031924890354275703 0 0 0 0
2866004828 0.07961908727884293 -0.3182913661003113 -0.0024755913764238358 -0.002839679829776287 0 0 0 0
2869726912 0.05670413747429848 -0.316413938999176 -0.003050479106605053 -0.002422642894089222 0 0 0 0
2873448996 0.03442017734050751 -0.3126508593559265 -0.0033292435109615326 -0.0019930293783545494 0 0 0 0
2877171080 0.006561264395713806 -0.3058727979660034 -0.003689718432724476 -0.0014501092955470085 0 0 0 0
2880893164 -0.015769265592098236 -0.2966247797012329 -0.004014019854366779 -0.000875839963555336 0 0 0 0
2884615248 -0.03803318738937378 -0.2826008200645447 -0.004240460693836212 5.9856101870536804e-05 0 0 0 0
2888337332 -0.05821564793586731 -0.26595696806907654 -0.004104244522750378 0.0010199462994933128 0 0 0 0
2892059416 -0.07548859715461731 -0.24627390503883362 -0.003795226104557514 0.0020196158438920975 0 0 0 0
2895781500 -0.09182555973529816 -0.2249552607536316 -0.003253243863582611 0.0027965139597654343 0 0 0 0
2899503584 -0.10186954587697983 -0.2015821486711502 -0.002458113245666027 0.0033647948876023293 0 0 0 0
2903225668 -0.10891463607549667 -0.1775878667831421 -0.0016618454828858376 0.0038159694522619247 0 0 0 0
2906947752 -0.11411504447460175 -0.15251852571964264 -0.0008676433935761452 0.004327263683080673 0 0 0 0
2910669836 -0.11561572551727295 -0.12829147279262543 0.0003336966037750244 0.004483346827328205 0 0 0 0
2914391920 -0.11255035549402237 -0.103670634329319 0.0014812629669904709 0.004413451999425888 0 0 0 0
2918114004 -0.10860691219568253 -0.08045157045125961 0.0025195786729454994 0.0040062712505459785 0 0 0 0
2921836088 -0.10125937312841415 -0.05814500153064728 0.0034150350838899612 0.0030954331159591675 0 0 0 0
2925558172 -0.09116046130657196 -0.03651599586009979 0.003839828073978424 0.0022018756717443466 0 0 0 0
2929280256 -0.07953231781721115 -0.015291234478354454 0.00399235263466835 0.0014918902888894081 0 0 0 0
2933002340 -0.06544516235589981 0.004005612805485725 0.004174047149717808 0.0009186798706650734 0 0 0 0
2936724424 -0.04881318658590317 0.020370695739984512 0.004472739063203335 0.0002585388720035553 0 0 0 0
2940446508 -0.030602941289544106 0.03555881977081299 0.004418814554810524 -0.00062553770840168 0 0 0 0
2944168592 -0.010146033018827438 0.04787789285182953 0.004029605537652969 -0.0014375057071447372 0 0 0 0
2947890676 0.010872459039092064 0.0579560324549675 0.0036032525822520256 -0.0018319133669137955 0 0 0 0
2951612760 0.03310216963291168 0.06592215597629547 0.0033095311373472214 -0.0020763929933309555 0 0 0 0
2955334844 0.05663704127073288 0.07104523479938507 0.003039989620447159 -0.002368863672018051 0 0 0 0
2959056928 0.0803024098277092 0.07385192066431046 0.003094068728387356 -0.0022877315059304237 0 0 0 0
2962779012 0.10555321723222733 0.07296473532915115 0.0030680187046527863 -0.002924165688455105 0 0 0 0
2966501096 0.13039147853851318 0.06987032294273376 0.002962745726108551 -0.0036017298698425293 0 0 0 0
2970223180 0.15537573397159576 0.06144752353429794 0.0023836251348257065 -0.004495047032833099 0 0 0 0
2973945264 0.17824263870716095 0.049899622797966 0.0011050915345549583 -0.0051664309576153755 0 0 0 0
2977667348 0.19903548061847687 0.036817342042922974 9.88151878118515e-05 -0.0051677655428647995 0 0 0 0
2981389432 0.21910376846790314 0.021586909890174866 -0.0009509753435850143 -0.004800068214535713 0 0 0 0
2985111516 0.23636417090892792 -0.0010734722018241882 -0.001986496150493622 -0.004351729527115822 0 0 0 0
2988833600 0.25098273158073425 -0.021737411618232727 -0.002735150046646595 -0.003619738854467869 0 0 0 0
2992555684 0.26202642917633057 -0.04077623039484024 -0.0033896639943122864 -0.0026738354936242104 0 0 0 0
2996277768 0.2688523232936859 -0.06580860912799835 -0.0036624008789658546 -0.0019362065941095352 0 0 0 0
2999999852 0.27515459060668945 -0.09109431505203247 -0.0037338482216000557 -0.0007666647434234619 0 0 0 0
