# HZ S RI R 50
1500000000 -0.08180822432041168 -0.0949309766292572 0.047501593828201294 -0.01800711266696453 0 0 0 0
1503722084 -0.0821106880903244 -0.07577638328075409 0.04471027851104736 -0.02540607377886772 0 0 0 0
1507444168 -0.07844685763120651 -0.05116365849971771 0.04008942097425461 -0.03271270543336868 0 0 0 0
1511166252 -0.0677018091082573 -0.025423679500818253 0.03494830057024956 -0.03944011777639389 0 0 0 0
1514888336 -0.04971317946910858 -0.0005408041179180145 0.02768835797905922 -0.046406134963035583 0 0 0 0
1518610420 -0.025454817339777946 0.022186368703842163 0.018092263489961624 -0.051333870738744736 0 0 0 0
1522332504 0.004372855648398399 0.040822677314281464 0.0068047866225242615 -0.05358251556754112 0 0 0 0
1526054588 0.040220022201538086 0.05520361661911011 -0.004103262908756733 -0.052438944578170776 0 0 0 0
1529776672 0.08179367333650589 0.06301799416542053 -0.013327768072485924 -0.04876691475510597 0 0 0 0
1533498756 0.12584754824638367 0.061169371008872986 -0.021491067484021187 -0.043274834752082825 0 0 0 0
1537220840 0.17176321148872375 0.049820173531770706 -0.027630947530269623 -0.036847736686468124 0 0 0 0
1540942924 0.21523961424827576 0.0293777696788311 -0.031788893043994904 -0.029729455709457397 0 0 0 0
1544665008 0.254437655210495 -0.00014312192797660828 -0.03454155474901199 -0.022714339196681976 0 0 0 0
1548387092 0.28795328736305237 -0.03632548451423645 -0.03547366335988045 -0.015933427959680557 0 0 0 0
1552109176 0.3159724175930023 -0.07768804579973221 -0.0352746956050396 -0.00983000174164772 0 0 0 0
1555831260 0.3365990221500397 -0.1251908540725708 -0.03442844748497009 -0.0044472357258200645 0 0 0 0
1559553344 0.35125499963760376 -0.1761728823184967 -0.03326760604977608 0.0004681898280978203 0 0 0 0
1563275428 0.35663023591041565 -0.22820959985256195 -0.031626079231500626 0.005044913850724697 0 0 0 0
1566997512 0.35317063331604004 -0.2831328511238098 -0.029046950861811638 0.009523260407149792 0 0 0 0
1570719596 0.3377714455127716 -0.33963900804519653 -0.025388428941369057 0.013275794684886932 0 0 0 0
1574441680 0.31605711579322815 -0.391032338142395 -0.021857639774680138 0.015332693234086037 0 0 0 0
1578163764 0.2879638075828552 -0.4371223449707031 -0.018440615385770798 0.016648320481181145 0 0 0 0
1581885848 0.25121116638183594 -0.4819822609424591 -0.015591369941830635 0.01761392317712307 0 0 0 0
1585607932 0.20400291681289673 -0.5205304622650146 -0.012851879931986332 0.01840275526046753 0 0 0 0
1589330016 0.15548057854175568 -0.551885187625885 -0.010351702570915222 0.018707290291786194 0 0 0 0
1593052100 0.0983695536851883 -0.5744178891181946 -0.008024288341403008 0.01876775734126568 0 0 0 0
1596774184 0.03956037759780884 -0.5910094976425171 -0.006245200522243977 0.018993668258190155 0 0 0 0
1600496268 -0.021107152104377747 -0.5985583066940308 -0.004471770487725735 0.019428269937634468 0 0 0 0
1604218352 -0.08363094925880432 -0.5969027280807495 -0.002380269579589367 0.020062929019331932 0 0 0 0
1607940436 -0.14939206838607788 -0.5846219062805176 1.6306526958942413e-05 0.020378366112709045 0 0 0 0
1611662520 -0.20749890804290771 -0.5654562711715698 0.002598441205918789 0.020553868263959885 0 0 0 0
1615384604 -0.27073878049850464 -0.5337094068527222 0.005541794002056122 0.02038884162902832 0 0 0 0
1619106688 -0.32754337787628174 -0.4914258122444153 0.008804937824606895 0.019558371976017952 0 0 0 0
1622828772 -0.3762698173522949 -0.44281119108200073 0.011786002665758133 0.018092649057507515 0 0 0 0
1626550856 -0.41902488470077515 -0.3837081491947174 0.014384020119905472 0.015988366678357124 0 0 0 0
1630272940 -0.4521467983722687 -0.3180238902568817 0.01659410074353218 0.013350793160498142 0 0 0 0
1633995024 -0.47639352083206177 -0.2473677694797516 0.018210750073194504 0.010556992143392563 0 0 0 0
1637717108 -0.4901856780052185 -0.16840963065624237 0.019382504746317863 0.0076872436329722404 0 0 0 0
1641439192 -0.48968565464019775 -0.09484611451625824 0.020348984748125076 0.005005176179111004 0 0 0 0
1645161276 -0.4770374298095703 -0.01697760820388794 0.021132817491889 0.0017141196876764297 0 0 0 0
1648883360 -0.4520782232284546 0.058172836899757385 0.021047089248895645 -0.0014495430514216423 0 0 0 0
1652605444 -0.4153919816017151 0.13165231049060822 0.020754389464855194 -0.004620804451406002 0 0 0 0
1656327528 -0.36752691864967346 0.1961287260055542 0.020218713209033012 -0.007921864278614521 0 0 0 0
1660049612 -0.3102830648422241 0.2530782222747803 0.018862035125494003 -0.011487376876175404 0 0 0 0
1663771696 -0.24389824271202087 0.3017536699771881 0.016585469245910645 -0.015159228816628456 0 0 0 0
1667493780 -0.16970932483673096 0.34014129638671875 0.013339679688215256 -0.018147682771086693 0 0 0 0
1671215864 -0.09071991592645645 0.3656674921512604 0.009220344945788383 -0.020034007728099823 0 0 0 0
1674937948 -0.006295502185821533 0.37859100103378296 0.004983540624380112 -0.02083701267838478 0 0 0 0
1678660032 0.07771961390972137 0.37711089849472046 0.0007123351097106934 -0.02025790698826313 0 0 0 0
1682382116 0.16046111285686493 0.36303314566612244 -0.0024292413145303726 -0.01872888393700123 0 0 0 0
1686104200 0.23942553997039795 0.3353700041770935 -0.004669686779379845 -0.01715306006371975 0 0 0 0
1689826284 0.3124346435070038 0.29703637957572937 -0.006581185385584831 -0.015851333737373352 0 0 0 0
1693548368 0.3783077001571655 0.2479972541332245 -0.008452756330370903 -0.01451842300593853 0 0 0 0
1697270452 0.43687400221824646 0.18867634236812592 -0.010482004843652248 -0.012925773859024048 0 0 0 0
1700992536 0.4848185181617737 0.12352189421653748 -0.01211889460682869 -0.011117830872535706 0 0 0 0
1704714620 0.5215013027191162 0.052520751953125 -0.01357684750109911 -0.008805844932794571 0 0 0 0
1708436704 0.5465869307518005 -0.027503998950123787 -0.014638095162808895 -0.006354054436087608 0 0 0 0
1712158788 0.5598325729370117 -0.10382941365242004 -0.015102799981832504 -0.003474459983408451 0 0 0 0
1715880872 0.5614383220672607 -0.18200728297233582 -0.014746944420039654 -0.0007001785561442375 0 0 0 0
1719602956 0.5483006834983826 -0.2598482668399811 -0.013718292117118835 0.0017872685566544533 0 0 0 0
1723325040 0.5264178514480591 -0.33383709192276 -0.012215709313750267 0.003586992621421814 0 0 0 0
1727047124 0.49591064453125 -0.4006720185279846 -0.010637934319674969 0.004716983996331692 0 0 0 0
1730769208 0.45121079683303833 -0.46700072288513184 -0.00947013683617115 0.005470107309520245 0 0 0 0
1734491292 0.39616915583610535 -0.5247256755828857 -0.008393898606300354 0.0062568821012973785 0 0 0 0
1738213376 0.34117019176483154 -0.5701391696929932 -0.006840803660452366 0.007100670598447323 0 0 0 0
1741935460 0.274982213973999 -0.6078680753707886 -0.005247518420219421 0.007077204994857311 0 0 0 0
1745657544 0.2115330547094345 -0.632310152053833 -0.004328238777816296 0.006529775448143482 0 0 0 0
1749379628 0.13497775793075562 -0.6502403616905212 -0.0037319352850317955 0.00610093679279089 0 0 0 0
1753101712 0.06581681966781616 -0.6537831425666809 -0.003743322566151619 0.005701892077922821 0 0 0 0
1756823796 -0.009325884282588959 -0.6474831104278564 -0.0038285721093416214 0.005712871439754963 0 0 0 0
1760545880 -0.07226414978504181 -0.6313208937644958 -0.0041084615513682365 0.006133696064352989 0 0 0 0
1764267964 -0.1394391655921936 -0.6031352281570435 -0.0043204668909311295 0.006866276264190674 0 0 0 0
1767990048 -0.19936217367649078 -0.568271279335022 -0.004044975154101849 0.008389096707105637 0 0 0 0
1771712132 -0.24737843871116638 -0.524513304233551 -0.0030435165390372276 0.009580503217875957 0 0 0 0
1775434216 -0.2932027578353882 -0.4758341312408447 -0.0014626765623688698 0.01036232989281416 0 0 0 0
1779156300 -0.3282511830329895 -0.41995903849601746 -0.00027451012283563614 0.010749682784080505 0 0 0 0
1782878384 -0.3579203188419342 -0.3598998188972473 0.0012154653668403625 0.010704939253628254 0 0 0 0
1786600468 -0.3747716546058655 -0.30149468779563904 0.002126888372004032 0.010837864130735397 0 0 0 0
1790322552 -0.38555800914764404 -0.23548145592212677 0.0031293127685785294 0.01116698607802391 0 0 0 0
1794044636 -0.3864438235759735 -0.17082487046718597 0.0045866649597883224 0.011684521101415157 0 0 0 0
1797766720 -0.3755739629268646 -0.10785388946533203 0.006357618607580662 0.011812140233814716 0 0 0 0
1801488804 -0.35590261220932007 -0.046004846692085266 0.008204244077205658 0.012082318775355816 0 0 0 0
1805210888 -0.3277933597564697 0.008981302380561829 0.010662836953997612 0.011949047446250916 0 0 0 0
1808932972 -0.2919090986251831 0.0602850466966629 0.013778096064925194 0.011493662372231483 0 0 0 0
1812655056 -0.24803291261196136 0.10584232211112976 0.017003318294882774 0.009797321632504463 0 0 0 0
1816377140 -0.19681105017662048 0.14338050782680511 0.019849898293614388 0.007344657555222511 0 0 0 0
1820099224 -0.14091302454471588 0.1703718900680542 0.022754386067390442 0.004011970013380051 0 0 0 0
1823821308 -0.08147953450679779 0.18794886767864227 0.025013569742441177 -0.001009390689432621 0 0 0 0
1827543392 -0.021641366183757782 0.19470632076263428 0.025173906236886978 -0.006577052175998688 0 0 0 0
1831265476 0.03541494905948639 0.19166362285614014 0.024417439475655556 -0.011741048656404018 0 0 0 0
1834987560 0.09073857218027115 0.18005260825157166 0.022680776193737984 -0.017154240980744362 0 0 0 0
1838709644 0.14282454550266266 0.15945038199424744 0.01862327754497528 -0.022570721805095673 0 0 0 0
1842431728 0.1894194334745407 0.13361869752407074 0.013546619564294815 -0.02574837952852249 0 0 0 0
1846153812 0.23081913590431213 0.09942568093538284 0.0084866713732481 -0.02745750918984413 0 0 0 0
1849875896 0.2658989131450653 0.06050368398427963 0.004212033003568649 -0.028711635619401932 0 0 0 0
1853597980 0.292140394449234 0.017445381730794907 -0.0008507510647177696 -0.029434911906719208 0 0 0 0
1857320064 0.31014925241470337 -0.027805417776107788 -0.006085030734539032 -0.028910906985402107 0 0 0 0
1861042148 0.32051095366477966 -0.07702740281820297 -0.011104880832135677 -0.027644220739603043 0 0 0 0
1864764232 0.3210899233818054 -0.12670689821243286 -0.015670116990804672 -0.02627597562968731 0 0 0 0
1868486316 0.31469327211380005 -0.1691226214170456 -0.020679183304309845 -0.02396591193974018 0 0 0 0
1872208400 0.300619900226593 -0.21079841256141663 -0.025515686720609665 -0.020738858729600906 0 0 0 0
1875930484 0.2799392342567444 -0.2504290044307709 -0.02987687475979328 -0.016158390790224075 0 0 0 0
1879652568 0.2539961338043213 -0.28263527154922485 -0.03298301622271538 -0.00962616316974163 0 0 0 0
1883374652 0.2260770946741104 -0.3072677552700043 -0.03405303880572319 -0.003151463344693184 0 0 0 0
1887096736 0.19352185726165771 -0.3272942006587982 -0.03331942856311798 0.0033918963745236397 0 0 0 0
1890818820 0.16076019406318665 -0.34074485301971436 -0.0317341573536396 0.008351256139576435 0 0 0 0
1894540904 0.12697014212608337 -0.34879282116889954 -0.03017459809780121 0.013044499792158604 0 0 0 0
1898262988 0.09221237897872925 -0.3519466519355774 -0.028193533420562744 0.01763962209224701 0 0 0 0
1901985072 0.056336939334869385 -0.3496035635471344 -0.025635456666350365 0.022397954016923904 0 0 0 0
1905707156 0.025603994727134705 -0.338824987411499 -0.022149715572595596 0.02687898278236389 0 0 0 0
1909429240 -0.004735846072435379 -0.32586580514907837 -0.01735396310687065 0.031518593430519104 0 0 0 0
1913151324 -0.027434788644313812 -0.3067708909511566 -0.011805474758148193 0.03472423180937767 0 0 0 0
1916873408 -0.05057414621114731 -0.2839197814464569 -0.004823755472898483 0.03690200299024582 0 0 0 0
1920595492 -0.06994740664958954 -0.2566409111022949 0.001825142651796341 0.037524569779634476 0 0 0 0
1924317576 -0.07953669875860214 -0.22837817668914795 0.008815128356218338 0.03737415745854378 0 0 0 0
1928039660 -0.08538071066141129 -0.19919343292713165 0.016320526599884033 0.036099012941122055 0 0 0 0
1931761744 -0.0860404372215271 -0.16776752471923828 0.024256769567728043 0.0324542373418808 0 0 0 0
1935483828 -0.07909666001796722 -0.139137864112854 0.03103882633149624 0.025949079543352127 0 0 0 0
1939205912 -0.06698712706565857 -0.11342920362949371 0.03507360443472862 0.018249105662107468 0 0 0 0
1942927996 -0.051870837807655334 -0.09113086014986038 0.036691222339868546 0.010367603041231632 0 0 0 0
1946650080 -0.033825624734163284 -0.07306976616382599 0.03659489378333092 0.0029400549829006195 0 0 0 0
1950372164 -0.013636237010359764 -0.0584116205573082 0.03535610809922218 -0.0033994391560554504 0 0 0 0
1954094248 0.008694528602063656 -0.046403706073760986 0.03313741832971573 -0.00906977616250515 0 0 0 0
1957816332 0.03256954252719879 -0.03891079127788544 0.030314335599541664 -0.013904190622270107 0 0 0 0
1961538416 0.05735602602362633 -0.03629840165376663 0.02721308171749115 -0.018504897132515907 0 0 0 0
1965260500 0.08228397369384766 -0.037003614008426666 0.023750625550746918 -0.02217978984117508 0 0 0 0
1968982584 0.10649429261684418 -0.04368184134364128 0.019808858633041382 -0.025776753202080727 0 0 0 0
1972704668 0.12903912365436554 -0.05462544411420822 0.015494588762521744 -0.028599359095096588 0 0 0 0
1976426752 0.14859351515769958 -0.07048363983631134 0.010377300903201103 -0.031249163672327995 0 0 0 0
1980148836 0.16492629051208496 -0.08728330582380295 0.005107748322188854 -0.0331597775220871 0 0 0 0
1983870920 0.17673702538013458 -0.10927714407444 -0.0015491107478737831 -0.03359927609562874 0 0 0 0
1987593004 0.18359842896461487 -0.1318226307630539 -0.007667724974453449 -0.03295129910111427 0 0 0 0
1991315088 0.18677034974098206 -0.1534561812877655 -0.013815983198583126 -0.030593786388635635 0 0 0 0
1995037172 0.1859244406223297 -0.1749252825975418 -0.01875252090394497 -0.02745196223258972 0 0 0 0
1998759256 0.18071746826171875 -0.19595371186733246 -0.023457398638129234 -0.023412274196743965 0 0 0 0
2002481340 0.1743798702955246 -0.21575576066970825 -0.027227463200688362 -0.01883736625313759 0 0 0 0
2006203424 0.16324545443058014 -0.23428486287593842 -0.02966552972793579 -0.013615837320685387 0 0 0 0
2009925508 0.14989498257637024 -0.25090065598487854 -0.03128081187605858 -0.008544595912098885 0 0 0 0
2013647592 0.1340995877981186 -0.2640688717365265 -0.0321793258190155 -0.00332751777023077 0 0 0 0
2017369676 0.11419150233268738 -0.27576911449432373 -0.032721009105443954 0.0024530217051506042 0 0 0 0
2021091760 0.09554997831583023 -0.28335878252983093 -0.03203283250331879 0.007971572689712048 0 0 0 0
2024813844 0.0725213959813118 -0.28775882720947266 -0.030095309019088745 0.013813471421599388 0 0 0 0
2028535928 0.04866333305835724 -0.2881662845611572 -0.026742223650217056 0.019159238785505295 0 0 0 0
2032258012 0.028763990849256516 -0.28407129645347595 -0.023184236139059067 0.023398976773023605 0 0 0 0
2035980096 0.006950177252292633 -0.27690112590789795 -0.018561413511633873 0.026331748813390732 0 0 0 0
2039702180 -0.014014847576618195 -0.2666758894920349 -0.013487828895449638 0.029405511915683746 0 0 0 0
2043424264 -0.03217064589262009 -0.2531505227088928 -0.00851462222635746 0.030725903809070587 0 0 0 0
2047146348 -0.0498807430267334 -0.23736664652824402 -0.0033653797581791878 0.03186095133423805 0 0 0 0
2050868432 -0.06467942893505096 -0.21748903393745422 0.0019289543852210045 0.031972456723451614 0 0 0 0
2054590516 -0.07563371956348419 -0.19451184570789337 0.00713732372969389 0.03138133883476257 0 0 0 0
2058312600 -0.0841054618358612 -0.1699768453836441 0.012501641176640987 0.0300067700445652 0 0 0 0
2062034684 -0.08805738389492035 -0.14453762769699097 0.017715930938720703 0.02759614959359169 0 0 0 0
2065756768 -0.08691993355751038 -0.11906992644071579 0.022264733910560608 0.023945998400449753 0 0 0 0
2069478852 -0.08245769143104553 -0.09291017800569534 0.02655193768441677 0.01939001865684986 0 0 0 0
2073200936 -0.07531852275133133 -0.06692781299352646 0.03001655824482441 0.014003323391079903 0 0 0 0
2076923020 -0.06359320133924484 -0.04197072610259056 0.0317220538854599 0.00785662792623043 0 0 0 0
2080645104 -0.047751110047101974 -0.017761141061782837 0.031899116933345795 0.001689632423222065 0 0 0 0
2084367188 -0.027885466814041138 0.0030372533947229385 0.031023304909467697 -0.004176963120698929 0 0 0 0
2088089272 -0.004446584731340408 0.021454256027936935 0.02902292273938656 -0.009508976712822914 0 0 0 0
2091811356 0.022208303213119507 0.03583056479692459 0.026343336328864098 -0.014292323030531406 0 0 0 0
2095533440 0.05022876709699631 0.04726002365350723 0.023123640567064285 -0.017969341948628426 0 0 0 0
2099255524 0.08144081383943558 0.053802791982889175 0.01929984614253044 -0.02135544642806053 0 0 0 0
2102977608 0.11527528613805771 0.05586277320981026 0.014948839321732521 -0.023987745866179466 0 0 0 0
2106699692 0.14909648895263672 0.05111626163125038 0.01086696982383728 -0.02582004852592945 0 0 0 0
2110421776 0.1820146143436432 0.03952014818787575 0.0061506237834692 -0.027509359642863274 0 0 0 0
2114143860 0.2124757468700409 0.021519944071769714 0.0008738450706005096 -0.028224416077136993 0 0 0 0
2117865944 0.2391815483570099 0.001317836344242096 -0.004654734395444393 -0.027413159608840942 0 0 0 0
2121588028 0.26073142886161804 -0.027297597378492355 -0.0094290841370821 -0.025716057047247887 0 0 0 0
2125310112 0.2770054340362549 -0.05470646917819977 -0.013624569401144981 -0.023232318460941315 0 0 0 0
2129032196 0.2873399257659912 -0.0843183696269989 -0.017790287733078003 -0.02014329470694065 0 0 0 0
2132754280 0.2942482829093933 -0.11630542576313019 -0.021264811977744102 -0.016196750104427338 0 0 0 0
2136476364 0.2966039478778839 -0.14656281471252441 -0.023734096437692642 -0.011324530467391014 0 0 0 0
2140198448 0.2945605516433716 -0.17874670028686523 -0.024778341874480247 -0.005907503888010979 0 0 0 0
2143920532 0.28589949011802673 -0.20940455794334412 -0.02394900470972061 -0.0008109398186206818 0 0 0 0
2147642616 0.2770509719848633 -0.23689091205596924 -0.022280704230070114 0.0028818445280194283 0 0 0 0
2151364700 0.2606540322303772 -0.26521816849708557 -0.020556682720780373 0.005962072871625423 0 0 0 0
2155086784 0.2394627034664154 -0.2900927662849426 -0.01870271936058998 0.0086640864610672 0 0 0 0
2158808868 0.21599477529525757 -0.30931565165519714 -0.016919536516070366 0.010745610110461712 0 0 0 0
2162530952 0.1885433793067932 -0.3252415955066681 -0.014785541221499443 0.012765000574290752 0 0 0 0
2166253036 0.15866462886333466 -0.3359379470348358 -0.012738164514303207 0.01442242506891489 0 0 0 0
2169975120 0.12912386655807495 -0.34223902225494385 -0.01010297890752554 0.01623218134045601 0 0 0 0
2173697204 0.0978567972779274 -0.3444678783416748 -0.007074577733874321 0.01718219369649887 0 0 0 0
2177419288 0.066559799015522 -0.34272336959838867 -0.004506041295826435 0.017346598207950592 0 0 0 0
2181141372 0.037453874945640564 -0.3358026444911957 -0.00228312611579895 0.017478052526712418 0 0 0 0
2184863456 0.00910063087940216 -0.3231406509876251 -0.00033650826662778854 0.017798760905861855 0 0 0 0
2188585540 -0.01582549512386322 -0.3065134286880493 0.002249876968562603 0.018122095614671707 0 0 0 0
2192307624 -0.04114341735839844 -0.2846750020980835 0.005359322763979435 0.01796090044081211 0 0 0 0
2196029708 -0.06016366928815842 -0.2596755623817444 0.00829322263598442 0.017207071185112 0 0 0 0
2199751792 -0.07598818838596344 -0.23249602317810059 0.011904914863407612 0.015627361834049225 0 0 0 0
2203473876 -0.08678576350212097 -0.20160503685474396 0.014693635515868664 0.013065977022051811 0 0 0 0
2207195960 -0.09104505181312561 -0.17239068448543549 0.016709500923752785 0.009636294096708298 0 0 0 0
2210918044 -0.09394954144954681 -0.13916510343551636 0.01770040951669216 0.005904887802898884 0 0 0 0
2214640128 -0.08829699456691742 -0.10849137604236603 0.01773473434150219 0.0027446793392300606 0 0 0 0
2218362212 -0.07925329357385635 -0.07811271399259567 0.01732792519032955 -0.00028511881828308105 0 0 0 0
2222084296 -0.06463436782360077 -0.04899097979068756 0.016661331057548523 -0.0026615355163812637 0 0 0 0
2225806380 -0.045126378536224365 -0.020523443818092346 0.015705907717347145 -0.004917350597679615 0 0 0 0
2229528464 -0.019413650035858154 0.0036601005122065544 0.014792757108807564 -0.007398880086839199 0 0 0 0
2233250548 0.010755482129752636 0.021303724497556686 0.013709711842238903 -0.009878413751721382 0 0 0 0
2236972632 0.04279647767543793 0.0328342579305172 0.0115739144384861 -0.012549947015941143 0 0 0 0
2240694716 0.07662174850702286 0.038419872522354126 0.009108345955610275 -0.014440526254475117 0 0 0 0
2244416800 0.1107131764292717 0.03540227562189102 0.00612473301589489 -0.015728581696748734 0 0 0 0
2248138884 0.14305774867534637 0.029382960870862007 0.0032996060326695442 -0.016618557274341583 0 0 0 0
2251860968 0.1731972098350525 0.014439091086387634 -0.0002001449465751648 -0.017361018806695938 0 0 0 0
2255583052 0.19938631355762482 -0.0074828751385211945 -0.003919793292880058 -0.016721049323678017 0 0 0 0
2259305136 0.22330042719841003 -0.025012806057929993 -0.006904208101332188 -0.01483903732150793 0 0 0 0
2263027220 0.24071723222732544 -0.052200011909008026 -0.009112922474741936 -0.012247282080352306 0 0 0 0
2266749304 0.2512977123260498 -0.08061525970697403 -0.009723042137920856 -0.009998124092817307 0 0 0 0
2270471388 0.25865525007247925 -0.10677461326122284 -0.010111464187502861 -0.007705847732722759 0 0 0 0
2274193472 0.25889256596565247 -0.1342744380235672 -0.010001290589571 -0.006548685021698475 0 0 0 0
2277915556 0.25155338644981384 -0.16964393854141235 -0.010197772644460201 -0.0057722656056284904 0 0 0 0
2281637640 0.2471705675125122 -0.1915624439716339 -0.01109488308429718 -0.005270141176879406 0 0 0 0
2285359724 0.23417209088802338 -0.21669809520244598 -0.012234630063176155 -0.004189116880297661 0 0 0 0
2289081808 0.21439175307750702 -0.24030795693397522 -0.013069071806967258 -0.002355162985622883 0 0 0 0
2292803892 0.19772367179393768 -0.25611576437950134 -0.013499068096280098 -0.0006899461150169373 0 0 0 0
2296525976 0.16815797984600067 -0.27378612756729126 -0.013941284269094467 0.0010612411424517632 0 0 0 0
2300248060 0.1437416821718216 -0.280648410320282 -0.014126709662377834 0.0034741079434752464 0 0 0 0
2303970144 0.12209843844175339 -0.2860562801361084 -0.013298160396516323 0.005838198587298393 0 0 0 0
2307692228 0.09041165560483932 -0.2852635383605957 -0.01214977353811264 0.007850406691432 0 0 0 0
2311414312 0.06519874185323715 -0.2805834412574768 -0.01051228679716587 0.009699276648461819 0 0 0 0
2315136396 0.04284272715449333 -0.27174174785614014 -0.008479679934680462 0.011008912697434425 0 0 0 0
2318858480 0.015519604086875916 -0.2590446472167969 -0.006488819606602192 0.01178596168756485 0 0 0 0
2322580564 -0.008223757147789001 -0.2416602075099945 -0.004654597491025925 0.011917471885681152 0 0 0 0
2326302648 -0.020529478788375854 -0.21990974247455597 -0.0028670253232121468 0.012097908183932304 0 0 0 0
2330024732 -0.0386272668838501 -0.19566279649734497 -0.001648932695388794 0.011973339132964611 0 0 0 0
2333746816 -0.0471968799829483 -0.16947084665298462 0.00017117802053689957 0.011609988287091255 0 0 0 0
2337468900 -0.051591843366622925 -0.14180874824523926 0.0017639463767409325 0.011258632875978947 0 0 0 0
2341190984 -0.05445188656449318 -0.11017047613859177 0.0031166598200798035 0.01060784887522459 0 0 0 0
2344913068 -0.04702005162835121 -0.08145839720964432 0.004523470066487789 0.009543742053210735 0 0 0 0
2348635152 -0.03702438250184059 -0.05263267457485199 0.005466935224831104 0.008166767656803131 0 0 0 0
2352357236 -0.02122761867940426 -0.026474857702851295 0.005996398627758026 0.006904188543558121 0 0 0 0
2356079320 0.00047756824642419815 -0.0036909934133291245 0.006326859816908836 0.005952111445367336 0 0 0 0
2359801404 0.025768524035811424 0.014649967662990093 0.006887623108923435 0.00489545613527298 0 0 0 0
2363523488 0.053021423518657684 0.02768586203455925 0.007466768845915794 0.0035376232117414474 0 0 0 0
2367245572 0.08125174045562744 0.03636308014392853 0.007559172809123993 0.0020772097632288933 0 0 0 0
2370967656 0.11077455431222916 0.04002203419804573 0.0073853665962815285 0.0004186602309346199 0 0 0 0
2374689740 0.14038287103176117 0.03987036272883415 0.006273840554058552 -0.000963311642408371 0 0 0 0
2378411824 0.16961804032325745 0.0354539230465889 0.00475918035954237 -0.0015737814828753471 0 0 0 0
2382133908 0.19908444583415985 0.02712203562259674 0.003666609525680542 -0.0014317985624074936 0 0 0 0
2385855992 0.22746168076992035 0.011003909632563591 0.0031662313267588615 -0.0010409317910671234 0 0 0 0
2389578076 0.25284281373023987 -0.007458209991455078 0.0031309714540839195 -0.0008092848584055901 0 0 0 0
2393300160 0.273678183555603 -0.03460383415222168 0.003200068138539791 -0.0007186857983469963 0 0 0 0
2397022244 0.29021164774894714 -0.06254412978887558 0.0034258170053362846 -0.0011119693517684937 0 0 0 0
2400744328 0.3026355803012848 -0.09306176006793976 0.003576202318072319 -0.0016992324963212013 0 0 0 0
2404466412 0.30763423442840576 -0.12166474759578705 0.0032135453075170517 -0.0022221067920327187 0 0 0 0
2408188496 0.30745643377304077 -0.15876108407974243 0.002826213836669922 -0.0028006238862872124 0 0 0 0
2411910580 0.3034205734729767 -0.18898338079452515 0.0023174257948994637 -0.0033086296170949936 0 0 0 0
2415632664 0.2938142716884613 -0.21692213416099548 0.0015408890321850777 -0.003839823417365551 0 0 0 0
2419354748 0.2756582498550415 -0.24713897705078125 0.0004999544471502304 -0.0037710461765527725 0 0 0 0
2423076832 0.25961029529571533 -0.2694602608680725 -0.00039067771285772324 -0.0033687809482216835 0 0 0 0
2426798916 0.2350701540708542 -0.2904144525527954 -0.0009907735511660576 -0.0026687774807214737 0 0 0 0
2430521000 0.21029719710350037 -0.30774807929992676 -0.0012309197336435318 -0.001953616738319397 0 0 0 0
2434243084 0.18666523694992065 -0.3191221058368683 -0.0011825626716017723 -0.0012557292357087135 0 0 0 0
2437965168 0.16193333268165588 -0.32682549953460693 -0.0007204758003354073 -0.0006737951189279556 0 0 0 0
2441687252 0.13396279513835907 -0.3336201608181 0.00010020937770605087 -0.0004268782213330269 0 0 0 0
2445409336 0.10628679394721985 -0.33706673979759216 0.0007487908005714417 -0.0007300376892089844 0 0 0 0
2449131420 0.07546486705541611 -0.3361460864543915 0.0013472465798258781 -0.0014874003827571869 0 0 0 0
2452853504 0.04980040714144707 -0.33081504702568054 0.001416764222085476 -0.0022054966539144516 0 0 0 0
2456575588 0.018079299479722977 -0.3215012550354004 0.0011211903765797615 -0.0031742220744490623 0 0 0 0
2460297672 -0.008276984095573425 -0.30612245202064514 0.0004883147776126862 -0.003818211145699024 0 0 0 0
2464019756 -0.03682325780391693 -0.28686758875846863 -0.0002797050401568413 -0.004304573871195316 0 0 0 0
2467741840 -0.05767539143562317 -0.2634095549583435 -0.0008502388373017311 -0.0044787488877773285 0 0 0 0
2471463924 -0.07756862044334412 -0.23514170944690704 -0.0017092321068048477 -0.0045416150242090225 0 0 0 0
2475186008 -0.09054911136627197 -0.204912930727005 -0.0024236785247921944 -0.004542290233075619 0 0 0 0
2478908092 -0.09736305475234985 -0.17236655950546265 -0.003098204731941223 -0.004679044708609581 0 0 0 0
2482630176 -0.10034531354904175 -0.13807721436023712 -0.004078764468431473 -0.0045095402747392654 0 0 0 0
2486352260 -0.09503185749053955 -0.10637778043746948 -0.004923666827380657 -0.003976089879870415 0 0 0 0
2490074344 -0.08680538088083267 -0.07562850415706635 -0.005804924294352531 -0.003470730036497116 0 0 0 0
2493796428 -0.07350281625986099 -0.04655449837446213 -0.006294529885053635 -0.002949037589132786 0 0 0 0
2497518512 -0.05646790564060211 -0.020972946658730507 -0.0071440087631344795 -0.0023425156250596046 0 0 0 0
2501240596 -0.03638705983757973 0.0020485129207372665 -0.007845425978302956 -0.0014829346910119057 0 0 0 0
2504962680 -0.01254512369632721 0.02204790711402893 -0.00858866237103939 -0.00021237879991531372 0 0 0 0
2508684764 0.014442002400755882 0.03776673600077629 -0.008921138010919094 0.0013802936300635338 0 0 0 0
2512406848 0.042996734380722046 0.04889295995235443 -0.00901612639427185 0.0028846682980656624 0 0 0 0
2516128932 0.07238972932100296 0.05580896884202957 -0.008722646161913872 0.004645658656954765 0 0 0 0
2519851016 0.10321996361017227 0.057094961404800415 -0.007663077674806118 0.0064992476254701614 0 0 0 0
2523573100 0.13256308436393738 0.05231301486492157 -0.00624871626496315 0.0077237775549292564 0 0 0 0
2527295184 0.16182635724544525 0.044565267860889435 -0.0045856693759560585 0.008392628282308578 0 0 0 0
2531017268 0.18897312879562378 0.032018519937992096 -0.003231106325984001 0.008743874728679657 0 0 0 0
2534739352 0.21255967020988464 0.013211689889431 -0.0019010789692401886 0.00891484972089529 0 0 0 0
2538461436 0.23274368047714233 -0.005063340067863464 -0.00035650376230478287 0.008878243155777454 0 0 0 0
2542183520 0.24767984449863434 -0.03257055580615997 0.001113981008529663 0.00852968916296959 0 0 0 0
2545905604 0.2580307722091675 -0.057253025472164154 0.0023457063362002373 0.008093805983662605 0 0 0 0
2549627688 0.2634997069835663 -0.08159631490707397 0.0032115476205945015 0.007396024651825428 0 0 0 0
2553349772 0.266762375831604 -0.10510659217834473 0.0040381914004683495 0.0070853037759661674 0 0 0 0
2557071856 0.2620803117752075 -0.13054955005645752 0.005261635407805443 0.006310352124273777 0 0 0 0
2560793940 0.2576623857021332 -0.15318115055561066 0.006328786723315716 0.005416662432253361 0 0 0 0
2564516024 0.24813459813594818 -0.1735069900751114 0.0069425227120518684 0.004237910732626915 0 0 0 0
2568238108 0.23506800830364227 -0.19112062454223633 0.007371782325208187 0.003040475770831108 0 0 0 0
2571960192 0.22160175442695618 -0.20547202229499817 0.0077545978128910065 0.0020531797781586647 0 0 0 0
2575682276 0.2050832211971283 -0.21855603158473969 0.00803922489285469 0.0008693281561136246 0 0 0 0
2579404360 0.19198568165302277 -0.22539231181144714 0.008470871485769749 -0.0004978077486157417 0 0 0 0
2583126444 0.1738961786031723 -0.23330619931221008 0.008539081551134586 -0.002067546360194683 0 0 0 0
2586848528 0.1577640175819397 -0.2378186583518982 0.008195615373551846 -0.003930526785552502 0 0 0 0
2590570612 0.14542123675346375 -0.2396344095468521 0.0074933972209692 -0.005462067201733589 0 0 0 0
2594292696 0.12950600683689117 -0.23911646008491516 0.00615597702562809 -0.006981712765991688 0 0 0 0
2598014780 0.11512812227010727 -0.23738715052604675 0.004749557934701443 -0.007896914146840572 0 0 0 0
2601736864 0.09984360635280609 -0.2333543747663498 0.002888358198106289 -0.008485060185194016 0 0 0 0
2605458948 0.08749888837337494 -0.22660984098911285 0.001316918060183525 -0.008488820865750313 0 0 0 0
2609181032 0.07746167480945587 -0.22047704458236694 9.730271995067596e-05 -0.008086352609097958 0 0 0 0
2612903116 0.06780654191970825 -0.21225929260253906 -0.0006803954020142555 -0.007811645045876503 0 0 0 0
2616625200 0.060682203620672226 -0.20287111401557922 -0.0016021598130464554 -0.007612545043230057 0 0 0 0
2620347284 0.053529977798461914 -0.1928131878376007 -0.0022039441391825676 -0.007328120991587639 0 0 0 0
2624069368 0.049741193652153015 -0.18224534392356873 -0.0029485058039426804 -0.0072685061022639275 0 0 0 0
2627791452 0.04805763065814972 -0.17173859477043152 -0.003982760943472385 -0.006911909207701683 0 0 0 0
2631513536 0.046193160116672516 -0.1617753654718399 -0.0044766925275325775 -0.006577896885573864 0 0 0 0
2635235620 0.047016680240631104 -0.15157178044319153 -0.005353126674890518 -0.006319438107311726 0 0 0 0
2638957704 0.05009067803621292 -0.14142568409442902 -0.006237913854420185 -0.006162308156490326 0 0 0 0
2642679788 0.05401767045259476 -0.13349048793315887 -0.0074769314378499985 -0.005524800159037113 0 0 0 0
2646401872 0.05893945321440697 -0.1269446760416031 -0.008318793959915638 -0.004727271385490894 0 0 0 0
2650123956 0.06597428023815155 -0.12043246626853943 -0.009322727099061012 -0.0037619173526763916 0 0 0 0
2653846040 0.07351838797330856 -0.11641820520162582 -0.01043025217950344 -0.0026058200746774673 0 0 0 0
2657568124 0.08140513300895691 -0.11495695263147354 -0.01141827367246151 -0.0007796520367264748 0 0 0 0
2661290208 0.09048551321029663 -0.11491484194993973 -0.011880570091307163 0.0014541400596499443 0 0 0 0
2665012292 0.0979795753955841 -0.11653593182563782 -0.011871350929141045 0.003708716481924057 0 0 0 0
2668734376 0.10167578607797623 -0.12056395411491394 -0.011087769642472267 0.006101159378886223 0 0 0 0
2672456460 0.10556958615779877 -0.12607677280902863 -0.009526757523417473 0.008336706086993217 0 0 0 0
2676178544 0.1080140545964241 -0.1304812878370285 -0.0075919292867183685 0.009930058382451534 0 0 0 0
2679900628 0.11110461503267288 -0.1340571939945221 -0.005429877899587154 0.011156187392771244 0 0 0 0
2683622712 0.11282522231340408 -0.13966941833496094 -0.0031916657462716103 0.011823354288935661 0 0 0 0
2687344796 0.11202304065227509 -0.14510884881019592 -0.000669470988214016 0.012009726837277412 0 0 0 0
2691066880 0.11169341206550598 -0.15188907086849213 0.0018719183281064034 0.011493573896586895 0 0 0 0
2694788964 0.10987308621406555 -0.15717652440071106 0.0039374129846692085 0.010336687788367271 0 0 0 0
2698511048 0.10691878199577332 -0.16267800331115723 0.005451132543385029 0.009312608279287815 0 0 0 0
2702233132 0.10211453586816788 -0.16870395839214325 0.006694707088172436 0.007955309003591537 0 0 0 0
2705955216 0.09605693817138672 -0.17429429292678833 0.007783508859574795 0.006864815950393677 0 0 0 0
2709677300 0.08823502063751221 -0.17895273864269257 0.008931683376431465 0.005264735780656338 0 0 0 0
2713399384 0.07815144956111908 -0.1820034384727478 0.009947279468178749 0.003621715120971203 0 0 0 0
2717121468 0.06720628589391708 -0.1836278736591339 0.010642114095389843 0.001595047302544117 0 0 0 0
2720843552 0.05494065210223198 -0.18111611902713776 0.010759376920759678 -0.0005606263875961304 0 0 0 0
2724565636 0.043520115315914154 -0.17703907191753387 0.01049811951816082 -0.0029199933633208275 0 0 0 0
2728287720 0.03308896720409393 -0.17006699740886688 0.009780151769518852 -0.004972381517291069 0 0 0 0
2732009804 0.023449435830116272 -0.1614820510149002 0.008473843336105347 -0.006794508546590805 0 0 0 0
2735731888 0.015294142067432404 -0.15074481070041656 0.007206236012279987 -0.008303429000079632 0 0 0 0
2739453972 0.008835162967443466 -0.1377580463886261 0.005562005564570427 -0.009565834887325764 0 0 0 0
2743176056 0.004196569323539734 -0.12322171032428741 0.0034947115927934647 -0.010894575156271458 0 0 0 0
2746898140 0.0020001642405986786 -0.10759521275758743 0.0010716840624809265 -0.01155867613852024 0 0 0 0
2750620224 0.003974694758653641 -0.09234292805194855 -0.0015684990212321281 -0.011610059067606926 0 0 0 0
2754342308 0.006571656093001366 -0.07669289410114288 -0.0040054600685834885 -0.01087622158229351 0 0 0 0
2758064392 0.01307497825473547 -0.062038931995630264 -0.006189220584928989 -0.009629067033529282 0 0 0 0
2761786476 0.02279861830174923 -0.04776695370674133 -0.008001423440873623 -0.007915799506008625 0 0 0 0
2765508560 0.034264031797647476 -0.03583088517189026 -0.009211907163262367 -0.005803798325359821 0 0 0 0
2769230644 0.04752481356263161 -0.026281729340553284 -0.009891926310956478 -0.003599257208406925 0 0 0 0
2772952728 0.061557721346616745 -0.01794271357357502 -0.010078266263008118 -0.0013958737254142761 0 0 0 0
2776674812 0.07739061117172241 -0.011456746608018875 -0.009905521757900715 0.0004597082734107971 0 0 0 0
2780396896 0.09414789825677872 -0.007635751739144325 -0.009287857450544834 0.0024717096239328384 0 0 0 0
2784118980 0.11135168373584747 -0.00452040508389473 -0.008379456587135792 0.004319526255130768 0 0 0 0
2787841064 0.1303635537624359 -0.005265064537525177 -0.007221382111310959 0.005925665609538555 0 0 0 0
2791563148 0.14927075803279877 -0.009586647152900696 -0.0051276711747050285 0.007494530640542507 0 0 0 0
2795285232 0.16739554703235626 -0.015698563307523727 -0.0027682017534971237 0.008103379048407078 0 0 0 0
2799007316 0.1842319369316101 -0.026358943432569504 -0.0005361596122384071 0.007883633486926556 0 0 0 0
2802729400 0.2001921534538269 -0.03721713274717331 0.001032092608511448 0.007084157317876816 0 0 0 0
2806451484 0.21340428292751312 -0.05476253479719162 0.002302219159901142 0.006005451083183289 0 0 0 0
2810173568 0.2247561812400818 -0.07063131034374237 0.0030796919018030167 0.005016429349780083 0 0 0 0
2813895652 0.23570461571216583 -0.08650414645671844 0.0036665890365839005 0.004335618577897549 0 0 0 0
2817617736 0.24233555793762207 -0.10614771395921707 0.004361950792372227 0.0034281956031918526 0 0 0 0
2821339820 0.24524235725402832 -0.12874706089496613 0.004777321591973305 0.002326139248907566 0 0 0 0
2825061904 0.24743784964084625 -0.14863590896129608 0.004878467880189419 0.0014608055353164673 0 0 0 0
2828783988 0.24485912919044495 -0.17015784978866577 0.005004720762372017 0.0006413459777832031 0 0 0 0
2832506072 0.2415534406900406 -0.19188562035560608 0.005057147704064846 -0.0002563856542110443 0 0 0 0
2836228156 0.2337421178817749 -0.21231280267238617 0.0049331579357385635 -0.0012588351964950562 0 0 0 0
2839950240 0.22256259620189667 -0.235770583152771 0.004562799818813801 -0.002108503133058548 0 0 0 0
2843672324 0.20998653769493103 -0.2523961067199707 0.004089907743036747 -0.0027204761281609535 0 0 0 0
2847394408 0.19137215614318848 -0.27085423469543457 0.0037173861637711525 -0.003116423264145851 0 0 0 0
2851116492 0.1737038642168045 -0.2878590226173401 0.003461794927716255 -0.003675018437206745 0 0 0 0
2854838576 0.15078230202198029 -0.29951632022857666 0.0030601825565099716 -0.004412681795656681 0 0 0 0
2858560660 0.13709202408790588 -0.30891865491867065 0.002761787734925747 -0.005468354560434818 0 0 0 0
2862282744 0.10613524913787842 -0.3164300322532654 0.001457924023270607 -0.006359688006341457 0 0 0 0
2866004828 0.0856308862566948 -0.31813305616378784 0.0002676350995898247 -0.00662821251899004 0 0 0 0
2869726912 0.061089158058166504 -0.31912195682525635 -0.001214815303683281 -0.006597342900931835 0 0 0 0
2873448996 0.03580005094408989 -0.3154100179672241 -0.0025173407047986984 -0.006006663665175438 0 0 0 0
2877171080 0.009454697370529175 -0.30907049775123596 -0.003871796652674675 -0.005070446990430355 0 0 0 0
2880893164 -0.010897774249315262 -0.2994348704814911 -0.004494301974773407 -0.003966693766415119 0 0 0 0
2884615248 -0.03452564775943756 -0.28749778866767883 -0.004799794405698776 -0.0026912419125437737 0 0 0 0
2888337332 -0.05171268433332443 -0.2734528183937073 -0.004816126078367233 -0.0016703363507986069 0 0 0 0
2892059416 -0.07373716682195663 -0.25508198142051697 -0.004681603983044624 -0.0007372284308075905 0 0 0 0
2895781500 -0.08894723653793335 -0.23450270295143127 -0.004470434971153736 8.218362927436829e-05 0 0 0 0
2899503584 -0.10282698273658752 -0.21161825954914093 -0.0042410958558321 0.0008659595623612404 0 0 0 0
2903225668 -0.11422523856163025 -0.1864854097366333 -0.0037224898114800453 0.0017341766506433487 0 0 0 0
2906947752 -0.12031396478414536 -0.16204392910003662 -0.003132076933979988 0.002266273833811283 0 0 0 0
2910669836 -0.12381388247013092 -0.1368032842874527 -0.0024444200098514557 0.0028502214699983597 0 0 0 0
2914391920 -0.12437384575605392 -0.1082177609205246 -0.0016119712963700294 0.0032050032168626785 0 0 0 0
2918114004 -0.12069331109523773 -0.08145637810230255 -0.0005870060995221138 0.0034708306193351746 0 0 0 0
2921836088 -0.1133880615234375 -0.05688067153096199 0.0003452785313129425 0.003310159780085087 0 0 0 0
2925558172 -0.10390368849039078 -0.030855324119329453 0.001113356091082096 0.002853044308722019 0 0 0 0
2929280256 -0.0909329354763031 -0.006666779518127441 0.0016626771539449692 0.002228311263024807 0 0 0 0
2933002340 -0.07403713464736938 0.014560016803443432 0.0017230743542313576 0.0016995081678032875 0 0 0 0
2936724424 -0.054421890527009964 0.03285359591245651 0.0018113218247890472 0.001450100913643837 0 0 0 0
2940446508 -0.03301021084189415 0.049022331833839417 0.001841193065047264 0.0012685377150774002 0 0 0 0
2944168592 -0.00935819186270237 0.062158141285181046 0.0019735367968678474 0.0011120270937681198 0 0 0 0
2947890676 0.016569262370467186 0.07225947827100754 0.0023266207426786423 0.0010111825540661812 0 0 0 0
2951612760 0.04228817671537399 0.07865657657384872 0.0025384724140167236 0.0008587762713432312 0 0 0 0
2955334844 0.06851813942193985 0.08220914751291275 0.0029066670686006546 0.0004293704405426979 0 0 0 0
2959056928 0.09581346809864044 0.08159512281417847 0.0032904911786317825 0.0002582995221018791 0 0 0 0
2962779012 0.12312666326761246 0.07629962265491486 0.0037111910060048103 -0.00020726770162582397 0 0 0 0
2966501096 0.14821948111057281 0.06730620563030243 0.0039761727675795555 -0.001088782213628292 0 0 0 0
2970223180 0.17013424634933472 0.056817151606082916 0.003902062773704529 -0.002044178545475006 0 0 0 0
2973945264 0.19157271087169647 0.04171345755457878 0.0033770427107810974 -0.003103671595454216 0 0 0 0
2977667348 0.21120640635490417 0.02313232421875 0.002747601829469204 -0.003764769993722439 0 0 0 0
2981389432 0.22751855850219727 0.002758629620075226 0.0019410951063036919 -0.004280835390090942 0 0 0 0
2985111516 0.24050748348236084 -0.01617242395877838 0.0010418090969324112 -0.004661867395043373 0 0 0 0
2988833600 0.24964098632335663 -0.0389271043241024 -0.00026820041239261627 -0.004641100764274597 0 0 0 0
2992555684 0.2570037841796875 -0.060078516602516174 -0.0012006768956780434 -0.00452282652258873 0 0 0 0
2996277768 0.2611505389213562 -0.08312977850437164 -0.002353358082473278 -0.004003547132015228 0 0 0 0
2999999852 0.26204991340637207 -0.10791686177253723 -0.003171107731759548 -0.003288881853222847 0 0 0 0
