# HZ S RI R 50
1500000000 -0.10548587888479233 -0.0068209487944841385 0.03964068740606308 -0.029677748680114746 0 0 0 0
1503722084 -0.08548241853713989 0.020367003977298737 0.03284355252981186 -0.03431138023734093 0 0 0 0
1507444168 -0.05879576504230499 0.04376644641160965 0.026855938136577606 -0.03755183517932892 0 0 0 0
1511166252 -0.025257762521505356 0.06199396029114723 0.020624123513698578 -0.04056703671813011 0 0 0 0
1514888336 0.010609692893922329 0.07343626022338867 0.01416670624166727 -0.04291641339659691 0 0 0 0
1518610420 0.047125838696956635 0.0790700763463974 0.007464246824383736 -0.04458289220929146 0 0 0 0
1522332504 0.0858566164970398 0.0795409232378006 0.0002806149423122406 -0.04568874463438988 0 0 0 0
1526054588 0.1250714808702469 0.0756642296910286 -0.008429326117038727 -0.04532796889543533 0 0 0 0
1529776672 0.16613540053367615 0.06520028412342072 -0.01714840903878212 -0.041513558477163315 0 0 0 0
1533498756 0.20802980661392212 0.045853644609451294 -0.023816127330064774 -0.03588837385177612 0 0 0 0
1537220840 0.24671906232833862 0.019834794104099274 -0.02826944924890995 -0.029696572571992874 0 0 0 0
1540942924 0.28030261397361755 -0.012916356325149536 -0.031249437481164932 -0.023298494517803192 0 0 0 0
1544665008 0.30897045135498047 -0.05207296088337898 -0.0329848974943161 -0.016942694783210754 0 0 0 0
1548387092 0.3313612937927246 -0.09697665274143219 -0.03338002413511276 -0.010915623046457767 0 0 0 0
1552109176 0.3450336754322052 -0.14522063732147217 -0.03253963589668274 -0.005199314095079899 0 0 0 0
1555831260 0.3524637818336487 -0.19263245165348053 -0.030812738463282585 -0.0004213135689496994 0 0 0 0
1559553344 0.3523578643798828 -0.24341851472854614 -0.028764907270669937 0.003162141889333725 0 0 0 0
1563275428 0.34475070238113403 -0.2959076464176178 -0.026715217158198357 0.006467933766543865 0 0 0 0
1566997512 0.32945865392684937 -0.34583720564842224 -0.024599654600024223 0.00948629342019558 0 0 0 0
1570719596 0.3021159768104553 -0.3944907486438751 -0.022170403972268105 0.011680244468152523 0 0 0 0
1574441680 0.2689281404018402 -0.4358356297016144 -0.019712109118700027 0.013506458140909672 0 0 0 0
1578163764 0.2348639965057373 -0.4709153473377228 -0.017727375030517578 0.014891191385686398 0 0 0 0
1581885848 0.19602108001708984 -0.5025965571403503 -0.015806112438440323 0.01652277633547783 0 0 0 0
1585607932 0.14677253365516663 -0.5289138555526733 -0.013506478630006313 0.017942579463124275 0 0 0 0
1589330016 0.0977538526058197 -0.5501560568809509 -0.010935992002487183 0.018969424068927765 0 0 0 0
1593052100 0.044246457517147064 -0.5651648640632629 -0.008580641821026802 0.01980743557214737 0 0 0 0
1596774184 -0.007732773199677467 -0.5708200931549072 -0.006482962518930435 0.020483624190092087 0 0 0 0
1600496268 -0.06481515616178513 -0.5696542859077454 -0.004036407917737961 0.02113386243581772 0 0 0 0
1604218352 -0.12112126499414444 -0.5581697225570679 -0.0017327098175883293 0.021678421646356583 0 0 0 0
1607940436 -0.17352966964244843 -0.5413503050804138 0.0007186923176050186 0.0222318097949028 0 0 0 0
1611662520 -0.2269953042268753 -0.5161117315292358 0.0038003791123628616 0.02279018983244896 0 0 0 0
1615384604 -0.2757222056388855 -0.4840432405471802 0.0073663825169205666 0.023056477308273315 0 0 0 0
1619106688 -0.3216223120689392 -0.4424777328968048 0.011376379057765007 0.02221829816699028 0 0 0 0
1622828772 -0.3612455129623413 -0.39351221919059753 0.015446842648088932 0.020728256553411484 0 0 0 0
1626550856 -0.3928537964820862 -0.3429006338119507 0.019307304173707962 0.018307305872440338 0 0 0 0
1630272940 -0.41844040155410767 -0.285021036863327 0.022747322916984558 0.015024714171886444 0 0 0 0
1633995024 -0.4381773769855499 -0.219872385263443 0.02589152380824089 0.010888097807765007 0 0 0 0
1637717108 -0.4457612633705139 -0.1576738804578781 0.028251565992832184 0.00637789536267519 0 0 0 0
1641439192 -0.44571876525878906 -0.09043164551258087 0.029893770813941956 0.0007161842659115791 0 0 0 0
1645161276 -0.43448352813720703 -0.021115021780133247 0.030362293124198914 -0.0058098481968045235 0 0 0 0
1648883360 -0.41314223408699036 0.04489031434059143 0.028774980455636978 -0.012605145573616028 0 0 0 0
1652605444 -0.3834317922592163 0.10672345757484436 0.024972442537546158 -0.01858937367796898 0 0 0 0
1656327528 -0.34474679827690125 0.16609323024749756 0.019768131896853447 -0.022853020578622818 0 0 0 0
1660049612 -0.29489752650260925 0.22099559009075165 0.01437778677791357 -0.025627121329307556 0 0 0 0
1663771696 -0.23614418506622314 0.2703689634799957 0.008686158806085587 -0.02743384800851345 0 0 0 0
1667493780 -0.17064951360225677 0.30869609117507935 0.0027975523844361305 -0.027852479368448257 0 0 0 0
1671215864 -0.0963972806930542 0.33796611428260803 -0.0028899144381284714 -0.027005638927221298 0 0 0 0
1674937948 -0.01797892153263092 0.35447168350219727 -0.008357391692698002 -0.024698423221707344 0 0 0 0
1678660032 0.061318427324295044 0.35819458961486816 -0.012693474069237709 -0.021178385242819786 0 0 0 0
1682382116 0.13972073793411255 0.3493981659412384 -0.0155843086540699 -0.016928840428590775 0 0 0 0
1686104200 0.21986816823482513 0.3275667130947113 -0.017296437174081802 -0.012540566734969616 0 0 0 0
1689826284 0.29386085271835327 0.2948269546031952 -0.017729684710502625 -0.00856771133840084 0 0 0 0
1693548368 0.36271998286247253 0.24800588190555573 -0.017583699896931648 -0.005081494338810444 0 0 0 0
1697270452 0.4208502769470215 0.19433042407035828 -0.016913944855332375 -0.0019538961350917816 0 0 0 0
1700992536 0.47108468413352966 0.12986455857753754 -0.01593456044793129 0.0007662372663617134 0 0 0 0
1704714620 0.5098303556442261 0.05631418526172638 -0.014568548649549484 0.003248244524002075 0 0 0 0
1708436704 0.5367550253868103 -0.01684729754924774 -0.012763533741235733 0.005163573659956455 0 0 0 0
1712158788 0.5518577098846436 -0.09517434984445572 -0.010818284936249256 0.006614485755562782 0 0 0 0
1715880872 0.5542545318603516 -0.17273496091365814 -0.008679081685841084 0.007434454746544361 0 0 0 0
1719602956 0.5449150800704956 -0.2500264048576355 -0.006816962733864784 0.007569083012640476 0 0 0 0
1723325040 0.5264180898666382 -0.325878381729126 -0.005429686047136784 0.0077201854437589645 0 0 0 0
1727047124 0.49495458602905273 -0.39525657892227173 -0.0039478326216340065 0.007760797627270222 0 0 0 0
1730769208 0.4515228271484375 -0.45945996046066284 -0.0024722162634134293 0.007251019589602947 0 0 0 0
1734491292 0.40120214223861694 -0.5164941549301147 -0.0014074193313717842 0.006226467899978161 0 0 0 0
1738213376 0.3427942395210266 -0.5646292567253113 -0.0012404052540659904 0.005211681127548218 0 0 0 0
1741935460 0.27802616357803345 -0.6016050577163696 -0.0014917533844709396 0.004634153097867966 0 0 0 0
1745657544 0.2142966389656067 -0.6287233233451843 -0.002034692093729973 0.0046628303825855255 0 0 0 0
1749379628 0.1441190242767334 -0.6443566083908081 -0.002245277166366577 0.005321376956999302 0 0 0 0
1753101712 0.07045221328735352 -0.6501847505569458 -0.0019471757113933563 0.006117714568972588 0 0 0 0
1756823796 -0.002301633358001709 -0.6458669304847717 -0.0011115306988358498 0.006842386908829212 0 0 0 0
1760545880 -0.06812576949596405 -0.6275773644447327 -0.0002448670566082001 0.007081488147377968 0 0 0 0
1764267964 -0.13763034343719482 -0.6019901633262634 0.0007358789443969727 0.0073536112904548645 0 0 0 0
1767990048 -0.19121380150318146 -0.5667785406112671 0.0017951400950551033 0.00724042858928442 0 0 0 0
1771712132 -0.24256254732608795 -0.5249404907226562 0.002864483743906021 0.006873783655464649 0 0 0 0
1775434216 -0.28847989439964294 -0.4744254946708679 0.0036192629486322403 0.006399643607437611 0 0 0 0
1779156300 -0.3232364356517792 -0.4191820025444031 0.004362930543720722 0.00554728414863348 0 0 0 0
1782878384 -0.35087257623672485 -0.3613925576210022 0.0044920239597558975 0.0047920215874910355 0 0 0 0
1786600468 -0.3707517385482788 -0.2987501919269562 0.004369817674160004 0.004323097877204418 0 0 0 0
1790322552 -0.37757551670074463 -0.23812520503997803 0.004598679021000862 0.0043052686378359795 0 0 0 0
1794044636 -0.3771805167198181 -0.1732950508594513 0.005098694935441017 0.004102579317986965 0 0 0 0
1797766720 -0.36676719784736633 -0.11265449225902557 0.005453119985759258 0.003732636570930481 0 0 0 0
1801488804 -0.34694206714630127 -0.055869489908218384 0.005609499290585518 0.0036909496411681175 0 0 0 0
1805210888 -0.31973928213119507 0.002385169267654419 0.006221262738108635 0.004069233313202858 0 0 0 0
1808932972 -0.2836115062236786 0.04998663812875748 0.007950132712721825 0.0044249240309000015 0 0 0 0
1812655056 -0.24257081747055054 0.09061521291732788 0.010418299585580826 0.0036671217530965805 0 0 0 0
1816377140 -0.19418278336524963 0.12601187825202942 0.012817462906241417 0.0015890607610344887 0 0 0 0
1820099224 -0.1433129757642746 0.15176238119602203 0.014555307105183601 -0.0016738083213567734 0 0 0 0
1823821308 -0.08723369985818863 0.16818587481975555 0.014741071499884129 -0.005728704854846001 0 0 0 0
1827543392 -0.03178734332323074 0.17605750262737274 0.013220055028796196 -0.00940747745335102 0 0 0 0
1831265476 0.020296305418014526 0.17562420666217804 0.011048350483179092 -0.012018010020256042 0 0 0 0
1834987560 0.07328270375728607 0.16590270400047302 0.008434242568910122 -0.014022787101566792 0 0 0 0
1838709644 0.12058663368225098 0.15056654810905457 0.0058999378234148026 -0.015315566211938858 0 0 0 0
1842431728 0.165490061044693 0.12870392203330994 0.003236951306462288 -0.01602949947118759 0 0 0 0
1846153812 0.20510302484035492 0.10144646465778351 0.0006334558129310608 -0.016362706199288368 0 0 0 0
1849875896 0.24012146890163422 0.0678471103310585 -0.0018001468852162361 -0.01644439622759819 0 0 0 0
1853597980 0.2692176103591919 0.02875685691833496 -0.004416837356984615 -0.016365213319659233 0 0 0 0
1857320064 0.28967776894569397 -0.013881556689739227 -0.00729404017329216 -0.015865769237279892 0 0 0 0
1861042148 0.30308467149734497 -0.05612451583147049 -0.009746875613927841 -0.015004625543951988 0 0 0 0
1864764232 0.30901575088500977 -0.0998927652835846 -0.01244272943586111 -0.01382179744541645 0 0 0 0
1868486316 0.30770549178123474 -0.14302873611450195 -0.015311089344322681 -0.012039398774504662 0 0 0 0
1872208400 0.29930031299591064 -0.18445734679698944 -0.017842695116996765 -0.009273353032767773 0 0 0 0
1875930484 0.2853730320930481 -0.2240602970123291 -0.019602859392762184 -0.007273414172232151 0 0 0 0
1879652568 0.26513978838920593 -0.2561381757259369 -0.020903315395116806 -0.004001429304480553 0 0 0 0
1883374652 0.23970413208007812 -0.28656280040740967 -0.021575527265667915 -0.0006192484870553017 0 0 0 0
1887096736 0.2127642184495926 -0.30874136090278625 -0.02184879407286644 0.0030119623988866806 0 0 0 0
1890818820 0.18112096190452576 -0.32689306139945984 -0.021441292017698288 0.006729397922754288 0 0 0 0
1894540904 0.1504051685333252 -0.3387410640716553 -0.020612506195902824 0.010392727330327034 0 0 0 0
1898262988 0.11623214185237885 -0.34578073024749756 -0.019446933642029762 0.014358350075781345 0 0 0 0
1901985072 0.08453025668859482 -0.3462628126144409 -0.01716211810708046 0.01808561012148857 0 0 0 0
1905707156 0.05205545201897621 -0.3414589464664459 -0.01413406990468502 0.02180679701268673 0 0 0 0
1909429240 0.022985070943832397 -0.3329022526741028 -0.010056445375084877 0.02531735971570015 0 0 0 0
1913151324 -0.0027121752500534058 -0.3183000981807709 -0.00457479152828455 0.02792065218091011 0 0 0 0
1916873408 -0.026500053703784943 -0.3006589710712433 0.0018129879608750343 0.02879590168595314 0 0 0 0
1920595492 -0.04616590589284897 -0.2793910503387451 0.007919210009276867 0.027840623632073402 0 0 0 0
1924317576 -0.060040563344955444 -0.2561713457107544 0.013314425945281982 0.025594942271709442 0 0 0 0
1928039660 -0.07209412008523941 -0.23044538497924805 0.018467223271727562 0.022317377850413322 0 0 0 0
1931761744 -0.07809410989284515 -0.20526465773582458 0.023059146478772163 0.017746318131685257 0 0 0 0
1935483828 -0.08167904615402222 -0.1779387891292572 0.02615167945623398 0.011758724227547646 0 0 0 0
1939205912 -0.08019460737705231 -0.15144246816635132 0.026990244165062904 0.005325922742486 0 0 0 0
1942927996 -0.07333836704492569 -0.12526535987854004 0.026321539655327797 8.891336619853973e-06 0 0 0 0
1946650080 -0.06351273506879807 -0.09909970313310623 0.024674836546182632 -0.004864675924181938 0 0 0 0
1950372164 -0.04714009165763855 -0.0750962644815445 0.022332167252898216 -0.008835755288600922 0 0 0 0
1954094248 -0.025868065655231476 -0.05520596355199814 0.019347770139575005 -0.011910110712051392 0 0 0 0
1957816332 -0.002084573730826378 -0.04072587192058563 0.016442742198705673 -0.014553690329194069 0 0 0 0
1961538416 0.02394063025712967 -0.03141242638230324 0.013192204758524895 -0.01617623306810856 0 0 0 0
1965260500 0.050419922918081284 -0.02613966166973114 0.010331728495657444 -0.017116693779826164 0 0 0 0
1968982584 0.07770134508609772 -0.02736920677125454 0.0078006936237216 -0.01754140481352806 0 0 0 0
1972704668 0.1051647812128067 -0.03206862881779671 0.0057694194838404655 -0.017871251329779625 0 0 0 0
1976426752 0.12994062900543213 -0.04219324141740799 0.0038154609501361847 -0.01885545812547207 0 0 0 0
1980148836 0.15246671438217163 -0.05760542303323746 0.001704379916191101 -0.020080264657735825 0 0 0 0
1983870920 0.17172257602214813 -0.0758044421672821 -0.0016782255843281746 -0.021513063460588455 0 0 0 0
1987593004 0.1864534169435501 -0.09786418825387955 -0.006318920291960239 -0.021477065980434418 0 0 0 0
1991315088 0.1957377791404724 -0.12330193817615509 -0.011156640946865082 -0.020100748166441917 0 0 0 0
1995037172 0.2017998844385147 -0.1467546969652176 -0.015211045742034912 -0.017527014017105103 0 0 0 0
1998759256 0.20143020153045654 -0.17383012175559998 -0.019032318145036697 -0.014173798263072968 0 0 0 0
2002481340 0.19762057065963745 -0.19829395413398743 -0.02141665853559971 -0.010074647143483162 0 0 0 0
2006203424 0.18857482075691223 -0.22173771262168884 -0.02302512153983116 -0.005768344737589359 0 0 0 0
2009925508 0.17565631866455078 -0.2443910539150238 -0.024191252887248993 -0.001532275229692459 0 0 0 0
2013647592 0.16010287404060364 -0.2622232437133789 -0.024312566965818405 0.0030074622482061386 0 0 0 0
2017369676 0.14061547815799713 -0.2775171995162964 -0.02376057207584381 0.007560121826827526 0 0 0 0
2021091760 0.11688020080327988 -0.29046520590782166 -0.022001143544912338 0.012177900411188602 0 0 0 0
2024813844 0.09120514243841171 -0.299056738615036 -0.019173601642251015 0.016227364540100098 0 0 0 0
2028535928 0.0680885910987854 -0.30138251185417175 -0.01585107296705246 0.018642688170075417 0 0 0 0
2032258012 0.041598424315452576 -0.3007078468799591 -0.012586137279868126 0.02090478502213955 0 0 0 0
2035980096 0.016047343611717224 -0.29640674591064453 -0.00898335874080658 0.022876109927892685 0 0 0 0
2039702180 -0.006631508469581604 -0.2873866558074951 -0.005479477345943451 0.024769552052021027 0 0 0 0
2043424264 -0.03201485425233841 -0.27321940660476685 -0.00044520292431116104 0.026160113513469696 0 0 0 0
2047146348 -0.05304852873086929 -0.2553683817386627 0.004753390327095985 0.025242257863283157 0 0 0 0
2050868432 -0.0696595087647438 -0.2352282702922821 0.009201111271977425 0.023572687059640884 0 0 0 0
2054590516 -0.08356906473636627 -0.21121329069137573 0.012861927971243858 0.021054759621620178 0 0 0 0
2058312600 -0.09311056137084961 -0.18617084622383118 0.016260789707303047 0.018270721659064293 0 0 0 0
2062034684 -0.10056015104055405 -0.15833739936351776 0.01860671304166317 0.015009790658950806 0 0 0 0
2065756768 -0.10397722572088242 -0.12909479439258575 0.020504076033830643 0.011310238391160965 0 0 0 0
2069478852 -0.10137297958135605 -0.09909428656101227 0.02214367315173149 0.007816960103809834 0 0 0 0
2073200936 -0.09520070254802704 -0.06889455765485764 0.023209193721413612 0.0036444654688239098 0 0 0 0
2076923020 -0.0837075486779213 -0.03865347057580948 0.02371416613459587 -0.0006044916808605194 0 0 0 0
2080645104 -0.06647146493196487 -0.010696154087781906 0.023044854402542114 -0.005100499838590622 0 0 0 0
2084367188 -0.04410185664892197 0.015551815740764141 0.02129453979432583 -0.009574497118592262 0 0 0 0
2088089272 -0.016697410494089127 0.037866052240133286 0.018386241048574448 -0.01334710419178009 0 0 0 0
2091811356 0.015489771962165833 0.054981935769319534 0.014990211464464664 -0.01624387502670288 0 0 0 0
2095533440 0.05002715811133385 0.06573176383972168 0.011447703465819359 -0.018189145252108574 0 0 0 0
2099255524 0.08568268269300461 0.07064928859472275 0.007392053492367268 -0.019365575164556503 0 0 0 0
2102977608 0.12285783886909485 0.06901121139526367 0.0034278463572263718 -0.01956438645720482 0 0 0 0
2106699692 0.15796074271202087 0.062495194375514984 0.00025736913084983826 -0.019023483619093895 0 0 0 0
2110421776 0.1927727907896042 0.04632645845413208 -0.0028888974338769913 -0.018438514322042465 0 0 0 0
2114143860 0.22371841967105865 0.027612077072262764 -0.005550782196223736 -0.017389828339219093 0 0 0 0
2117865944 0.24995695054531097 0.0028788521885871887 -0.008669225499033928 -0.016391180455684662 0 0 0 0
2121588028 0.2709929645061493 -0.02515697479248047 -0.011469748802483082 -0.01458758395165205 0 0 0 0
2125310112 0.28706037998199463 -0.05800868570804596 -0.01381661556661129 -0.012146897614002228 0 0 0 0
2129032196 0.29879486560821533 -0.0875541940331459 -0.015677647665143013 -0.009707084856927395 0 0 0 0
2132754280 0.3036351203918457 -0.12116904556751251 -0.01743772253394127 -0.0065437788143754005 0 0 0 0
2136476364 0.30424344539642334 -0.15452635288238525 -0.018312061205506325 -0.003077966161072254 0 0 0 0
2140198448 0.30065304040908813 -0.18674634397029877 -0.017918134108185768 0.000997939147055149 0 0 0 0
2143920532 0.28952154517173767 -0.21934500336647034 -0.01606096513569355 0.004714434966444969 0 0 0 0
2147642616 0.2752439081668854 -0.24750101566314697 -0.013515002094209194 0.007180401124060154 0 0 0 0
2151364700 0.2560066878795624 -0.2741600573062897 -0.010745320469141006 0.008544476702809334 0 0 0 0
2155086784 0.2329186350107193 -0.2945522665977478 -0.008493092842400074 0.008957268670201302 0 0 0 0
2158808868 0.20989012718200684 -0.31227895617485046 -0.006742819212377071 0.008954156190156937 0 0 0 0
2162530952 0.18156477808952332 -0.32626983523368835 -0.0055127935484051704 0.008810995146632195 0 0 0 0
2166253036 0.15190573036670685 -0.33577442169189453 -0.004873715341091156 0.009108157828450203 0 0 0 0
2169975120 0.12103425711393356 -0.3403664231300354 -0.003806663677096367 0.00992189534008503 0 0 0 0
2173697204 0.09372261166572571 -0.3400241732597351 -0.0020471476018428802 0.01045899372547865 0 0 0 0
2177419288 0.06471428275108337 -0.3356046676635742 -0.0003756526857614517 0.010330721735954285 0 0 0 0
2181141372 0.038161031901836395 -0.3278127908706665 0.0008378177881240845 0.009994305670261383 0 0 0 0
2184863456 0.009029656648635864 -0.3160543739795685 0.0021456731483340263 0.009511897340416908 0 0 0 0
2188585540 -0.013941578567028046 -0.3007226586341858 0.003176571801304817 0.009416799992322922 0 0 0 0
2192307624 -0.039844803512096405 -0.28060388565063477 0.00465343426913023 0.009346485137939453 0 0 0 0
2196029708 -0.05537111312150955 -0.2575922906398773 0.006887983530759811 0.008865555748343468 0 0 0 0
2199751792 -0.07157795876264572 -0.23110154271125793 0.008796551264822483 0.0068960050120949745 0 0 0 0
2203473876 -0.08382950723171234 -0.200284942984581 0.009748298674821854 0.004287065006792545 0 0 0 0
2207195960 -0.08918485790491104 -0.16803114116191864 0.009481227956712246 0.0021876320242881775 0 0 0 0
2210918044 -0.08631344884634018 -0.1376143991947174 0.009206658229231834 0.0004092315211892128 0 0 0 0
2214640128 -0.08140278607606888 -0.1059984341263771 0.008431480266153812 -0.0012014079838991165 0 0 0 0
2218362212 -0.07115732878446579 -0.07586079835891724 0.007370779290795326 -0.002408909611403942 0 0 0 0
2222084296 -0.054143860936164856 -0.05063235014677048 0.006391605362296104 -0.0032303286716341972 0 0 0 0
2225806380 -0.03432316705584526 -0.025994453579187393 0.005279890261590481 -0.0038303192704916 0 0 0 0
2229528464 -0.009354785084724426 -0.006306398659944534 0.004177716560661793 -0.004370746202766895 0 0 0 0
2233250548 0.017430821433663368 0.008331377990543842 0.0030742138624191284 -0.004284868016839027 0 0 0 0
2236972632 0.04570240154862404 0.016799217090010643 0.0021660439670085907 -0.0038625048473477364 0 0 0 0
2240694716 0.07398274540901184 0.022424837574362755 0.0019649825990200043 -0.003213020972907543 0 0 0 0
2244416800 0.10280081629753113 0.022109415382146835 0.0023450329899787903 -0.0028813760727643967 0 0 0 0
2248138884 0.13163436949253082 0.01935259997844696 0.003085416741669178 -0.0032948702573776245 0 0 0 0
2251860968 0.160848006606102 0.0075532421469688416 0.001527472399175167 -0.0056594181805849075 0 0 0 0
2255583052 0.18665580451488495 -0.008813858032226562 0.0004944605752825737 -0.006318378262221813 0 0 0 0
2259305136 0.2090187668800354 -0.02621341124176979 -0.0007515987381339073 -0.006242383271455765 0 0 0 0
2263027220 0.2265228033065796 -0.05092882364988327 -0.001412772573530674 -0.0056902747601270676 0 0 0 0
2266749304 0.23838381469249725 -0.0787910744547844 -0.0016525043174624443 -0.005424804054200649 0 0 0 0
2270471388 0.24709391593933105 -0.10258744657039642 -0.0021052854135632515 -0.005775546655058861 0 0 0 0
2274193472 0.24639734625816345 -0.13303111493587494 -0.0029584579169750214 -0.005838901735842228 0 0 0 0
2277915556 0.24473683536052704 -0.15752410888671875 -0.0038682790473103523 -0.00590477604418993 0 0 0 0
2281637640 0.23887422680854797 -0.1820475459098816 -0.004843954928219318 -0.005729088559746742 0 0 0 0
2285359724 0.22511804103851318 -0.20551133155822754 -0.005821327678859234 -0.005477220751345158 0 0 0 0
2289081808 0.21032297611236572 -0.22648648917675018 -0.006951744668185711 -0.0050401706248521805 0 0 0 0
2292803892 0.1960548311471939 -0.24099332094192505 -0.007983490824699402 -0.004262533970177174 0 0 0 0
2296525976 0.172840878367424 -0.2556827962398529 -0.008952910080552101 -0.0034087039530277252 0 0 0 0
2300248060 0.15233543515205383 -0.26579952239990234 -0.010029811412096024 -0.002024289220571518 0 0 0 0
2303970144 0.1309340000152588 -0.2752339541912079 -0.010822205804288387 -0.00027699675410985947 0 0 0 0
2307692228 0.09731728583574295 -0.27681148052215576 -0.010860562324523926 0.001862657256424427 0 0 0 0
2311414312 0.07914488017559052 -0.2728446424007416 -0.010308265686035156 0.003764742985367775 0 0 0 0
2315136396 0.052268676459789276 -0.2670729160308838 -0.009404053911566734 0.0051191141828894615 0 0 0 0
2318858480 0.028839625418186188 -0.25734779238700867 -0.008294728584587574 0.0059861307963728905 0 0 0 0
2322580564 0.013195239007472992 -0.24213841557502747 -0.007537292316555977 0.006715354509651661 0 0 0 0
2326302648 -0.008177056908607483 -0.22378498315811157 -0.006837015971541405 0.007524257525801659 0 0 0 0
2330024732 -0.02403119206428528 -0.2023656666278839 -0.0059018563479185104 0.008126609958708286 0 0 0 0
2333746816 -0.033636681735515594 -0.17781862616539001 -0.005100567825138569 0.008604067377746105 0 0 0 0
2337468900 -0.043913036584854126 -0.15075553953647614 -0.004284976050257683 0.009330668486654758 0 0 0 0
2341190984 -0.04445715993642807 -0.12400637567043304 -0.0036652572453022003 0.009842690080404282 0 0 0 0
2344913068 -0.040183063596487045 -0.09573698788881302 -0.0024210549890995026 0.010546017438173294 0 0 0 0
2348635152 -0.034563641995191574 -0.06740312278270721 -0.0006688665598630905 0.01071767695248127 0 0 0 0
2352357236 -0.02093837410211563 -0.042739685624837875 0.0005349069833755493 0.010475720278918743 0 0 0 0
2356079320 -0.0039740195497870445 -0.01935441792011261 0.0018341373652219772 0.009832290932536125 0 0 0 0
2359801404 0.016533920541405678 0.001324784941971302 0.002905171364545822 0.009379159659147263 0 0 0 0
2363523488 0.041337646543979645 0.01867847517132759 0.004410160705447197 0.008784003555774689 0 0 0 0
2367245572 0.06930036842823029 0.030999600887298584 0.005758685991168022 0.007906557992100716 0 0 0 0
2370967656 0.0994732454419136 0.03837689757347107 0.006872065365314484 0.006532736122608185 0 0 0 0
2374689740 0.13078436255455017 0.041265878826379776 0.0072231413796544075 0.004892521537840366 0 0 0 0
2378411824 0.16330547630786896 0.037812307476997375 0.007218747399747372 0.003478049300611019 0 0 0 0
2382133908 0.19506913423538208 0.028380390256643295 0.006937248632311821 0.0025400128215551376 0 0 0 0
2385855992 0.22381602227687836 0.010801702737808228 0.006843075156211853 0.0017915330827236176 0 0 0 0
2389578076 0.24944083392620087 -0.007361456751823425 0.007021255791187286 0.0012479424476623535 0 0 0 0
2393300160 0.2701840102672577 -0.035349130630493164 0.007023111917078495 0.00043619610369205475 0 0 0 0
2397022244 0.2850762903690338 -0.06289754062891006 0.00725993886590004 -0.00029902253299951553 0 0 0 0
2400744328 0.29712122678756714 -0.09126506745815277 0.007420919835567474 -0.0015894724056124687 0 0 0 0
2404466412 0.3018868565559387 -0.12082840502262115 0.007155748084187508 -0.003003552556037903 0 0 0 0
2408188496 0.299121230840683 -0.1566772311925888 0.006243872456252575 -0.004532789811491966 0 0 0 0
2411910580 0.2982143759727478 -0.1802510917186737 0.005228595808148384 -0.005221559666097164 0 0 0 0
2415632664 0.2858961224555969 -0.21148601174354553 0.004342874512076378 -0.006059861741960049 0 0 0 0
2419354748 0.2709783911705017 -0.23844347894191742 0.0029696375131607056 -0.006761169992387295 0 0 0 0
2423076832 0.2581862211227417 -0.257214218378067 0.0016238642856478691 -0.007024778053164482 0 0 0 0
2426798916 0.23703832924365997 -0.2807766795158386 9.531807154417038e-05 -0.006911579519510269 0 0 0 0
2430521000 0.21399514377117157 -0.29752734303474426 -0.0010359063744544983 -0.006517157889902592 0 0 0 0
2434243084 0.19185608625411987 -0.31286945939064026 -0.0020660748705267906 -0.00588248111307621 0 0 0 0
2437965168 0.16575001180171967 -0.3243088722229004 -0.002819887362420559 -0.004780369810760021 0 0 0 0
2441687252 0.1376354694366455 -0.33118268847465515 -0.0031757308170199394 -0.0038227885961532593 0 0 0 0
2445409336 0.10770821571350098 -0.33494019508361816 -0.0029652807861566544 -0.003040468320250511 0 0 0 0
2449131420 0.08120721578598022 -0.331442654132843 -0.0019933395087718964 -0.0035376865416765213 0 0 0 0
2452853504 0.051327481865882874 -0.32503360509872437 -0.0028275279328227043 -0.0028127115219831467 0 0 0 0
2456575588 0.02269260585308075 -0.3153368830680847 -0.002911856397986412 -0.002788551151752472 0 0 0 0
2460297672 -0.005639765411615372 -0.2985665798187256 -0.0033545438200235367 -0.0026182811707258224 0 0 0 0
2464019756 -0.02679327130317688 -0.2803270220756531 -0.0036262497305870056 -0.0022508176043629646 0 0 0 0
2467741840 -0.048987068235874176 -0.2572398781776428 -0.0036725271493196487 -0.002086433582007885 0 0 0 0
2471463924 -0.06376737356185913 -0.23045292496681213 -0.0038667218759655952 -0.001962602138519287 0 0 0 0
2475186008 -0.07604434341192245 -0.20246359705924988 -0.004117175936698914 -0.0015866048634052277 0 0 0 0
2478908092 -0.08095133304595947 -0.17385482788085938 -0.0041509224101901054 -0.0014104628935456276 0 0 0 0
2482630176 -0.08436918258666992 -0.14351771771907806 -0.0041242940351367 -0.0008962769061326981 0 0 0 0
2486352260 -0.08087670058012009 -0.11690585315227509 -0.004174099303781986 -0.0008553080260753632 0 0 0 0
2490074344 -0.07444407045841217 -0.09000401198863983 -0.0041994135826826096 -0.0008425340056419373 0 0 0 0
2493796428 -0.06550335884094238 -0.06469380855560303 -0.004243736155331135 -0.0008082771673798561 0 0 0 0
2497518512 -0.05329929292201996 -0.04067329317331314 -0.00462925061583519 -0.000757644884288311 0 0 0 0
2501240596 -0.03778761252760887 -0.018347948789596558 -0.004987264052033424 -0.00030742865055799484 0 0 0 0
2504962680 -0.019447699189186096 0.0020246440544724464 -0.005309528671205044 8.797738701105118e-05 0 0 0 0
2508684764 0.003300788812339306 0.020228605717420578 -0.005623945966362953 0.0006937617436051369 0 0 0 0
2512406848 0.028537370264530182 0.03432744741439819 -0.005905342288315296 0.001371048390865326 0 0 0 0
2516128932 0.056751422584056854 0.043327994644641876 -0.006232063286006451 0.002137569710612297 0 0 0 0
2519851016 0.08495606482028961 0.0494815856218338 -0.006529519334435463 0.0034691719338297844 0 0 0 0
2523573100 0.11454696953296661 0.0484745055437088 -0.006023596040904522 0.004816953092813492 0 0 0 0
2527295184 0.14276349544525146 0.04256593808531761 -0.005044467747211456 0.005712792277336121 0 0 0 0
2531017268 0.16818825900554657 0.03197792172431946 -0.004504846408963203 0.006482594646513462 0 0 0 0
2534739352 0.19074440002441406 0.01708368957042694 -0.0035477587953209877 0.0072983624413609505 0 0 0 0
2538461436 0.20978155732154846 0.0030696317553520203 -0.002436922863125801 0.008199856616556644 0 0 0 0
2542183520 0.2256932556629181 -0.015780895948410034 -0.0009709792211651802 0.008778505027294159 0 0 0 0
2545905604 0.23988117277622223 -0.036662496626377106 0.0007865745574235916 0.00885172002017498 0 0 0 0
2549627688 0.24977092444896698 -0.05840451270341873 0.002237938344478607 0.008520335890352726 0 0 0 0
2553349772 0.25712451338768005 -0.0804416835308075 0.003574819304049015 0.008075467310845852 0 0 0 0
2557071856 0.26186510920524597 -0.09868709743022919 0.00482174102216959 0.007598303258419037 0 0 0 0
2560793940 0.2608153820037842 -0.12069085985422134 0.0060820309445261955 0.00676979124546051 0 0 0 0
2564516024 0.25761643052101135 -0.1433679163455963 0.00733077060431242 0.005797515623271465 0 0 0 0
2568238108 0.2538803517818451 -0.16350886225700378 0.008334791287779808 0.004638713784515858 0 0 0 0
2571960192 0.24966876208782196 -0.17984189093112946 0.00910207349807024 0.0032713664695620537 0 0 0 0
2575682276 0.23700842261314392 -0.20060952007770538 0.009864508174359798 0.001576901413500309 0 0 0 0
2579404360 0.22354906797409058 -0.21827007830142975 0.010243522003293037 -9.750854223966599e-05 0 0 0 0
2583126444 0.21001175045967102 -0.23083385825157166 0.01063707284629345 -0.002045203000307083 0 0 0 0
2586848528 0.19262824952602386 -0.24330931901931763 0.010291704908013344 -0.004213801585137844 0 0 0 0
2590570612 0.17489275336265564 -0.25135424733161926 0.009555173106491566 -0.006406806409358978 0 0 0 0
2594292696 0.1556139439344406 -0.2574611306190491 0.008215975016355515 -0.00843285582959652 0 0 0 0
2598014780 0.13496990501880646 -0.2601582407951355 0.006444230675697327 -0.010000462643802166 0 0 0 0
2601736864 0.11928583681583405 -0.2591610550880432 0.004288319498300552 -0.010995380580425262 0 0 0 0
2605458948 0.10433436930179596 -0.2558916509151459 0.002277141436934471 -0.011591916903853416 0 0 0 0
2609181032 0.08689802885055542 -0.2525573968887329 0.0001696515828371048 -0.011473520658910275 0 0 0 0
2612903116 0.07038955390453339 -0.2458457201719284 -0.0019198255613446236 -0.011227400042116642 0 0 0 0
2616625200 0.05746900290250778 -0.23613271117210388 -0.0036954181268811226 -0.010411085560917854 0 0 0 0
2620347284 0.044726066291332245 -0.22550737857818604 -0.0049203187227249146 -0.0091276615858078 0 0 0 0
2624069368 0.03464272618293762 -0.21361415088176727 -0.005740925669670105 -0.008295981213450432 0 0 0 0
2627791452 0.026994630694389343 -0.1993321180343628 -0.006646838970482349 -0.007551039569079876 0 0 0 0
2631513536 0.01960187405347824 -0.18515649437904358 -0.007591545581817627 -0.006793968379497528 0 0 0 0
2635235620 0.017247499898076057 -0.16852332651615143 -0.008553937077522278 -0.0058791544288396835 0 0 0 0
2638957704 0.01706438511610031 -0.1520494520664215 -0.009430639445781708 -0.004985040985047817 0 0 0 0
2642679788 0.019356943666934967 -0.1372380405664444 -0.010515976697206497 -0.0036503812298178673 0 0 0 0
2646401872 0.02434651553630829 -0.12466806173324585 -0.011269118636846542 -0.001593911089003086 0 0 0 0
2650123956 0.031878769397735596 -0.11265484243631363 -0.011633428744971752 0.00019532069563865662 0 0 0 0
2653846040 0.040568869560956955 -0.10231821238994598 -0.011374512687325478 0.0023922454565763474 0 0 0 0
2657568124 0.051629967987537384 -0.09321165084838867 -0.0107189966365695 0.004156504757702351 0 0 0 0
2661290208 0.06505274772644043 -0.08712814003229141 -0.009938819333910942 0.005950297228991985 0 0 0 0
2665012292 0.07656411081552505 -0.0853472501039505 -0.008451791480183601 0.0077673401683568954 0 0 0 0
2668734376 0.08972346782684326 -0.0850236713886261 -0.0066210199147462845 0.009120423346757889 0 0 0 0
2672456460 0.10209648311138153 -0.08635761588811874 -0.004515059292316437 0.009934550151228905 0 0 0 0
2676178544 0.11185076832771301 -0.09291397035121918 -0.002647128887474537 0.010076426900923252 0 0 0 0
2679900628 0.1238974779844284 -0.09794504940509796 -0.0009250901639461517 0.009953375905752182 0 0 0 0
2683622712 0.1306830495595932 -0.10830780118703842 0.0009002983570098877 0.009685974568128586 0 0 0 0
2687344796 0.13669808208942413 -0.11846921592950821 0.002519075758755207 0.0089577566832304 0 0 0 0
2691066880 0.14069896936416626 -0.12992580235004425 0.0038829008117318153 0.007919448427855968 0 0 0 0
2694788964 0.14179563522338867 -0.14247672259807587 0.0048552872613072395 0.0069572096690535545 0 0 0 0
2698511048 0.13937845826148987 -0.15546849370002747 0.005770587362349033 0.005779140628874302 0 0 0 0
2702233132 0.13225239515304565 -0.16877932846546173 0.006372528150677681 0.00443929061293602 0 0 0 0
2705955216 0.12531866133213043 -0.1776721477508545 0.006787870079278946 0.003243417479097843 0 0 0 0
2709677300 0.11496344208717346 -0.18592534959316254 0.006996547803282738 0.0019266828894615173 0 0 0 0
2713399384 0.1008860394358635 -0.1932130753993988 0.00715418066829443 0.0006074747070670128 0 0 0 0
2717121468 0.09003421664237976 -0.1971682459115982 0.007262197323143482 -0.0005085831508040428 0 0 0 0
2720843552 0.07738213241100311 -0.19855475425720215 0.007042703218758106 -0.0019098063930869102 0 0 0 0
2724565636 0.06112818419933319 -0.19755889475345612 0.006411761045455933 -0.0033444995060563087 0 0 0 0
2728287720 0.04589252173900604 -0.19274857640266418 0.005664012394845486 -0.004269484430551529 0 0 0 0
2732009804 0.03120546042919159 -0.18583270907402039 0.004904918372631073 -0.005197197198867798 0 0 0 0
2735731888 0.020268946886062622 -0.1753794252872467 0.004115555435419083 -0.006166557781398296 0 0 0 0
2739453972 0.010859976522624493 -0.16306224465370178 0.0030089737847447395 -0.006906012073159218 0 0 0 0
2743176056 0.002110786736011505 -0.1494353860616684 0.0017330190166831017 -0.007636258378624916 0 0 0 0
2746898140 -0.004397489130496979 -0.13411137461662292 0.00037243496626615524 -0.008239028975367546 0 0 0 0
2750620224 -0.010042151436209679 -0.11732753366231918 -0.0016627470031380653 -0.008431495167315006 0 0 0 0
2754342308 -0.01078701764345169 -0.09838166832923889 -0.0036914311349391937 -0.007930658757686615 0 0 0 0
2758064392 -0.008094973862171173 -0.07971296459436417 -0.005654715001583099 -0.0067004552111029625 0 0 0 0
2761786476 -0.0015068212524056435 -0.06134626269340515 -0.006869111210107803 -0.0051896413788199425 0 0 0 0
2765508560 0.007964866235852242 -0.04408404976129532 -0.007802354171872139 -0.0032632434740662575 0 0 0 0
2769230644 0.02061665989458561 -0.0284805316478014 -0.00802663341164589 -0.0012906929478049278 0 0 0 0
2772952728 0.03519957512617111 -0.014998083002865314 -0.007716698572039604 0.0005429647862911224 0 0 0 0
2776674812 0.051929689943790436 -0.0038144104182720184 -0.0069551896303892136 0.0023853546008467674 0 0 0 0
2780396896 0.07112614810466766 0.005765378475189209 -0.005819560959935188 0.003710641525685787 0 0 0 0
2784118980 0.09226460009813309 0.011859320104122162 -0.004379677586257458 0.004722513258457184 0 0 0 0
2787841064 0.11466154456138611 0.014772191643714905 -0.002823159098625183 0.005308444611728191 0 0 0 0
2791563148 0.13863180577754974 0.013430222868919373 -0.0012011267244815826 0.005541833117604256 0 0 0 0
2795285232 0.16132992506027222 0.009035654366016388 0.00029257312417030334 0.005022578872740269 0 0 0 0
2799007316 0.18543368577957153 -0.0018176622688770294 0.0014513768255710602 0.004441848024725914 0 0 0 0
2802729400 0.20535850524902344 -0.01595430076122284 0.0022847959771752357 0.003399290144443512 0 0 0 0
2806451484 0.2235676795244217 -0.031648412346839905 0.0025534899905323982 0.002408236265182495 0 0 0 0
2810173568 0.23892542719841003 -0.049825407564640045 0.00257808156311512 0.0018446771427989006 0 0 0 0
2813895652 0.25230872631073 -0.07267884910106659 0.0029043136164546013 0.0015628216788172722 0 0 0 0
2817617736 0.2614935040473938 -0.09706663340330124 0.003275124356150627 0.0008914954960346222 0 0 0 0
2821339820 0.26819348335266113 -0.12218380719423294 0.0034074755385518074 9.883195161819458e-06 0 0 0 0
2825061904 0.267968088388443 -0.15037192404270172 0.0031280405819416046 -0.0008613662794232368 0 0 0 0
2828783988 0.26574113965034485 -0.1762571930885315 0.0026807254180312157 -0.0013476954773068428 0 0 0 0
2832506072 0.26047343015670776 -0.20178455114364624 0.002506447955965996 -0.0016554156318306923 0 0 0 0
2836228156 0.24826045334339142 -0.2287055104970932 0.0021747946739196777 -0.0021194955334067345 0 0 0 0
2839950240 0.2367304265499115 -0.25009897351264954 0.0019515389576554298 -0.0022693807259202003 0 0 0 0
2843672324 0.2137736976146698 -0.2733016014099121 0.0016707777976989746 -0.002580861561000347 0 0 0 0
2847394408 0.19654841721057892 -0.288322776556015 0.0015867343172430992 -0.0028457771986722946 0 0 0 0
2851116492 0.1691621094942093 -0.30264317989349365 0.0011656973510980606 -0.0033612381666898727 0 0 0 0
2854838576 0.14529894292354584 -0.31403279304504395 0.0006778864189982414 -0.003710087388753891 0 0 0 0
2858560660 0.12389567494392395 -0.31946995854377747 0.00032171420753002167 -0.004243030212819576 0 0 0 0
2862282744 0.0988951027393341 -0.3238592743873596 -0.00033634528517723083 -0.004184326156973839 0 0 0 0
2866004828 0.0739857405424118 -0.32479119300842285 -0.0008868714794516563 -0.004190037027001381 0 0 0 0
2869726912 0.046005621552467346 -0.32323309779167175 -0.0014182878658175468 -0.003966376185417175 0 0 0 0
2873448996 0.025448665022850037 -0.3180297017097473 -0.0019439766183495522 -0.003835090436041355 0 0 0 0
2877171080 -0.0016057714819908142 -0.3100292980670929 -0.0026222048327326775 -0.003642147406935692 0 0 0 0
2880893164 -0.02393563836812973 -0.30009424686431885 -0.003347022458910942 -0.0032147495076060295 0 0 0 0
2884615248 -0.0462341234087944 -0.28548726439476013 -0.0041482411324977875 -0.0024329284206032753 0 0 0 0
2888337332 -0.06589160114526749 -0.26660919189453125 -0.004418107680976391 -0.0015027383342385292 0 0 0 0
2892059416 -0.08433505892753601 -0.24610958993434906 -0.004500281065702438 -0.00052669458091259 0 0 0 0
2895781500 -0.09899657219648361 -0.2229064255952835 -0.0043983543291687965 0.0004553878679871559 0 0 0 0
2899503584 -0.10825830698013306 -0.19761207699775696 -0.004111534915864468 0.0012694522738456726 0 0 0 0
2903225668 -0.11707824468612671 -0.17155785858631134 -0.0036162566393613815 0.002133927308022976 0 0 0 0
2906947752 -0.12008893489837646 -0.14625175297260284 -0.0031846072524785995 0.0030607301741838455 0 0 0 0
2910669836 -0.11988753825426102 -0.1186637431383133 -0.0022251149639487267 0.003837957978248596 0 0 0 0
2914391920 -0.11574015766382217 -0.09389562904834747 -0.0010882457718253136 0.004220633767545223 0 0 0 0
2918114004 -0.10930797457695007 -0.07026766240596771 0.00017968099564313889 0.0043067485094070435 0 0 0 0
2921836088 -0.10008599609136581 -0.04816364124417305 0.0012455126270651817 0.004019394516944885 0 0 0 0
2925558172 -0.08874345570802689 -0.02679325081408024 0.0020355526357889175 0.0033187102526426315 0 0 0 0
2929280256 -0.07492978125810623 -0.007200018502771854 0.0025154445320367813 0.0027989009395241737 0 0 0 0
2933002340 -0.05910376086831093 0.010043738409876823 0.002857016399502754 0.0022553810849785805 0 0 0 0
2936724424 -0.04166615009307861 0.02570810541510582 0.003162478096783161 0.0018680384382605553 0 0 0 0
2940446508 -0.023293521255254745 0.0385364331305027 0.003536091186106205 0.0012930305674672127 0 0 0 0
2944168592 -0.0029496662318706512 0.05009866878390312 0.0036626290529966354 0.0006196815520524979 0 0 0 0
2947890676 0.01897110790014267 0.05956786870956421 0.003547556698322296 0.00015041977167129517 0 0 0 0
2951612760 0.04314000532031059 0.06485303491353989 0.0036472128704190254 -0.00013455376029014587 0 0 0 0
2955334844 0.06473316252231598 0.06909739971160889 0.0037482893094420433 -0.0005105538293719292 0 0 0 0
2959056928 0.08893606811761856 0.06924585998058319 0.004137867130339146 -0.000980578362941742 0 0 0 0
2962779012 0.11237800121307373 0.0671667605638504 0.004178774543106556 -0.0015979018062353134 0 0 0 0
2966501096 0.13594168424606323 0.06207544356584549 0.004171568900346756 -0.002571575343608856 0 0 0 0
2970223180 0.15868046879768372 0.0536966398358345 0.003959731198847294 -0.0036502648144960403 0 0 0 0
2973945264 0.17876997590065002 0.04221164807677269 0.0028513800352811813 -0.004568665288388729 0 0 0 0
2977667348 0.19865524768829346 0.029058508574962616 0.0018587270751595497 -0.005097859539091587 0 0 0 0
2981389432 0.2167072594165802 0.00912957638502121 0.0005234535783529282 -0.005152379162609577 0 0 0 0
2985111516 0.2324766218662262 -0.009298920631408691 -0.0005938597023487091 -0.0047799088060855865 0 0 0 0
2988833600 0.24439066648483276 -0.02725229598581791 -0.0014556031674146652 -0.004280625842511654 0 0 0 0
2992555684 0.2551718056201935 -0.047272972762584686 -0.002230597659945488 -0.003663817420601845 0 0 0 0
2996277768 0.2609211802482605 -0.07050701975822449 -0.0027168048545718193 -0.0028959596529603004 0 0 0 0
2999999852 0.26612401008605957 -0.09306278824806213 -0.002951621077954769 -0.002072356641292572 0 0 0 0
