# HZ S RI R 50
1500000000 -0.07847537100315094 -0.08129222691059113 0.02813185192644596 -0.03456909582018852 0 0 0 0
1503722084 -0.07622306048870087 -0.05933164432644844 0.022280674427747726 -0.03661312535405159 0 0 0 0
1507444168 -0.0682835504412651 -0.0350310355424881 0.01638663560152054 -0.03821859881281853 0 0 0 0
1511166252 -0.05269564315676689 -0.01068636029958725 0.010779797099530697 -0.038990750908851624 0 0 0 0
1514888336 -0.030498426407575607 0.01111006923019886 0.005423871800303459 -0.03950385004281998 0 0 0 0
1518610420 -0.003381173126399517 0.02927643060684204 -0.0001770099624991417 -0.03987502679228783 0 0 0 0
1522332504 0.02891547605395317 0.04253128170967102 -0.006393692456185818 -0.03973622992634773 0 0 0 0
1526054588 0.0647091493010521 0.0511058047413826 -0.013533888384699821 -0.03802262246608734 0 0 0 0
1529776672 0.10432547330856323 0.05258592218160629 -0.020201291888952255 -0.034097135066986084 0 0 0 0
1533498756 0.14592045545578003 0.04689973220229149 -0.025088820606470108 -0.028637835755944252 0 0 0 0
1537220840 0.18779732286930084 0.030808839946985245 -0.028203928843140602 -0.022666865959763527 0 0 0 0
1540942924 0.22677430510520935 0.006427429616451263 -0.02997635118663311 -0.016944939270615578 0 0 0 0
1544665008 0.26108238101005554 -0.024386055767536163 -0.03080880269408226 -0.011649264954030514 0 0 0 0
1548387092 0.28933852910995483 -0.06155894696712494 -0.030795957893133163 -0.0063324663788080215 0 0 0 0
1552109176 0.31154176592826843 -0.10113408416509628 -0.02966298721730709 -0.0017622588202357292 0 0 0 0
1555831260 0.32787346839904785 -0.1451132893562317 -0.028198864310979843 0.0019466495141386986 0 0 0 0
1559553344 0.3373146057128906 -0.19262441992759705 -0.026646219193935394 0.005793837830424309 0 0 0 0
1563275428 0.3401625156402588 -0.2429942488670349 -0.024886982515454292 0.00901884213089943 0 0 0 0
1566997512 0.33365577459335327 -0.29386013746261597 -0.02260110154747963 0.012250451371073723 0 0 0 0
1570719596 0.3222953975200653 -0.34357038140296936 -0.019766729325056076 0.01492917351424694 0 0 0 0
1574441680 0.29878079891204834 -0.3932409882545471 -0.016541892662644386 0.016936535015702248 0 0 0 0
1578163764 0.27188098430633545 -0.4383748471736908 -0.013305142521858215 0.018174022436141968 0 0 0 0
1581885848 0.23614758253097534 -0.4796653687953949 -0.01042871829122305 0.018741508945822716 0 0 0 0
1585607932 0.19115035235881805 -0.5152119994163513 -0.007806071080267429 0.01918785460293293 0 0 0 0
1589330016 0.14093486964702606 -0.5451451539993286 -0.005027336999773979 0.01953117549419403 0 0 0 0
1593052100 0.08445067703723907 -0.5677752494812012 -0.002338082529604435 0.01953715831041336 0 0 0 0
1596774184 0.03142162039875984 -0.5796074271202087 0.00010869000107049942 0.019316840916872025 0 0 0 0
1600496268 -0.02790793776512146 -0.5860593914985657 0.002411230467259884 0.0189864132553339 0 0 0 0
1604218352 -0.08935154974460602 -0.5841702222824097 0.004988737404346466 0.0183996744453907 0 0 0 0
1607940436 -0.1498526781797409 -0.5714148283004761 0.007475368678569794 0.01731184870004654 0 0 0 0
1611662520 -0.20960435271263123 -0.552117645740509 0.009956661611795425 0.015880299732089043 0 0 0 0
1615384604 -0.27033600211143494 -0.5199219584465027 0.012240363284945488 0.014298193156719208 0 0 0 0
1619106688 -0.32254549860954285 -0.4813356399536133 0.014630935154855251 0.012389912270009518 0 0 0 0
1622828772 -0.3712107241153717 -0.43170928955078125 0.01659872941672802 0.00971751008182764 0 0 0 0
1626550856 -0.4132370352745056 -0.3752317726612091 0.018070589751005173 0.0063997190445661545 0 0 0 0
1630272940 -0.4449368715286255 -0.3104439377784729 0.01853215880692005 0.0026938263326883316 0 0 0 0
1633995024 -0.4684019684791565 -0.24239616096019745 0.01789041981101036 -0.0008179489523172379 0 0 0 0
1637717108 -0.48067301511764526 -0.1687145233154297 0.016508610919117928 -0.003522164188325405 0 0 0 0
1641439192 -0.4816814363002777 -0.09482058882713318 0.015320486389100552 -0.005661968141794205 0 0 0 0
1645161276 -0.47024235129356384 -0.0176919624209404 0.013959246687591076 -0.007735154591500759 0 0 0 0
1648883360 -0.44629502296447754 0.058652058243751526 0.012056943029165268 -0.00954088568687439 0 0 0 0
1652605444 -0.41077253222465515 0.1283644139766693 0.010262553580105305 -0.010529783554375172 0 0 0 0
1656327528 -0.36376523971557617 0.19230541586875916 0.008911681361496449 -0.011511587537825108 0 0 0 0
1660049612 -0.3075982630252838 0.2503683567047119 0.007485223934054375 -0.01279670000076294 0 0 0 0
1663771696 -0.2412368357181549 0.29954203963279724 0.005496556870639324 -0.014431891962885857 0 0 0 0
1667493780 -0.16807997226715088 0.33859896659851074 0.002689586952328682 -0.015728894621133804 0 0 0 0
1671215864 -0.08825748413801193 0.36339595913887024 -0.0006879745051264763 -0.01577824167907238 0 0 0 0
1674937948 -0.0038488656282424927 0.3765316903591156 -0.00385485403239727 -0.014868656173348427 0 0 0 0
1678660032 0.08111536502838135 0.37487322092056274 -0.006694737821817398 -0.013029436580836773 0 0 0 0
1682382116 0.16029368340969086 0.36053311824798584 -0.008221670053899288 -0.010472230613231659 0 0 0 0
1686104200 0.2404506802558899 0.3332056999206543 -0.008731386624276638 -0.008298580534756184 0 0 0 0
1689826284 0.313387930393219 0.29609215259552 -0.00894243735820055 -0.007077908143401146 0 0 0 0
1693548368 0.3812834918498993 0.2462294101715088 -0.009561634622514248 -0.006051454693078995 0 0 0 0
1697270452 0.4400014877319336 0.18624308705329895 -0.010283594951033592 -0.004749086685478687 0 0 0 0
1700992536 0.4868723750114441 0.12122055888175964 -0.011072477325797081 -0.0032132836058735847 0 0 0 0
1704714620 0.5248104333877563 0.0472072958946228 -0.01166398823261261 -0.001197773963212967 0 0 0 0
1708436704 0.548503577709198 -0.0313604474067688 -0.01153058186173439 0.0011157486587762833 0 0 0 0
1712158788 0.5607349872589111 -0.10980625450611115 -0.010736172087490559 0.0035385219380259514 0 0 0 0
1715880872 0.5610940456390381 -0.1895325481891632 -0.00927859079092741 0.005370526574552059 0 0 0 0
1719602956 0.5486279129981995 -0.2692403197288513 -0.00732611957937479 0.006773089990019798 0 0 0 0
1723325040 0.5260295867919922 -0.34169262647628784 -0.005214137956500053 0.007235684432089329 0 0 0 0
1727047124 0.491177499294281 -0.4121403992176056 -0.003650783561170101 0.006916871294379234 0 0 0 0
1730769208 0.4456840753555298 -0.47524186968803406 -0.002615063451230526 0.00656315591186285 0 0 0 0
1734491292 0.3906812369823456 -0.5323723554611206 -0.0017767995595932007 0.006514322012662888 0 0 0 0
1738213376 0.33149686455726624 -0.5775251388549805 -0.0004808632656931877 0.006541300565004349 0 0 0 0
1741935460 0.2671596109867096 -0.6104802489280701 0.000715944916009903 0.005704695358872414 0 0 0 0
1745657544 0.1963803470134735 -0.6357267498970032 0.0012492155656218529 0.0046971868723630905 0 0 0 0
1749379628 0.1248776987195015 -0.6503204107284546 0.0015003187581896782 0.0036632362753152847 0 0 0 0
1753101712 0.051262736320495605 -0.6519076824188232 0.001179494895040989 0.0028318464756011963 0 0 0 0
1756823796 -0.020082905888557434 -0.6431566476821899 0.0006775800138711929 0.0024633007124066353 0 0 0 0
1760545880 -0.08465757220983505 -0.623288631439209 9.32859256863594e-05 0.002536935731768608 0 0 0 0
1764267964 -0.14981505274772644 -0.592747688293457 -0.0003020064905285835 0.0027922242879867554 0 0 0 0
1767990048 -0.2037068009376526 -0.5540352463722229 -0.00031532999128103256 0.00369397085160017 0 0 0 0
1771712132 -0.25352534651756287 -0.5113850831985474 0.00017746258527040482 0.004049621522426605 0 0 0 0
1775434216 -0.2937377095222473 -0.46041804552078247 0.0007492611184716225 0.00437268428504467 0 0 0 0
1779156300 -0.32507798075675964 -0.4056991934776306 0.001403038389980793 0.004337509162724018 0 0 0 0
1782878384 -0.35000282526016235 -0.3478192985057831 0.0018301419913768768 0.004141499288380146 0 0 0 0
1786600468 -0.3675028383731842 -0.2870365381240845 0.0017315028235316277 0.003859519027173519 0 0 0 0
1790322552 -0.37322959303855896 -0.22655746340751648 0.0017278660088777542 0.004521305672824383 0 0 0 0
1794044636 -0.37213218212127686 -0.16372281312942505 0.002375725656747818 0.005197201855480671 0 0 0 0
1797766720 -0.36123621463775635 -0.10164107382297516 0.0032784361392259598 0.005519678816199303 0 0 0 0
1801488804 -0.34055665135383606 -0.04573918879032135 0.004279914312064648 0.00638952013105154 0 0 0 0
1805210888 -0.3130084276199341 0.006636321544647217 0.006358779035508633 0.006814591586589813 0 0 0 0
1808932972 -0.2772600054740906 0.05424314737319946 0.008885129354894161 0.006113226525485516 0 0 0 0
1812655056 -0.23673281073570251 0.09474317729473114 0.011164644733071327 0.004510524682700634 0 0 0 0
1816377140 -0.1889268457889557 0.13090944290161133 0.012656979262828827 0.0021881330758333206 0 0 0 0
1820099224 -0.13695770502090454 0.15727990865707397 0.013886891305446625 -7.475726306438446e-05 0 0 0 0
1823821308 -0.08243073523044586 0.17437408864498138 0.014833372086286545 -0.0032300809398293495 0 0 0 0
1827543392 -0.025070540606975555 0.1828024983406067 0.01437098253518343 -0.006660415790975094 0 0 0 0
1831265476 0.02998127043247223 0.18157872557640076 0.013548011891543865 -0.009718112647533417 0 0 0 0
1834987560 0.08314020931720734 0.17229723930358887 0.012135552242398262 -0.013210940174758434 0 0 0 0
1838709644 0.1350158303976059 0.1536664366722107 0.008607835508883 -0.016511932015419006 0 0 0 0
1842431728 0.18162739276885986 0.12976226210594177 0.004178718663752079 -0.01774974726140499 0 0 0 0
1846153812 0.22233395278453827 0.09779217094182968 0.0005301861092448235 -0.01707124151289463 0 0 0 0
1849875896 0.25688955187797546 0.05945615470409393 -0.001394921913743019 -0.016050366684794426 0 0 0 0
1853597980 0.2839909493923187 0.017629623413085938 -0.0031767506152391434 -0.016003496944904327 0 0 0 0
1857320064 0.30217233300209045 -0.027611449360847473 -0.005318974144756794 -0.016264265403151512 0 0 0 0
1861042148 0.3134152293205261 -0.07131277024745941 -0.008088340982794762 -0.01626698486506939 0 0 0 0
1864764232 0.31684112548828125 -0.11697599291801453 -0.011406930163502693 -0.0158745888620615 0 0 0 0
1868486316 0.3111093044281006 -0.16197234392166138 -0.015104901976883411 -0.014411183074116707 0 0 0 0
1872208400 0.2999711036682129 -0.20311254262924194 -0.01874474808573723 -0.011514672078192234 0 0 0 0
1875930484 0.28433096408843994 -0.24002352356910706 -0.021790239959955215 -0.0076150838285684586 0 0 0 0
1879652568 0.2581484615802765 -0.2758592367172241 -0.023435138165950775 -0.0026748506352305412 0 0 0 0
1883374652 0.23068340122699738 -0.3026072084903717 -0.023547954857349396 0.002482062205672264 0 0 0 0
1887096736 0.19873285293579102 -0.32438141107559204 -0.021965546533465385 0.007325648330152035 0 0 0 0
1890818820 0.16750690340995789 -0.3388965427875519 -0.019656334072351456 0.010424314066767693 0 0 0 0
1894540904 0.1312197744846344 -0.34866878390312195 -0.017840705811977386 0.013121450319886208 0 0 0 0
1898262988 0.09673064947128296 -0.35207292437553406 -0.016177847981452942 0.015854611992836 0 0 0 0
1901985072 0.06287749111652374 -0.3498555123806 -0.013555645942687988 0.01920761913061142 0 0 0 0
1905707156 0.029422111809253693 -0.34291887283325195 -0.010242081247270107 0.021907959133386612 0 0 0 0
1909429240 0.0027051344513893127 -0.3279823958873749 -0.0066675664857029915 0.023934075608849525 0 0 0 0
1913151324 -0.02276800200343132 -0.31006863713264465 -0.00180759746581316 0.025671254843473434 0 0 0 0
1916873408 -0.04590744152665138 -0.2880699932575226 0.0038078445941209793 0.02590569294989109 0 0 0 0
1920595492 -0.06190640851855278 -0.2637355923652649 0.008335104212164879 0.024859514087438583 0 0 0 0
1924317576 -0.07536809146404266 -0.23586171865463257 0.012908268719911575 0.023105349391698837 0 0 0 0
1928039660 -0.08194401115179062 -0.2073253095149994 0.017645981162786484 0.021275825798511505 0 0 0 0
1931761744 -0.08400652557611465 -0.1787523478269577 0.023290079087018967 0.017562421038746834 0 0 0 0
1935483828 -0.07961127161979675 -0.15133869647979736 0.027386536821722984 0.011114231310784817 0 0 0 0
1939205912 -0.0707678347826004 -0.12655958533287048 0.028693681582808495 0.004058355465531349 0 0 0 0
1942927996 -0.05871029943227768 -0.10380582511425018 0.027923977002501488 -0.0023713400587439537 0 0 0 0
1946650080 -0.044497787952423096 -0.08358459174633026 0.025816112756729126 -0.008220193907618523 0 0 0 0
1950372164 -0.02804587222635746 -0.06472104042768478 0.022745899856090546 -0.01289085578173399 0 0 0 0
1954094248 -0.006071734242141247 -0.0501968190073967 0.01912890560925007 -0.016729870811104774 0 0 0 0
1957816332 0.017090795561671257 -0.03975672647356987 0.01473644282668829 -0.019820647314190865 0 0 0 0
1961538416 0.041687510907649994 -0.03399762511253357 0.00948384404182434 -0.021582666784524918 0 0 0 0
1965260500 0.06735223531723022 -0.03201192617416382 0.00467000063508749 -0.021881554275751114 0 0 0 0
1968982584 0.09301666915416718 -0.03567640483379364 0.0007842071354389191 -0.020517336204648018 0 0 0 0
1972704668 0.11679383367300034 -0.04394243285059929 -0.002113942988216877 -0.019391193985939026 0 0 0 0
1976426752 0.13887229561805725 -0.05583098158240318 -0.004550437442958355 -0.018655916675925255 0 0 0 0
1980148836 0.1578533798456192 -0.07219664752483368 -0.007146677002310753 -0.017853938043117523 0 0 0 0
1983870920 0.17305190861225128 -0.0914587527513504 -0.00993407890200615 -0.01681206375360489 0 0 0 0
1987593004 0.18330393731594086 -0.11412584781646729 -0.013095364905893803 -0.01482186559587717 0 0 0 0
1991315088 0.19021271169185638 -0.1362122744321823 -0.015982970595359802 -0.012602301314473152 0 0 0 0
1995037172 0.1940298080444336 -0.15783919394016266 -0.017968665808439255 -0.00931938923895359 0 0 0 0
1998759256 0.19295857846736908 -0.1803935170173645 -0.019427357241511345 -0.005700763314962387 0 0 0 0
2002481340 0.1878446489572525 -0.20453967154026031 -0.019930126145482063 -0.001901659183204174 0 0 0 0
2006203424 0.1804429590702057 -0.22491037845611572 -0.019697042182087898 0.0021317405626177788 0 0 0 0
2009925508 0.16441337764263153 -0.24704131484031677 -0.01847599633038044 0.005098666064441204 0 0 0 0
2013647592 0.1500720977783203 -0.2631596624851227 -0.017026441171765327 0.007621310651302338 0 0 0 0
2017369676 0.13159269094467163 -0.2772083282470703 -0.015288043767213821 0.010038691572844982 0 0 0 0
2021091760 0.10827890783548355 -0.2879641652107239 -0.013554146513342857 0.011750219389796257 0 0 0 0
2024813844 0.08609829097986221 -0.29424312710762024 -0.011916746385395527 0.013612776063382626 0 0 0 0
2028535928 0.06295941025018692 -0.2953096628189087 -0.010006127879023552 0.015569317154586315 0 0 0 0
2032258012 0.04009636491537094 -0.2926584780216217 -0.0075916629284620285 0.01777026429772377 0 0 0 0
2035980096 0.018155895173549652 -0.2874094545841217 -0.004368998110294342 0.019119620323181152 0 0 0 0
2039702180 -0.002045080065727234 -0.27886953949928284 -0.0004651946946978569 0.019861344248056412 0 0 0 0
2043424264 -0.02525424212217331 -0.2682076096534729 0.002998172305524349 0.01915093883872032 0 0 0 0
2047146348 -0.042971864342689514 -0.25472593307495117 0.006331178359687328 0.01820891909301281 0 0 0 0
2050868432 -0.06211039423942566 -0.23655761778354645 0.00922967679798603 0.01641068607568741 0 0 0 0
2054590516 -0.07676754891872406 -0.21501123905181885 0.011287642642855644 0.014456258155405521 0 0 0 0
2058312600 -0.09158216416835785 -0.1896868646144867 0.013371657580137253 0.012302526272833347 0 0 0 0
2062034684 -0.09808927774429321 -0.16296838223934174 0.015411170199513435 0.01013967115432024 0 0 0 0
2065756768 -0.10179616510868073 -0.13528065383434296 0.01655997894704342 0.007372410036623478 0 0 0 0
2069478852 -0.10063126683235168 -0.10601919144392014 0.017343182116746902 0.004592921584844589 0 0 0 0
2073200936 -0.09683834761381149 -0.07529917359352112 0.0179462730884552 0.0013144295662641525 0 0 0 0
2076923020 -0.08610865473747253 -0.04542045295238495 0.017956065014004707 -0.0018096864223480225 0 0 0 0
2080645104 -0.07076986879110336 -0.01675814390182495 0.01695917546749115 -0.005171960219740868 0 0 0 0
2084367188 -0.05005713552236557 0.010434804484248161 0.015530288219451904 -0.008028191514313221 0 0 0 0
2088089272 -0.023500291630625725 0.03411553427577019 0.01319821085780859 -0.01043025404214859 0 0 0 0
2091811356 0.0063061797991395 0.052323222160339355 0.010774598456919193 -0.012381657026708126 0 0 0 0
2095533440 0.04004070907831192 0.06486049294471741 0.00823964923620224 -0.013375140726566315 0 0 0 0
2099255524 0.07459086179733276 0.07311666011810303 0.005875184200704098 -0.013908252120018005 0 0 0 0
2102977608 0.11217992007732391 0.0760885626077652 0.0036748694255948067 -0.014317368157207966 0 0 0 0
2106699692 0.15126554667949677 0.07007136940956116 0.0016244864091277122 -0.014399457722902298 0 0 0 0
2110421776 0.18795259296894073 0.05815405398607254 -0.0003618365153670311 -0.014793777838349342 0 0 0 0
2114143860 0.22199459373950958 0.03747597336769104 -0.0030565541237592697 -0.014833563007414341 0 0 0 0
2117865944 0.25094056129455566 0.01269993931055069 -0.005810705944895744 -0.014127526432275772 0 0 0 0
2121588028 0.27543511986732483 -0.016063470393419266 -0.008123945444822311 -0.013023128733038902 0 0 0 0
2125310112 0.29293370246887207 -0.04766356945037842 -0.010311109013855457 -0.01131763868033886 0 0 0 0
2129032196 0.3049493432044983 -0.08406971395015717 -0.012058394029736519 -0.009187860414385796 0 0 0 0
2132754280 0.31121712923049927 -0.1164659932255745 -0.013654261827468872 -0.007017100229859352 0 0 0 0
2136476364 0.3125796914100647 -0.15153983235359192 -0.014876466244459152 -0.004248182289302349 0 0 0 0
2140198448 0.3062093257904053 -0.18694312870502472 -0.015351591631770134 -0.0009063063189387321 0 0 0 0
2143920532 0.2983347773551941 -0.21654008328914642 -0.014338179491460323 0.0020645447075366974 0 0 0 0
2147642616 0.2832402288913727 -0.2494329810142517 -0.01286249328404665 0.004139672964811325 0 0 0 0
2151364700 0.26538580656051636 -0.2776021957397461 -0.01184321753680706 0.005342679098248482 0 0 0 0
2155086784 0.2414385974407196 -0.30204612016677856 -0.011020531877875328 0.006634862162172794 0 0 0 0
2158808868 0.216482013463974 -0.3194124698638916 -0.010138988494873047 0.00792531669139862 0 0 0 0
2162530952 0.18547317385673523 -0.3361480236053467 -0.009242940694093704 0.009700934402644634 0 0 0 0
2166253036 0.15511342883110046 -0.3456053137779236 -0.007515188306570053 0.011596910655498505 0 0 0 0
2169975120 0.12596596777439117 -0.3508026897907257 -0.005290890112519264 0.012977066449820995 0 0 0 0
2173697204 0.09136822074651718 -0.3523105978965759 -0.0026255520060658455 0.013601373881101608 0 0 0 0
2177419288 0.06146606057882309 -0.3489394187927246 -8.794106543064117e-05 0.013463086448609829 0 0 0 0
2181141372 0.028296947479248047 -0.3392859697341919 0.002220161259174347 0.01266284380108118 0 0 0 0
2184863456 -0.0017670392990112305 -0.32405588030815125 0.003795672208070755 0.011545826680958271 0 0 0 0
2188585540 -0.025117192417383194 -0.3056122362613678 0.00497177429497242 0.010770481079816818 0 0 0 0
2192307624 -0.048109207302331924 -0.28294336795806885 0.006364271976053715 0.010090423747897148 0 0 0 0
2196029708 -0.06802670657634735 -0.2573924958705902 0.008177348412573338 0.009221864864230156 0 0 0 0
2199751792 -0.08069980144500732 -0.23014959692955017 0.009852379560470581 0.007845939137041569 0 0 0 0
2203473876 -0.08994241058826447 -0.1988939344882965 0.011577620171010494 0.005528603680431843 0 0 0 0
2207195960 -0.09786173701286316 -0.16568738222122192 0.012235437519848347 0.0031631169840693474 0 0 0 0
2210918044 -0.09728459268808365 -0.1318233758211136 0.012085100635886192 0.0006838766857981682 0 0 0 0
2214640128 -0.08925886452198029 -0.10170444846153259 0.011456332169473171 -0.0017118919640779495 0 0 0 0
2218362212 -0.08020565658807755 -0.06806176900863647 0.0104295052587986 -0.0037014512345194817 0 0 0 0
2222084296 -0.06259208917617798 -0.04024922102689743 0.009294607676565647 -0.005099636502563953 0 0 0 0
2225806380 -0.04065559059381485 -0.012612834572792053 0.007868192158639431 -0.006365742534399033 0 0 0 0
2229528464 -0.012898151762783527 0.009914664551615715 0.006424872204661369 -0.0074196746572852135 0 0 0 0
2233250548 0.0190292801707983 0.024970775470137596 0.0048876311630010605 -0.00838710181415081 0 0 0 0
2236972632 0.05128413438796997 0.0339859202504158 0.0031700143590569496 -0.00883973203599453 0 0 0 0
2240694716 0.08484838157892227 0.03644433617591858 0.0013431571424007416 -0.008817641995847225 0 0 0 0
2244416800 0.11701725423336029 0.033201348036527634 -8.874759078025818e-05 -0.008467263542115688 0 0 0 0
2248138884 0.14747820794582367 0.02601783350110054 -0.0014330064877867699 -0.008267179131507874 0 0 0 0
2251860968 0.17598073184490204 0.008085627108812332 -0.0028887856751680374 -0.007718679495155811 0 0 0 0
2255583052 0.2001638114452362 -0.00723077729344368 -0.004273619502782822 -0.006918077357113361 0 0 0 0
2259305136 0.2218984216451645 -0.028156325221061707 -0.005191287957131863 -0.005339881405234337 0 0 0 0
2263027220 0.23732851445674896 -0.057316627353429794 -0.005477140657603741 -0.0038858698680996895 0 0 0 0
2266749304 0.2507022023200989 -0.07887277752161026 -0.005311430431902409 -0.002818663604557514 0 0 0 0
2270471388 0.2529594898223877 -0.11361992359161377 -0.004896036349236965 -0.0019475854933261871 0 0 0 0
2274193472 0.25529828667640686 -0.13978168368339539 -0.004204045049846172 -0.0014107143506407738 0 0 0 0
2277915556 0.2518017888069153 -0.16428478062152863 -0.0034335684031248093 -0.001531863585114479 0 0 0 0
2281637640 0.24367977678775787 -0.19107557833194733 -0.003316570073366165 -0.002297600731253624 0 0 0 0
2285359724 0.228965163230896 -0.21754153072834015 -0.004035947844386101 -0.002817661501467228 0 0 0 0
2289081808 0.21679307520389557 -0.2366921454668045 -0.004809683188796043 -0.0028923293575644493 0 0 0 0
2292803892 0.19029174745082855 -0.2590918242931366 -0.005834033712744713 -0.0027477871626615524 0 0 0 0
2296525976 0.16820964217185974 -0.2698718309402466 -0.007104693911969662 -0.002231212332844734 0 0 0 0
2300248060 0.15187662839889526 -0.27520182728767395 -0.008217794820666313 -0.0011125262826681137 0 0 0 0
2303970144 0.12421157956123352 -0.28500792384147644 -0.008710240945219994 0.0006683627143502235 0 0 0 0
2307692228 0.09672516584396362 -0.28305691480636597 -0.008442850783467293 0.0023908112198114395 0 0 0 0
2311414312 0.0736822709441185 -0.2791546881198883 -0.007949861697852612 0.0036389753222465515 0 0 0 0
2315136396 0.041497983038425446 -0.27228593826293945 -0.006944354623556137 0.004606842994689941 0 0 0 0
2318858480 0.01830948144197464 -0.2607540786266327 -0.006164140067994595 0.005233059637248516 0 0 0 0
2322580564 0.00023356080055236816 -0.24295860528945923 -0.005797215737402439 0.005370563827455044 0 0 0 0
2326302648 -0.024868953973054886 -0.22182416915893555 -0.005602150224149227 0.006066886708140373 0 0 0 0
2330024732 -0.037301547825336456 -0.19766639173030853 -0.005062749609351158 0.007266809232532978 0 0 0 0
2333746816 -0.04913555085659027 -0.1700589656829834 -0.003826162777841091 0.008358643390238285 0 0 0 0
2337468900 -0.05482989922165871 -0.14136406779289246 -0.0022078407928347588 0.00893210619688034 0 0 0 0
2341190984 -0.05197163671255112 -0.11182816326618195 -0.0007076701149344444 0.008803518489003181 0 0 0 0
2344913068 -0.04764317348599434 -0.08194345980882645 0.0005473466590046883 0.008281366899609566 0 0 0 0
2348635152 -0.03736238181591034 -0.05324435234069824 0.0015167677775025368 0.007606153376400471 0 0 0 0
2352357236 -0.020899901166558266 -0.02845185436308384 0.0020858896896243095 0.007044123485684395 0 0 0 0
2356079320 -0.00018316973000764847 -0.005456028506159782 0.0028754808008670807 0.00645276065915823 0 0 0 0
2359801404 0.02370801754295826 0.01296608429402113 0.0034451447427272797 0.0058260029181838036 0 0 0 0
2363523488 0.050537109375 0.02662678435444832 0.004087203182280064 0.004995857365429401 0 0 0 0
2367245572 0.07857409864664078 0.03689833730459213 0.0044926004484295845 0.004139871336519718 0 0 0 0
2370967656 0.10784051567316055 0.04068779945373535 0.004666367545723915 0.0029301242902874947 0 0 0 0
2374689740 0.138271763920784 0.041591204702854156 0.00435237493366003 0.0019667353481054306 0 0 0 0
2378411824 0.16858550906181335 0.03785150498151779 0.0035806559026241302 0.0015068920329213142 0 0 0 0
2382133908 0.19922877848148346 0.028252892196178436 0.003147249110043049 0.001531444489955902 0 0 0 0
2385855992 0.22925584018230438 0.01335223764181137 0.0031463615596294403 0.0019174013286828995 0 0 0 0
2389578076 0.25399550795555115 -0.00840284675359726 0.003440440632402897 0.0017562685534358025 0 0 0 0
2393300160 0.2748613655567169 -0.03326108306646347 0.0038005858659744263 0.001417192630469799 0 0 0 0
2397022244 0.2919156551361084 -0.06037259101867676 0.003897235728800297 0.0007712822407484055 0 0 0 0
2400744328 0.3012935519218445 -0.09349804371595383 0.003974173218011856 9.536650031805038e-05 0 0 0 0
2404466412 0.30691856145858765 -0.12584348022937775 0.0037948191165924072 -0.00038931705057621 0 0 0 0
2408188496 0.30839335918426514 -0.156101793050766 0.0037345243617892265 -0.0008251145482063293 0 0 0 0
2411910580 0.30192771553993225 -0.1916663944721222 0.0034536467865109444 -0.0012712059542536736 0 0 0 0
2415632664 0.29112905263900757 -0.21705998480319977 0.003150859847664833 -0.0016871606931090355 0 0 0 0
2419354748 0.278024286031723 -0.2421339899301529 0.002567368559539318 -0.0021638767793774605 0 0 0 0
2423076832 0.2578791081905365 -0.2679198682308197 0.001976638101041317 -0.0023365579545497894 0 0 0 0
2426798916 0.23617638647556305 -0.2879066467285156 0.0016429470852017403 -0.002210519276559353 0 0 0 0
2430521000 0.21485726535320282 -0.3038862347602844 0.001687072217464447 -0.001843055710196495 0 0 0 0
2434243084 0.18722710013389587 -0.3186591565608978 0.001632564701139927 -0.0016934322193264961 0 0 0 0
2437965168 0.1620759516954422 -0.3273697793483734 0.0018350081518292427 -0.0018204189836978912 0 0 0 0
2441687252 0.13854064047336578 -0.3324176073074341 0.0020954590290784836 -0.002206079661846161 0 0 0 0
2445409336 0.1049589216709137 -0.3377786874771118 0.0021589212119579315 -0.0028434526175260544 0 0 0 0
2449131420 0.07457513362169266 -0.3364827334880829 0.0021663540974259377 -0.0035290373489260674 0 0 0 0
2452853504 0.04591688513755798 -0.3313591182231903 0.0016547022387385368 -0.004099983721971512 0 0 0 0
2456575588 0.018185697495937347 -0.31963247060775757 0.001167716458439827 -0.004704881459474564 0 0 0 0
2460297672 -0.00736931711435318 -0.3059593141078949 0.0004697004333138466 -0.005148034542798996 0 0 0 0
2464019756 -0.03510004281997681 -0.28633540868759155 -0.00016172509640455246 -0.005519665777683258 0 0 0 0
2467741840 -0.05828097462654114 -0.26275187730789185 -0.000812373124063015 -0.005902731791138649 0 0 0 0
2471463924 -0.07537008821964264 -0.2365352362394333 -0.0020880354568362236 -0.006419475190341473 0 0 0 0
2475186008 -0.09059462696313858 -0.20823779702186584 -0.0028940094634890556 -0.006183733232319355 0 0 0 0
2478908092 -0.09729917347431183 -0.17301015555858612 -0.004054783843457699 -0.006172441877424717 0 0 0 0
2482630176 -0.09824199229478836 -0.1393212080001831 -0.005179501138627529 -0.005763423629105091 0 0 0 0
2486352260 -0.09495159983634949 -0.10644269734621048 -0.006135209463536739 -0.0049949632957577705 0 0 0 0
2490074344 -0.08553758263587952 -0.07606267929077148 -0.006972738541662693 -0.004220476374030113 0 0 0 0
2493796428 -0.0717058852314949 -0.0477890819311142 -0.007703462615609169 -0.0035491259768605232 0 0 0 0
2497518512 -0.055854860693216324 -0.02238032966852188 -0.008575520478188992 -0.0026999693363904953 0 0 0 0
2501240596 -0.035635560750961304 1.961551606655121e-05 -0.009487264789640903 -0.0015516402199864388 0 0 0 0
2504962680 -0.012365451082587242 0.019554071128368378 -0.010026607662439346 -0.0003139851614832878 0 0 0 0
2508684764 0.014525344595313072 0.034376636147499084 -0.01017732173204422 0.0017990721389651299 0 0 0 0
2512406848 0.04213056340813637 0.04510742425918579 -0.010083207860589027 0.003276493400335312 0 0 0 0
2516128932 0.070851169526577 0.051190927624702454 -0.009713413193821907 0.0046652816236019135 0 0 0 0
2519851016 0.10016601532697678 0.05277659744024277 -0.009255081415176392 0.006455549038946629 0 0 0 0
2523573100 0.12870162725448608 0.04906173050403595 -0.008130108006298542 0.008190184831619263 0 0 0 0
2527295184 0.15653695166110992 0.04233161732554436 -0.006676335819065571 0.009576905518770218 0 0 0 0
2531017268 0.1828029453754425 0.030420485883951187 -0.005361965857446194 0.010496130213141441 0 0 0 0
2534739352 0.20600411295890808 0.015430394560098648 -0.00347935501486063 0.011446361429989338 0 0 0 0
2538461436 0.22574332356452942 -0.005696110427379608 -0.0016075558960437775 0.0118314940482378 0 0 0 0
2542183520 0.24121122062206268 -0.02515207976102829 0.000488797202706337 0.011963442899286747 0 0 0 0
2545905604 0.2525356411933899 -0.05019710212945938 0.0025170454755425453 0.011521476320922375 0 0 0 0
2549627688 0.2597212791442871 -0.07557372748851776 0.0044079916551709175 0.010931586846709251 0 0 0 0
2553349772 0.2630068063735962 -0.09957900643348694 0.006027732975780964 0.010163281112909317 0 0 0 0
2557071856 0.26425549387931824 -0.12318889796733856 0.0076665813103318214 0.008885584771633148 0 0 0 0
2560793940 0.2564135193824768 -0.1465918868780136 0.00909426249563694 0.007182433269917965 0 0 0 0
2564516024 0.24848636984825134 -0.16561463475227356 0.009886692278087139 0.005529909394681454 0 0 0 0
2568238108 0.23972107470035553 -0.181783527135849 0.010328158736228943 0.0038752425462007523 0 0 0 0
2571960192 0.22615675628185272 -0.19841496646404266 0.010898459702730179 0.0023175226524472237 0 0 0 0
2575682276 0.21302571892738342 -0.21097658574581146 0.01132990326732397 0.000656946562230587 0 0 0 0
2579404360 0.19930890202522278 -0.22051581740379333 0.011560995131731033 -0.0013622315600514412 0 0 0 0
2583126444 0.1834336817264557 -0.22935046255588531 0.011089887470006943 -0.0032476531341671944 0 0 0 0
2586848528 0.17164389789104462 -0.23448584973812103 0.010573659092187881 -0.0052566202357411385 0 0 0 0
2590570612 0.15451376140117645 -0.2399458885192871 0.009508617222309113 -0.007072710432112217 0 0 0 0
2594292696 0.1380060315132141 -0.24234934151172638 0.00832895003259182 -0.008745207451283932 0 0 0 0
2598014780 0.12310559302568436 -0.24171270430088043 0.006728197447955608 -0.010140420868992805 0 0 0 0
2601736864 0.10877919942140579 -0.23925651609897614 0.004613193683326244 -0.011268355883657932 0 0 0 0
2605458948 0.09754270315170288 -0.23326410353183746 0.0025258371606469154 -0.011529440060257912 0 0 0 0
2609181032 0.08380948752164841 -0.22756722569465637 0.0005846675485372543 -0.011571599170565605 0 0 0 0
2612903116 0.07249046117067337 -0.2205112874507904 -0.0010480107739567757 -0.0111291678622365 0 0 0 0
2616625200 0.06367585062980652 -0.2107294648885727 -0.0024849576875567436 -0.010568523779511452 0 0 0 0
2620347284 0.056601423770189285 -0.201773539185524 -0.0037180576473474503 -0.01018407940864563 0 0 0 0
2624069368 0.049013443291187286 -0.19175854325294495 -0.004891115240752697 -0.009684676304459572 0 0 0 0
2627791452 0.04494006931781769 -0.18147659301757812 -0.005828731693327427 -0.010320868343114853 0 0 0 0
2631513536 0.044609054923057556 -0.17053860425949097 -0.007125110365450382 -0.009670418687164783 0 0 0 0
2635235620 0.041509516537189484 -0.15992844104766846 -0.008687684312462807 -0.009056665003299713 0 0 0 0
2638957704 0.04186481237411499 -0.15073153376579285 -0.010312913917005062 -0.007691622711718082 0 0 0 0
2642679788 0.0456106998026371 -0.14011839032173157 -0.011667783372104168 -0.006090512499213219 0 0 0 0
2646401872 0.05074624717235565 -0.1313946545124054 -0.012624089606106281 -0.004199063405394554 0 0 0 0
2650123956 0.057418253272771835 -0.1238308846950531 -0.013072440400719643 -0.002482485957443714 0 0 0 0
2653846040 0.06370051950216293 -0.11834213137626648 -0.013668084517121315 -0.0005943998694419861 0 0 0 0
2657568124 0.0706392377614975 -0.11522024869918823 -0.014206602238118649 0.001884697936475277 0 0 0 0
2661290208 0.07918424159288406 -0.11415707319974899 -0.014141621068120003 0.004619930870831013 0 0 0 0
2665012292 0.08606298267841339 -0.11387871950864792 -0.012957065366208553 0.007326245307922363 0 0 0 0
2668734376 0.0913933515548706 -0.1160009577870369 -0.01115300040692091 0.009888697415590286 0 0 0 0
2672456460 0.0966142863035202 -0.11868005245923996 -0.008869371376931667 0.011680355295538902 0 0 0 0
2676178544 0.1006401926279068 -0.1204862892627716 -0.006337163038551807 0.012707266956567764 0 0 0 0
2679900628 0.10433696955442429 -0.12308874726295471 -0.0036366386339068413 0.013524690642952919 0 0 0 0
2683622712 0.10694041103124619 -0.12575572729110718 -0.000820268876850605 0.013560204766690731 0 0 0 0
2687344796 0.10992702841758728 -0.1306498646736145 0.0019214097410440445 0.012997191399335861 0 0 0 0
2691066880 0.11460557579994202 -0.13481877744197845 0.004281933419406414 0.011796453036367893 0 0 0 0
2694788964 0.11511129140853882 -0.1424286961555481 0.006004836410284042 0.01021746825426817 0 0 0 0
2698511048 0.1150934100151062 -0.14883320033550262 0.00715425331145525 0.008675182238221169 0 0 0 0
2702233132 0.11267104744911194 -0.15653802454471588 0.00826744083315134 0.007274125702679157 0 0 0 0
2705955216 0.1079006940126419 -0.1652580201625824 0.00917284656316042 0.005629653111100197 0 0 0 0
2709677300 0.10128207504749298 -0.17291289567947388 0.010076905600726604 0.004047243855893612 0 0 0 0
2713399384 0.0907553881406784 -0.1785520315170288 0.010873100720345974 0.0020793844014406204 0 0 0 0
2717121468 0.08092033863067627 -0.18087083101272583 0.011126358062028885 -6.0556456446647644e-05 0 0 0 0
2720843552 0.0701783299446106 -0.1814597249031067 0.01093653030693531 -0.002413223497569561 0 0 0 0
2724565636 0.05740715563297272 -0.17922592163085938 0.010241075418889523 -0.004676726646721363 0 0 0 0
2728287720 0.04724651575088501 -0.17542532086372375 0.009043335914611816 -0.006365932524204254 0 0 0 0
2732009804 0.03628802299499512 -0.16940870881080627 0.0073311952874064445 -0.007861246354877949 0 0 0 0
2735731888 0.026897035539150238 -0.16075719892978668 0.005904101766645908 -0.008938050828874111 0 0 0 0
2739453972 0.01802774704992771 -0.14983892440795898 0.004169349558651447 -0.009920050390064716 0 0 0 0
2743176056 0.011835727840662003 -0.13789188861846924 0.002438526600599289 -0.010623996146023273 0 0 0 0
2746898140 0.00645320862531662 -0.12396836280822754 0.0003097057342529297 -0.011194328777492046 0 0 0 0
2750620224 0.0048367977142333984 -0.10912815481424332 -0.0019688792526721954 -0.011374658904969692 0 0 0 0
2754342308 0.004017520695924759 -0.09327699989080429 -0.004456914961338043 -0.01077230554074049 0 0 0 0
2758064392 0.007522501051425934 -0.07731737941503525 -0.00682035181671381 -0.009200106374919415 0 0 0 0
2761786476 0.015233663842082024 -0.06188212335109711 -0.008318644016981125 -0.007451092824339867 0 0 0 0
2765508560 0.02301049418747425 -0.04860740900039673 -0.00951739028096199 -0.005222479812800884 0 0 0 0
2769230644 0.03477161377668381 -0.03556152433156967 -0.010061774402856827 -0.0031362073495984077 0 0 0 0
2772952728 0.04718223959207535 -0.024747416377067566 -0.010215260088443756 -0.0010251644998788834 0 0 0 0
2776674812 0.062306009232997894 -0.015552481636404991 -0.009904508478939533 0.0010378407314419746 0 0 0 0
2780396896 0.07871837168931961 -0.00839140359312296 -0.009465101175010204 0.0028992844745516777 0 0 0 0
2784118980 0.09617282450199127 -0.0034443140029907227 -0.008423344232141972 0.004866469651460648 0 0 0 0
2787841064 0.11547397077083588 -0.001870129257440567 -0.0069276923313736916 0.006579498760402203 0 0 0 0
2791563148 0.13552325963974 -0.0021627619862556458 -0.0049185194075107574 0.007823831401765347 0 0 0 0
2795285232 0.15493540465831757 -0.005951342172920704 -0.002575969323515892 0.008478164672851562 0 0 0 0
2799007316 0.17336073517799377 -0.014932829886674881 -0.00042590033262968063 0.008187001571059227 0 0 0 0
2802729400 0.19208909571170807 -0.024977650493383408 0.0012885592877864838 0.007363750599324703 0 0 0 0
2806451484 0.20933473110198975 -0.039680831134319305 0.0027045654132962227 0.006649320013821125 0 0 0 0
2810173568 0.22453483939170837 -0.05211914703249931 0.003705225884914398 0.005778204649686813 0 0 0 0
2813895652 0.23607370257377625 -0.07387100160121918 0.004856264218688011 0.0046386923640966415 0 0 0 0
2817617736 0.24621467292308807 -0.09301288425922394 0.00546789076179266 0.003306847997009754 0 0 0 0
2821339820 0.2504503130912781 -0.11923399567604065 0.00565033033490181 0.0019698068499565125 0 0 0 0
2825061904 0.2546006739139557 -0.1380973607301712 0.005763634108006954 0.0009503429755568504 0 0 0 0
2828783988 0.2553802728652954 -0.16186778247356415 0.005875936709344387 5.9750862419605255e-05 0 0 0 0
2832506072 0.25307613611221313 -0.18499158322811127 0.005975597538053989 -0.001165664754807949 0 0 0 0
2836228156 0.2463446706533432 -0.20919813215732574 0.005594425834715366 -0.0022881589829921722 0 0 0 0
2839950240 0.23611417412757874 -0.23327818512916565 0.004898260347545147 -0.0032371915876865387 0 0 0 0
2843672324 0.2210659384727478 -0.25438380241394043 0.004247772507369518 -0.00406309962272644 0 0 0 0
2847394408 0.205400750041008 -0.27232617139816284 0.0036600101739168167 -0.004595547914505005 0 0 0 0
2851116492 0.1860811561346054 -0.29203084111213684 0.0029292991384863853 -0.005171176977455616 0 0 0 0
2854838576 0.1640411913394928 -0.30425435304641724 0.0020044688135385513 -0.005804612301290035 0 0 0 0
2858560660 0.14346244931221008 -0.315793514251709 0.0012379083782434464 -0.006527136079967022 0 0 0 0
2862282744 0.11495699733495712 -0.324037104845047 1.31949782371521e-05 -0.00675527099519968 0 0 0 0
2866004828 0.08653431385755539 -0.32960179448127747 -0.0013936897739768028 -0.006625615060329437 0 0 0 0
2869726912 0.06866782158613205 -0.328769713640213 -0.002627081237733364 -0.006224584765732288 0 0 0 0
2873448996 0.039134278893470764 -0.3264937102794647 -0.003752213902771473 -0.005525385960936546 0 0 0 0
2877171080 0.012678533792495728 -0.3208617568016052 -0.004718528129160404 -0.004393557086586952 0 0 0 0
2880893164 -0.011432632803916931 -0.31138819456100464 -0.005310206674039364 -0.0030606547370553017 0 0 0 0
2884615248 -0.03717488795518875 -0.2989034056663513 -0.0051944442093372345 -0.001886863261461258 0 0 0 0
2888337332 -0.05820826441049576 -0.28497928380966187 -0.005122995935380459 -0.0008231410756707191 0 0 0 0
2892059416 -0.08114240318536758 -0.26591330766677856 -0.004837493412196636 1.1967495083808899e-05 0 0 0 0
2895781500 -0.09928596019744873 -0.24365106225013733 -0.004424986429512501 0.0007892753928899765 0 0 0 0
2899503584 -0.11202441155910492 -0.2193659394979477 -0.0040795812383294106 0.0013901283964514732 0 0 0 0
2903225668 -0.12510474026203156 -0.1934908926486969 -0.0037202127277851105 0.002179725095629692 0 0 0 0
2906947752 -0.1344481110572815 -0.16442479193210602 -0.0030375244095921516 0.0029085390269756317 0 0 0 0
2910669836 -0.13847722113132477 -0.13552908599376678 -0.0022706221789121628 0.003444775938987732 0 0 0 0
2914391920 -0.13832607865333557 -0.10591311752796173 -0.001323300413787365 0.0036767590790987015 0 0 0 0
2918114004 -0.13408242166042328 -0.07708542793989182 -0.0002923896536231041 0.003816095180809498 0 0 0 0
2921836088 -0.12589044868946075 -0.05020623281598091 0.0005057500675320625 0.0035897670313715935 0 0 0 0
2925558172 -0.11617812514305115 -0.021978411823511124 0.0014568120241165161 0.0032440051436424255 0 0 0 0
2929280256 -0.10060751438140869 0.0030020400881767273 0.0019592437893152237 0.0026054754853248596 0 0 0 0
2933002340 -0.08124726265668869 0.02812964655458927 0.0020925477147102356 0.0021007051691412926 0 0 0 0
2936724424 -0.058682993054389954 0.04827841743826866 0.0021482352167367935 0.0018073469400405884 0 0 0 0
2940446508 -0.03440503403544426 0.06493686884641647 0.002312207594513893 0.001597112976014614 0 0 0 0
2944168592 -0.006853295490145683 0.07766472548246384 0.0026636216789484024 0.001547662541270256 0 0 0 0
2947890676 0.02078397199511528 0.08601558953523636 0.003002868965268135 0.001184258610010147 0 0 0 0
2951612760 0.04901869222521782 0.09157837927341461 0.003411330282688141 0.0009665088728070259 0 0 0 0
2955334844 0.0769890546798706 0.0935891643166542 0.0036803102120757103 0.00042197946459054947 0 0 0 0
2959056928 0.10593324899673462 0.09093169867992401 0.004033271223306656 -0.00010660011321306229 0 0 0 0
2962779012 0.1346086710691452 0.08410747349262238 0.004229186102747917 -0.000780642032623291 0 0 0 0
2966501096 0.16045448184013367 0.0740751177072525 0.004254700616002083 -0.001550513319671154 0 0 0 0
2970223180 0.18573150038719177 0.057584673166275024 0.004207797348499298 -0.0024783415719866753 0 0 0 0
2973945264 0.20687592029571533 0.04063570499420166 0.0036303047090768814 -0.00322545412927866 0 0 0 0
2977667348 0.22513225674629211 0.02008058875799179 0.003013893961906433 -0.004026853479444981 0 0 0 0
2981389432 0.2404295653104782 -0.0015411376953125 0.0022054286673665047 -0.004588315263390541 0 0 0 0
2985111516 0.2523426413536072 -0.023672591894865036 0.001311304047703743 -0.005002258345484734 0 0 0 0
2988833600 0.2605167031288147 -0.047914884984493256 4.671979695558548e-05 -0.0051069725304841995 0 0 0 0
2992555684 0.26445573568344116 -0.0716773048043251 -0.0010069329291582108 -0.004793232306838036 0 0 0 0
2996277768 0.26758459210395813 -0.09435248374938965 -0.002067871391773224 -0.0044054631143808365 0 0 0 0
2999999852 0.2666364312171936 -0.11827342212200165 -0.0030652908608317375 -0.0033014388754963875 0 0 0 0
