# HZ S RI R 50
1500000000 -0.1039586067199707 -0.0029240138828754425 0.04255498945713043 -0.02991682104766369 0 0 0 0
1503722084 -0.08337047696113586 0.023481519892811775 0.03619652986526489 -0.03612620756030083 0 0 0 0
1507444168 -0.05562761053442955 0.04637954756617546 0.029656115919351578 -0.040324706584215164 0 0 0 0
1511166252 -0.02179068513214588 0.06341681629419327 0.0226597860455513 -0.04429605230689049 0 0 0 0
1514888336 0.014279169961810112 0.07403374463319778 0.015248291194438934 -0.046990107744932175 0 0 0 0
1518610420 0.05179867520928383 0.0793246254324913 0.007317455485463142 -0.048783838748931885 0 0 0 0
1522332504 0.09021670371294022 0.07895848900079727 -0.0010796952992677689 -0.04932877793908119 0 0 0 0
1526054588 0.12937790155410767 0.07390012592077255 -0.010528277605772018 -0.04800321161746979 0 0 0 0
1529776672 0.1702527105808258 0.06233144924044609 -0.019532034173607826 -0.04371444508433342 0 0 0 0
1533498756 0.21091146767139435 0.04142865166068077 -0.02621629275381565 -0.03735809773206711 0 0 0 0
1537220840 0.24788211286067963 0.014021910727024078 -0.03061402589082718 -0.030684316530823708 0 0 0 0
1540942924 0.28024014830589294 -0.020431742072105408 -0.033823709934949875 -0.02415405958890915 0 0 0 0
1544665008 0.3075944185256958 -0.057793762534856796 -0.03556270897388458 -0.017244121059775352 0 0 0 0
1548387092 0.3272481858730316 -0.10186763852834702 -0.03590285778045654 -0.010560819879174232 0 0 0 0
1552109176 0.34074464440345764 -0.147816002368927 -0.03493458405137062 -0.004762823693454266 0 0 0 0
1555831260 0.3474111258983612 -0.19555552303791046 -0.033186644315719604 0.00031428877264261246 0 0 0 0
1559553344 0.3473612368106842 -0.2441541999578476 -0.030882578343153 0.00458100438117981 0 0 0 0
1563275428 0.3398730754852295 -0.29495254158973694 -0.028478572145104408 0.0082780160009861 0 0 0 0
1566997512 0.3256933093070984 -0.3428787291049957 -0.02579922042787075 0.011132652871310711 0 0 0 0
1570719596 0.30152225494384766 -0.3889293074607849 -0.022919170558452606 0.013526118360459805 0 0 0 0
1574441680 0.26998037099838257 -0.4321770668029785 -0.020086608827114105 0.015281845815479755 0 0 0 0
1578163764 0.23518522083759308 -0.4673224687576294 -0.017625687643885612 0.016501951962709427 0 0 0 0
1581885848 0.19418174028396606 -0.5009597539901733 -0.01547187939286232 0.017801444977521896 0 0 0 0
1585607932 0.14969241619110107 -0.5276815891265869 -0.013180804438889027 0.019276555627584457 0 0 0 0
1589330016 0.10061836242675781 -0.5490516424179077 -0.010392026975750923 0.020401543006300926 0 0 0 0
1593052100 0.048092231154441833 -0.5631098747253418 -0.008028090000152588 0.02114742062985897 0 0 0 0
1596774184 -0.006227836012840271 -0.5690711736679077 -0.005488644354045391 0.02178618684411049 0 0 0 0
1600496268 -0.06381335854530334 -0.5682256817817688 -0.0029126619920134544 0.022445065900683403 0 0 0 0
1604218352 -0.11722275614738464 -0.5583817958831787 -0.00031867343932390213 0.02285679057240486 0 0 0 0
1607940436 -0.17063823342323303 -0.541052520275116 0.0027239425107836723 0.023079480975866318 0 0 0 0
1611662520 -0.2237868458032608 -0.5173565745353699 0.00593174621462822 0.023323556408286095 0 0 0 0
1615384604 -0.276184618473053 -0.4828629493713379 0.009847837500274181 0.02271518111228943 0 0 0 0
1619106688 -0.32007551193237305 -0.4431764483451843 0.013670200482010841 0.021531473845243454 0 0 0 0
1622828772 -0.35789021849632263 -0.3988244831562042 0.017466258257627487 0.019581571221351624 0 0 0 0
1626550856 -0.3931789994239807 -0.34358400106430054 0.021014489233493805 0.016618549823760986 0 0 0 0
1630272940 -0.4176716208457947 -0.28563621640205383 0.02392541989684105 0.013164940290153027 0 0 0 0
1633995024 -0.4374394118785858 -0.22186653316020966 0.026716090738773346 0.008779612369835377 0 0 0 0
1637717108 -0.4461076855659485 -0.15812310576438904 0.028629153966903687 0.004147171974182129 0 0 0 0
1641439192 -0.44490620493888855 -0.08997361361980438 0.029711244627833366 -0.0015181312337517738 0 0 0 0
1645161276 -0.434013307094574 -0.022278277203440666 0.029730569571256638 -0.007868091575801373 0 0 0 0
1648883360 -0.412117600440979 0.043777935206890106 0.027581380680203438 -0.014871196821331978 0 0 0 0
1652605444 -0.3816974461078644 0.10644430667161942 0.023144647479057312 -0.020804380998015404 0 0 0 0
1656327528 -0.3440297842025757 0.1633598804473877 0.0174034982919693 -0.024704065173864365 0 0 0 0
1660049612 -0.29657667875289917 0.21824845671653748 0.011574951931834221 -0.02680378407239914 0 0 0 0
1663771696 -0.23649340867996216 0.26775145530700684 0.005630237981677055 -0.027814043685793877 0 0 0 0
1667493780 -0.1718316227197647 0.30601853132247925 -0.0004045553505420685 -0.027672935277223587 0 0 0 0
1671215864 -0.09668086469173431 0.33523404598236084 -0.006276101805269718 -0.025861673057079315 0 0 0 0
1674937948 -0.021170035004615784 0.3509765863418579 -0.011369832791388035 -0.022624775767326355 0 0 0 0
1678660032 0.0578165203332901 0.35529157519340515 -0.01504100114107132 -0.018221694976091385 0 0 0 0
1682382116 0.1342238336801529 0.3479161262512207 -0.016891280189156532 -0.013632711954414845 0 0 0 0
1686104200 0.21550537645816803 0.3274403512477875 -0.01745930314064026 -0.009114501997828484 0 0 0 0
1689826284 0.28959763050079346 0.29481416940689087 -0.01696927659213543 -0.005272699519991875 0 0 0 0
1693548368 0.3583694100379944 0.25111517310142517 -0.01589813083410263 -0.0023972876369953156 0 0 0 0
1697270452 0.4188570976257324 0.1943242847919464 -0.014657881110906601 -1.6177073121070862e-05 0 0 0 0
1700992536 0.46872997283935547 0.12937334179878235 -0.01355430856347084 0.0017996542155742645 0 0 0 0
1704714620 0.5066925287246704 0.061821579933166504 -0.012431249022483826 0.0035156672820448875 0 0 0 0
1708436704 0.5347296595573425 -0.013709381222724915 -0.011016794480383396 0.005047215148806572 0 0 0 0
1712158788 0.5508183836936951 -0.08996261656284332 -0.009515998885035515 0.006186753511428833 0 0 0 0
1715880872 0.5542783737182617 -0.17153356969356537 -0.007776550017297268 0.007040597498416901 0 0 0 0
1719602956 0.5450651049613953 -0.24955566227436066 -0.006338099017739296 0.00719134695827961 0 0 0 0
1723325040 0.5268473029136658 -0.32049304246902466 -0.0051833027973771095 0.007292071357369423 0 0 0 0
1727047124 0.496031790971756 -0.3898433446884155 -0.004152324050664902 0.007498480379581451 0 0 0 0
1730769208 0.4513567388057709 -0.4570237994194031 -0.0027306275442242622 0.007291341200470924 0 0 0 0
1734491292 0.40520238876342773 -0.5117325782775879 -0.0018111653625965118 0.006605913862586021 0 0 0 0
1738213376 0.3460211455821991 -0.5599288940429688 -0.0014437036588788033 0.0059586698189377785 0 0 0 0
1741935460 0.2820202112197876 -0.598402738571167 -0.001462666317820549 0.005575924180448055 0 0 0 0
1745657544 0.22081416845321655 -0.6253046989440918 -0.00166349858045578 0.0055984798818826675 0 0 0 0
1749379628 0.1432080864906311 -0.6437501907348633 -0.0016080709174275398 0.006040411069989204 0 0 0 0
1753101712 0.07176227122545242 -0.6488465070724487 -0.00115180853754282 0.006707077845931053 0 0 0 0
1756823796 -1.4901161193847656e-07 -0.6439956426620483 -0.0003399970009922981 0.00739468727260828 0 0 0 0
1760545880 -0.06553752720355988 -0.6298439502716064 0.0008231690153479576 0.007596200332045555 0 0 0 0
1764267964 -0.12774744629859924 -0.6041608452796936 0.00208961870521307 0.007645116187632084 0 0 0 0
1767990048 -0.19188015162944794 -0.5678919553756714 0.0035208119079470634 0.00721296202391386 0 0 0 0
1771712132 -0.23855552077293396 -0.528583288192749 0.004502326250076294 0.006316644139587879 0 0 0 0
1775434216 -0.2842087745666504 -0.47720715403556824 0.005230790935456753 0.005272082053124905 0 0 0 0
1779156300 -0.3199807107448578 -0.4237179756164551 0.005575565621256828 0.004236472770571709 0 0 0 0
1782878384 -0.3499147295951843 -0.3641864061355591 0.005442284047603607 0.0032274387776851654 0 0 0 0
1786600468 -0.369095116853714 -0.3029174208641052 0.005040894262492657 0.002590993419289589 0 0 0 0
1790322552 -0.3766212463378906 -0.24179503321647644 0.00468017440289259 0.0026825936511158943 0 0 0 0
1794044636 -0.3767014741897583 -0.17756018042564392 0.0048304358497262 0.002698631025850773 0 0 0 0
1797766720 -0.36760127544403076 -0.11370370537042618 0.005037016235291958 0.0028211958706378937 0 0 0 0
1801488804 -0.34916988015174866 -0.05567824840545654 0.005322050303220749 0.0030840206891298294 0 0 0 0
1805210888 -0.3209981918334961 -0.0020236968994140625 0.0062380097806453705 0.0038025863468647003 0 0 0 0
1808932972 -0.2862377166748047 0.04632364213466644 0.007993211038410664 0.004275531508028507 0 0 0 0
1812655056 -0.2442692220211029 0.08851752430200577 0.010656611062586308 0.003574926406145096 0 0 0 0
1816377140 -0.19728171825408936 0.12466352432966232 0.013210047036409378 0.0012637358158826828 0 0 0 0
1820099224 -0.14558318257331848 0.15081904828548431 0.014532028697431087 -0.0020705275237560272 0 0 0 0
1823821308 -0.0906318873167038 0.16770735383033752 0.014688285067677498 -0.006010148674249649 0 0 0 0
1827543392 -0.03544112667441368 0.17614099383354187 0.013206064701080322 -0.009825697168707848 0 0 0 0
1831265476 0.018269622698426247 0.17659492790699005 0.01101788878440857 -0.012682721018791199 0 0 0 0
1834987560 0.07006395608186722 0.16779249906539917 0.008225447498261929 -0.014517861418426037 0 0 0 0
1838709644 0.11902601271867752 0.15248259902000427 0.005273518152534962 -0.01592916063964367 0 0 0 0
1842431728 0.16446325182914734 0.1301625818014145 0.002409396693110466 -0.01659277267754078 0 0 0 0
1846153812 0.20537659525871277 0.10166697204113007 -0.00041371583938598633 -0.016630422323942184 0 0 0 0
1849875896 0.24031378328800201 0.06741109490394592 -0.0026543028652668 -0.016253696754574776 0 0 0 0
1853597980 0.26829105615615845 0.029516540467739105 -0.004973310977220535 -0.01606351137161255 0 0 0 0
1857320064 0.28858208656311035 -0.013340860605239868 -0.007478207349777222 -0.0153372623026371 0 0 0 0
1861042148 0.30148208141326904 -0.0548333078622818 -0.00957003328949213 -0.014315187931060791 0 0 0 0
1864764232 0.3082811236381531 -0.0991348922252655 -0.011528795585036278 -0.013308510184288025 0 0 0 0
1868486316 0.30810824036598206 -0.14084862172603607 -0.013961754739284515 -0.012090058997273445 0 0 0 0
1872208400 0.30063939094543457 -0.18211567401885986 -0.016429265961050987 -0.010079868137836456 0 0 0 0
1875930484 0.28728410601615906 -0.21913278102874756 -0.01765168085694313 -0.005866063758730888 0 0 0 0
1879652568 0.26816800236701965 -0.25278976559638977 -0.01856182888150215 -0.0027540139853954315 0 0 0 0
1883374652 0.2445496767759323 -0.2821771800518036 -0.01918879523873329 0.00010931771248579025 0 0 0 0
1887096736 0.21648970246315002 -0.30783262848854065 -0.019366517663002014 0.0031792838126420975 0 0 0 0
1890818820 0.18772467970848083 -0.32566511631011963 -0.01902157813310623 0.006248015910387039 0 0 0 0
1894540904 0.1550295650959015 -0.3398319482803345 -0.018547311425209045 0.009611254557967186 0 0 0 0
1898262988 0.12013640254735947 -0.3478805422782898 -0.017250657081604004 0.013219829648733139 0 0 0 0
1901985072 0.08933797478675842 -0.3486025631427765 -0.01508556492626667 0.01655195839703083 0 0 0 0
1905707156 0.05835314095020294 -0.3436198830604553 -0.012662036344408989 0.01962730661034584 0 0 0 0
1909429240 0.026065051555633545 -0.33607158064842224 -0.00888211838901043 0.02279815636575222 0 0 0 0
1913151324 -0.0015433579683303833 -0.32244476675987244 -0.004249148070812225 0.02523791790008545 0 0 0 0
1916873408 -0.02637714147567749 -0.30469048023223877 0.0011403998360037804 0.026306167244911194 0 0 0 0
1920595492 -0.04698118567466736 -0.28317317366600037 0.006834181025624275 0.02584451250731945 0 0 0 0
1924317576 -0.061313144862651825 -0.25951990485191345 0.01201771479099989 0.024259792640805244 0 0 0 0
1928039660 -0.0749802365899086 -0.23285648226737976 0.017079181969165802 0.021653451025485992 0 0 0 0
1931761744 -0.0814489871263504 -0.20576411485671997 0.021534105762839317 0.017959417775273323 0 0 0 0
1935483828 -0.0842035561800003 -0.17889761924743652 0.024909265339374542 0.012724751606583595 0 0 0 0
1939205912 -0.08115160465240479 -0.15178371965885162 0.026576455682516098 0.007071833126246929 0 0 0 0
1942927996 -0.07601267099380493 -0.12460040301084518 0.02694285288453102 0.0014701467007398605 0 0 0 0
1946650080 -0.06430002301931381 -0.0982695147395134 0.026238251477479935 -0.0037430645897984505 0 0 0 0
1950372164 -0.04748805612325668 -0.07456113398075104 0.024203775450587273 -0.008790673688054085 0 0 0 0
1954094248 -0.026423048228025436 -0.05527590215206146 0.021259719505906105 -0.012496506795287132 0 0 0 0
1957816332 -0.0017954139038920403 -0.04025167226791382 0.017777256667613983 -0.015361398458480835 0 0 0 0
1961538416 0.02366826683282852 -0.030842391774058342 0.014216344803571701 -0.017463237047195435 0 0 0 0
1965260500 0.05071099102497101 -0.02582436427474022 0.010845407843589783 -0.018112745136022568 0 0 0 0
1968982584 0.07835641503334045 -0.025882665067911148 0.008340815082192421 -0.01855861395597458 0 0 0 0
1972704668 0.10566198080778122 -0.032719094306230545 0.005955914035439491 -0.019226817414164543 0 0 0 0
1976426752 0.13061776757240295 -0.04328133910894394 0.003981119021773338 -0.020605258643627167 0 0 0 0
1980148836 0.15221703052520752 -0.05892812833189964 0.0003571845591068268 -0.021922122687101364 0 0 0 0
1983870920 0.1714680790901184 -0.07745570689439774 -0.003528682515025139 -0.022901955991983414 0 0 0 0
1987593004 0.1857379525899887 -0.09868107736110687 -0.007800345309078693 -0.02244413271546364 0 0 0 0
1991315088 0.1948249787092209 -0.12360570579767227 -0.012819929979741573 -0.020830770954489708 0 0 0 0
1995037172 0.20060995221138 -0.14837415516376495 -0.016883552074432373 -0.01801665686070919 0 0 0 0
1998759256 0.2016751617193222 -0.17409712076187134 -0.020016152411699295 -0.014193528331816196 0 0 0 0
2002481340 0.19729436933994293 -0.1999811977148056 -0.022059647366404533 -0.010143596678972244 0 0 0 0
2006203424 0.1890585571527481 -0.22310902178287506 -0.02349838800728321 -0.005909807980060577 0 0 0 0
2009925508 0.1759868711233139 -0.24520812928676605 -0.024187393486499786 -0.0018250271677970886 0 0 0 0
2013647592 0.15856346487998962 -0.2641153335571289 -0.024384064599871635 0.0020483816042542458 0 0 0 0
2017369676 0.13870565593242645 -0.27935120463371277 -0.0240531824529171 0.006862311623990536 0 0 0 0
2021091760 0.11695455014705658 -0.2917662262916565 -0.02252396196126938 0.011319983750581741 0 0 0 0
2024813844 0.08958309143781662 -0.3001030683517456 -0.01988496631383896 0.015794722363352776 0 0 0 0
2028535928 0.06562291085720062 -0.3024486303329468 -0.016188258305191994 0.018782271072268486 0 0 0 0
2032258012 0.04168786108493805 -0.3007175028324127 -0.012995446100831032 0.020617229864001274 0 0 0 0
2035980096 0.013714507222175598 -0.2957748770713806 -0.009313007816672325 0.022558804601430893 0 0 0 0
2039702180 -0.0095549076795578 -0.28707507252693176 -0.005776763893663883 0.024269815534353256 0 0 0 0
2043424264 -0.033663228154182434 -0.2720300555229187 -0.0009567923843860626 0.024989785626530647 0 0 0 0
2047146348 -0.05316755175590515 -0.25436392426490784 0.0033385800197720528 0.0247430969029665 0 0 0 0
2050868432 -0.06974566727876663 -0.23291218280792236 0.007554462179541588 0.023382967337965965 0 0 0 0
2054590516 -0.08482605218887329 -0.20893988013267517 0.01141718216240406 0.021528437733650208 0 0 0 0
2058312600 -0.09364616870880127 -0.18307718634605408 0.01491466537117958 0.01901446282863617 0 0 0 0
2062034684 -0.09919722378253937 -0.15606944262981415 0.017520258203148842 0.016077522188425064 0 0 0 0
2065756768 -0.10210810601711273 -0.12676700949668884 0.019812103360891342 0.012455562129616737 0 0 0 0
2069478852 -0.09969544410705566 -0.09799721837043762 0.021052513271570206 0.008689148351550102 0 0 0 0
2073200936 -0.09330537915229797 -0.06818291544914246 0.02185075357556343 0.0050858790054917336 0 0 0 0
2076923020 -0.08176954835653305 -0.038017332553863525 0.021743347868323326 0.000774061307311058 0 0 0 0
2080645104 -0.06440947204828262 -0.010245908051729202 0.021099817007780075 -0.0029329294338822365 0 0 0 0
2084367188 -0.04248553141951561 0.014997703954577446 0.0194129329174757 -0.006733564659953117 0 0 0 0
2088089272 -0.015416951850056648 0.03722985461354256 0.01742715947329998 -0.009786887094378471 0 0 0 0
2091811356 0.015800604596734047 0.053987812250852585 0.014853369444608688 -0.012297412380576134 0 0 0 0
2095533440 0.05052455514669418 0.06517037749290466 0.012314209714531898 -0.01447385735809803 0 0 0 0
2099255524 0.08559229224920273 0.07036703824996948 0.009118545800447464 -0.016058718785643578 0 0 0 0
2102977608 0.12280632555484772 0.06925998628139496 0.0055566830560564995 -0.01664138399064541 0 0 0 0
2106699692 0.1588432490825653 0.061973124742507935 0.002902073785662651 -0.01670346036553383 0 0 0 0
2110421776 0.1937136948108673 0.046919576823711395 0.00022182706743478775 -0.016515182331204414 0 0 0 0
2114143860 0.22425329685211182 0.02738194540143013 -0.00200714822858572 -0.016350189223885536 0 0 0 0
2117865944 0.25090092420578003 0.0018792152404785156 -0.004738440737128258 -0.015986448153853416 0 0 0 0
2121588028 0.2723996341228485 -0.0270242840051651 -0.007548072375357151 -0.014867088757455349 0 0 0 0
2125310112 0.28801751136779785 -0.056327126920223236 -0.009841611608862877 -0.01363951712846756 0 0 0 0
2129032196 0.2985544204711914 -0.08858651667833328 -0.012493869289755821 -0.011621171608567238 0 0 0 0
2132754280 0.30417829751968384 -0.1201225146651268 -0.01464172825217247 -0.009278969839215279 0 0 0 0
2136476364 0.30378806591033936 -0.15549775958061218 -0.016719169914722443 -0.005868292413651943 0 0 0 0
2140198448 0.2984530031681061 -0.18860819935798645 -0.017292281612753868 -0.0017711110413074493 0 0 0 0
2143920532 0.2893892824649811 -0.21889865398406982 -0.01631377637386322 0.0018554627895355225 0 0 0 0
2147642616 0.2753739058971405 -0.24830672144889832 -0.01459047943353653 0.004799472168087959 0 0 0 0
2151364700 0.2576141357421875 -0.27322208881378174 -0.012569557875394821 0.006527787074446678 0 0 0 0
2155086784 0.23336459696292877 -0.2976643741130829 -0.01074305735528469 0.007943104021251202 0 0 0 0
2158808868 0.20819944143295288 -0.3143446743488312 -0.008949628099799156 0.00854154396802187 0 0 0 0
2162530952 0.1786530613899231 -0.3296061158180237 -0.007528022862970829 0.0090516097843647 0 0 0 0
2166253036 0.15044036507606506 -0.33762428164482117 -0.0063874367624521255 0.009497886523604393 0 0 0 0
2169975120 0.12044406682252884 -0.3409634828567505 -0.005321311764419079 0.01037686225026846 0 0 0 0
2173697204 0.09116684645414352 -0.3410886228084564 -0.0038226526230573654 0.011061282828450203 0 0 0 0
2177419288 0.0642019510269165 -0.33552372455596924 -0.0020703747868537903 0.011466764844954014 0 0 0 0
2181141372 0.03520757332444191 -0.3268483877182007 -0.00038176868110895157 0.011361935175955296 0 0 0 0
2184863456 0.011923909187316895 -0.31428444385528564 0.0010482976213097572 0.011173940263688564 0 0 0 0
2188585540 -0.014553950168192387 -0.29835328459739685 0.002621334046125412 0.011190542951226234 0 0 0 0
2192307624 -0.039156049489974976 -0.277969092130661 0.004427159205079079 0.010975412093102932 0 0 0 0
2196029708 -0.056963615119457245 -0.25449156761169434 0.006809947080910206 0.010072373785078526 0 0 0 0
2199751792 -0.07048231363296509 -0.22971907258033752 0.00880794320255518 0.00824811216443777 0 0 0 0
2203473876 -0.08075891435146332 -0.1988924741744995 0.009899046272039413 0.005793140269815922 0 0 0 0
2207195960 -0.08864302933216095 -0.16553878784179688 0.010186434723436832 0.003596917726099491 0 0 0 0
2210918044 -0.08544059097766876 -0.13525117933750153 0.010212467052042484 0.0018314896151423454 0 0 0 0
2214640128 -0.08079464733600616 -0.10369330644607544 0.009996837936341763 -4.937127232551575e-05 0 0 0 0
2218362212 -0.06769926846027374 -0.0760585218667984 0.009657861664891243 -0.0018049543723464012 0 0 0 0
2222084296 -0.051713667809963226 -0.05021077021956444 0.008845404721796513 -0.0037024114280939102 0 0 0 0
2225806380 -0.031253453344106674 -0.027114730328321457 0.007810782641172409 -0.005241318605840206 0 0 0 0
2229528464 -0.007635363377630711 -0.008173661306500435 0.006695599295198917 -0.006242683157324791 0 0 0 0
2233250548 0.019247032701969147 0.005018400028347969 0.005278853699564934 -0.006931670941412449 0 0 0 0
2236972632 0.046610333025455475 0.013831550255417824 0.0036470359191298485 -0.007229999639093876 0 0 0 0
2240694716 0.07370700687170029 0.017778601497411728 0.00267788115888834 -0.007016021758317947 0 0 0 0
2244416800 0.10123352706432343 0.021469514816999435 0.0020105214789509773 -0.006717954762279987 0 0 0 0
2248138884 0.13007250428199768 0.014955835416913033 0.0017148051410913467 -0.0068623218685388565 0 0 0 0
2251860968 0.15750908851623535 0.008276000618934631 0.00212075375020504 -0.006713613867759705 0 0 0 0
2255583052 0.18384377658367157 -0.005200313404202461 0.0007081115618348122 -0.007605833001434803 0 0 0 0
2259305136 0.20713597536087036 -0.02390720695257187 -0.0007388023659586906 -0.0077130552381277084 0 0 0 0
2263027220 0.224140465259552 -0.05104847252368927 -0.0019272351637482643 -0.007363650016486645 0 0 0 0
2266749304 0.23966029286384583 -0.07332050800323486 -0.0027164435014128685 -0.006908685900270939 0 0 0 0
2270471388 0.24491512775421143 -0.1045977845788002 -0.0037535717710852623 -0.006610251031816006 0 0 0 0
2274193472 0.24746328592300415 -0.130377858877182 -0.004483994096517563 -0.0061865029856562614 0 0 0 0
2277915556 0.24536649882793427 -0.15549200773239136 -0.005278283730149269 -0.005596409551799297 0 0 0 0
2281637640 0.23476101458072662 -0.1854904443025589 -0.005788820795714855 -0.005170496180653572 0 0 0 0
2285359724 0.2214951366186142 -0.20655103027820587 -0.0065632835030555725 -0.00456648413091898 0 0 0 0
2289081808 0.21122269332408905 -0.22336725890636444 -0.007379320450127125 -0.004159154370427132 0 0 0 0
2292803892 0.1924075186252594 -0.2393861711025238 -0.008145052939653397 -0.003339361399412155 0 0 0 0
2296525976 0.1728535294532776 -0.2538194954395294 -0.00868661142885685 -0.002079404890537262 0 0 0 0
2300248060 0.15537196397781372 -0.26115235686302185 -0.009186264127492905 -0.0008399477228522301 0 0 0 0
2303970144 0.12918761372566223 -0.2730826735496521 -0.009497095830738544 0.0007908912375569344 0 0 0 0
2307692228 0.10605359077453613 -0.2728451192378998 -0.009177424013614655 0.002503766678273678 0 0 0 0
2311414312 0.08179507404565811 -0.27173203229904175 -0.008507348597049713 0.003760029561817646 0 0 0 0
2315136396 0.05189753696322441 -0.2671651542186737 -0.007637635804712772 0.004775521345436573 0 0 0 0
2318858480 0.03912562131881714 -0.256944477558136 -0.0070624276995658875 0.005300491116940975 0 0 0 0
2322580564 0.009635023772716522 -0.24285343289375305 -0.0064668916165828705 0.0061011649668216705 0 0 0 0
2326302648 -0.009545492008328438 -0.22542846202850342 -0.0058832671493291855 0.006908745504915714 0 0 0 0
2330024732 -0.024310339242219925 -0.2038002759218216 -0.0049758050590753555 0.007549678906798363 0 0 0 0
2333746816 -0.03254825621843338 -0.18042370676994324 -0.004187619313597679 0.007780742831528187 0 0 0 0
2337468900 -0.044506724923849106 -0.15276233851909637 -0.003521965816617012 0.008146170526742935 0 0 0 0
2341190984 -0.04492887482047081 -0.12489302456378937 -0.002888954244554043 0.008642587810754776 0 0 0 0
2344913068 -0.04100271314382553 -0.09663669764995575 -0.0015993602573871613 0.009341410361230373 0 0 0 0
2348635152 -0.034924037754535675 -0.06930413842201233 -0.0003538941964507103 0.009612728841602802 0 0 0 0
2352357236 -0.021556323394179344 -0.044777337461709976 0.0008916296064853668 0.009605428203940392 0 0 0 0
2356079320 -0.006055406294763088 -0.02049735188484192 0.0019720671698451042 0.009372602216899395 0 0 0 0
2359801404 0.014209785498678684 0.0007183346897363663 0.003468969836831093 0.008948179893195629 0 0 0 0
2363523488 0.03896177187561989 0.01819983683526516 0.004857087507843971 0.00831686332821846 0 0 0 0
2367245572 0.06693350523710251 0.032631438225507736 0.00589701347053051 0.00726079847663641 0 0 0 0
2370967656 0.09765106439590454 0.04016707092523575 0.006902881897985935 0.005893145687878132 0 0 0 0
2374689740 0.12958234548568726 0.04287173971533775 0.007249693386256695 0.004349240101873875 0 0 0 0
2378411824 0.16261416673660278 0.039176445454359055 0.007074367254972458 0.0029417062178254128 0 0 0 0
2382133908 0.19513797760009766 0.030638959258794785 0.006864923983812332 0.0020995037630200386 0 0 0 0
2385855992 0.2243882417678833 0.01383838802576065 0.0067284200340509415 0.0015412429347634315 0 0 0 0
2389578076 0.2499440610408783 -0.0078897625207901 0.006823777221143246 0.0007897960022091866 0 0 0 0
2393300160 0.2715502381324768 -0.032581672072410583 0.006813441403210163 7.631443440914154e-05 0 0 0 0
2397022244 0.2878367304801941 -0.06124396622180939 0.006859361194074154 -0.000775742344558239 0 0 0 0
2400744328 0.29758769273757935 -0.0925363153219223 0.006862052716314793 -0.0019351467490196228 0 0 0 0
2404466412 0.3023069500923157 -0.12382040917873383 0.0065676504746079445 -0.003230845555663109 0 0 0 0
2408188496 0.30209881067276 -0.15541721880435944 0.00556496437638998 -0.0042902883142232895 0 0 0 0
2411910580 0.29732733964920044 -0.18424654006958008 0.004615337587893009 -0.005077436566352844 0 0 0 0
2415632664 0.2848355174064636 -0.21370400488376617 0.0035531073808670044 -0.005872434936463833 0 0 0 0
2419354748 0.2734163701534271 -0.2366042286157608 0.0023741163313388824 -0.006343218497931957 0 0 0 0
2423076832 0.25598815083503723 -0.25944066047668457 0.0008445139974355698 -0.006567119620740414 0 0 0 0
2426798916 0.23750917613506317 -0.2804447412490845 -0.0007257545366883278 -0.006263662129640579 0 0 0 0
2430521000 0.21678921580314636 -0.2981235086917877 -0.001815163530409336 -0.005487020127475262 0 0 0 0
2434243084 0.19214977324008942 -0.31355419754981995 -0.002572041004896164 -0.004427382722496986 0 0 0 0
2437965168 0.16694191098213196 -0.3244077265262604 -0.0030101779848337173 -0.003475007601082325 0 0 0 0
2441687252 0.13986924290657043 -0.3301887810230255 -0.0028641363605856895 -0.0025425422936677933 0 0 0 0
2445409336 0.10978633910417557 -0.3356587290763855 -0.002132689580321312 -0.002396784722805023 0 0 0 0
2449131420 0.07703779637813568 -0.33169183135032654 -0.002146451734006405 -0.0016933530569076538 0 0 0 0
2452853504 0.051462769508361816 -0.32460087537765503 -0.002019534818828106 -0.0018669022247195244 0 0 0 0
2456575588 0.020366907119750977 -0.31578969955444336 -0.0022966712713241577 -0.0019270172342658043 0 0 0 0
2460297672 -0.004487261176109314 -0.29914864897727966 -0.0024695033207535744 -0.0018954100087285042 0 0 0 0
2464019756 -0.02870830148458481 -0.28018009662628174 -0.0025672633200883865 -0.0017705773934721947 0 0 0 0
2467741840 -0.04952944070100784 -0.25703364610671997 -0.002764873206615448 -0.0015883222222328186 0 0 0 0
2471463924 -0.0636521726846695 -0.23164820671081543 -0.0028471387922763824 -0.0017860084772109985 0 0 0 0
2475186008 -0.07618924975395203 -0.20340482890605927 -0.003265494480729103 -0.0017515551298856735 0 0 0 0
2478908092 -0.08478911966085434 -0.17936557531356812 -0.003425411880016327 -0.0013117874041199684 0 0 0 0
2482630176 -0.08337091654539108 -0.14588458836078644 -0.0035521769896149635 -0.0011596092954277992 0 0 0 0
2486352260 -0.0804058387875557 -0.1188569962978363 -0.0035658543929457664 -0.001001281663775444 0 0 0 0
2490074344 -0.07665106654167175 -0.09069414436817169 -0.0034205392003059387 -0.0010292557999491692 0 0 0 0
2493796428 -0.06618630886077881 -0.06596029549837112 -0.0038906754925847054 -0.001247975043952465 0 0 0 0
2497518512 -0.05475320294499397 -0.04110005870461464 -0.0044162338599562645 -0.001042766496539116 0 0 0 0
2501240596 -0.039457738399505615 -0.01882757619023323 -0.004981734789907932 -0.0007774792611598969 0 0 0 0
2504962680 -0.021136999130249023 0.0030641015619039536 -0.0053938692435622215 -0.0003181435167789459 0 0 0 0
2508684764 0.0019442131742835045 0.021892394870519638 -0.005987003445625305 0.0002988753840327263 0 0 0 0
2512406848 0.027525143697857857 0.03654157742857933 -0.00632858369499445 0.0011017797514796257 0 0 0 0
2516128932 0.05631890892982483 0.046118203550577164 -0.006751606240868568 0.0021584825590252876 0 0 0 0
2519851016 0.08612379431724548 0.050798043608665466 -0.007134695537388325 0.0035791900008916855 0 0 0 0
2523573100 0.11517026275396347 0.04977719485759735 -0.00659389141947031 0.005369001068174839 0 0 0 0
2527295184 0.14369316399097443 0.042890094220638275 -0.004993082955479622 0.006535288877785206 0 0 0 0
2531017268 0.1695835143327713 0.03272645175457001 -0.0037763863801956177 0.006887372583150864 0 0 0 0
2534739352 0.19143879413604736 0.019393078982830048 -0.002892106771469116 0.007211560383439064 0 0 0 0
2538461436 0.2111392319202423 0.002759866416454315 -0.0020225998014211655 0.007587609812617302 0 0 0 0
2542183520 0.22796157002449036 -0.017096392810344696 -0.0008404674008488655 0.008029107004404068 0 0 0 0
2545905604 0.2417963743209839 -0.03694818541407585 0.000268823467195034 0.008042478002607822 0 0 0 0
2549627688 0.25258421897888184 -0.056959763169288635 0.0014220019802451134 0.007953031919896603 0 0 0 0
2553349772 0.2596207559108734 -0.08056972920894623 0.0026332279667258263 0.007923324592411518 0 0 0 0
2557071856 0.262279212474823 -0.10049661993980408 0.003906929865479469 0.007829452864825726 0 0 0 0
2560793940 0.2630727291107178 -0.12381292879581451 0.0051915328949689865 0.007242733612656593 0 0 0 0
2564516024 0.2593841254711151 -0.14700421690940857 0.0066838255152106285 0.006281052716076374 0 0 0 0
2568238108 0.25642627477645874 -0.16355356574058533 0.007968271151185036 0.004934785887598991 0 0 0 0
2571960192 0.24744345247745514 -0.1851956844329834 0.008918356150388718 0.0033041639253497124 0 0 0 0
2575682276 0.23667381703853607 -0.20394326746463776 0.009461681358516216 0.001670224592089653 0 0 0 0
2579404360 0.22327828407287598 -0.21873866021633148 0.00962122343480587 -5.943886935710907e-05 0 0 0 0
2583126444 0.20625337958335876 -0.23434075713157654 0.009615055285394192 -0.0017400439828634262 0 0 0 0
2586848528 0.19132235646247864 -0.2438160628080368 0.009308023378252983 -0.003575415350496769 0 0 0 0
2590570612 0.17258326709270477 -0.2523365020751953 0.008580171503126621 -0.005401988513767719 0 0 0 0
2594292696 0.15491549670696259 -0.25557613372802734 0.00786556676030159 -0.006988071836531162 0 0 0 0
2598014780 0.1360289752483368 -0.25888851284980774 0.006417619995772839 -0.008698909543454647 0 0 0 0
2601736864 0.12171132117509842 -0.2569523751735687 0.004785098135471344 -0.009965680539608002 0 0 0 0
2605458948 0.10244002193212509 -0.2559632360935211 0.002569977194070816 -0.010666527785360813 0 0 0 0
2609181032 0.08438950777053833 -0.2512136995792389 0.0007654018700122833 -0.011024665087461472 0 0 0 0
2612903116 0.06934642791748047 -0.2438412606716156 -0.000935479998588562 -0.010814889334142208 0 0 0 0
2616625200 0.055807821452617645 -0.23485298454761505 -0.002940273843705654 -0.010229336097836494 0 0 0 0
2620347284 0.04543621093034744 -0.22302861511707306 -0.003902088850736618 -0.00942117441445589 0 0 0 0
2624069368 0.033275701105594635 -0.21162061393260956 -0.004979351535439491 -0.008743369951844215 0 0 0 0
2627791452 0.025455880910158157 -0.19719800353050232 -0.0062347277998924255 -0.008307324722409248 0 0 0 0
2631513536 0.019041750580072403 -0.18281568586826324 -0.007107476703822613 -0.0077789099887013435 0 0 0 0
2635235620 0.015138845890760422 -0.1663672924041748 -0.008414650335907936 -0.006778964772820473 0 0 0 0
2638957704 0.014413722790777683 -0.1521303951740265 -0.009492519311606884 -0.005950529128313065 0 0 0 0
2642679788 0.019132152199745178 -0.13508015871047974 -0.010721398517489433 -0.00469394214451313 0 0 0 0
2646401872 0.02480996772646904 -0.12155222147703171 -0.012035669758915901 -0.002815951593220234 0 0 0 0
2650123956 0.034316278994083405 -0.10928639024496078 -0.01249072328209877 -0.00033901073038578033 0 0 0 0
2653846040 0.04373978450894356 -0.0997551828622818 -0.012266024015843868 0.002076728269457817 0 0 0 0
2657568124 0.055204153060913086 -0.09238322079181671 -0.011579040437936783 0.004094226285815239 0 0 0 0
2661290208 0.06795422732830048 -0.08712881058454514 -0.010747170075774193 0.006155334413051605 0 0 0 0
2665012292 0.0798695757985115 -0.08622930943965912 -0.009080889634788036 0.008107119239866734 0 0 0 0
2668734376 0.09236356616020203 -0.08642037957906723 -0.007102166302502155 0.009540189057588577 0 0 0 0
2672456460 0.10436924546957016 -0.08852813392877579 -0.005174074321985245 0.01033787801861763 0 0 0 0
2676178544 0.11341635882854462 -0.09466660767793655 -0.002926798537373543 0.01055847853422165 0 0 0 0
2679900628 0.12477327883243561 -0.10054465383291245 -0.0010430151596665382 0.010635308921337128 0 0 0 0
2683622712 0.13092270493507385 -0.11074861139059067 0.0008637718856334686 0.01028407271951437 0 0 0 0
2687344796 0.1372741162776947 -0.12107518315315247 0.0029161544516682625 0.00942685641348362 0 0 0 0
2691066880 0.1391880214214325 -0.13424921035766602 0.004409256391227245 0.00837346725165844 0 0 0 0
2694788964 0.14076076447963715 -0.14604875445365906 0.005636223591864109 0.00709479209035635 0 0 0 0
2698511048 0.1359473466873169 -0.1593114137649536 0.00653501320630312 0.005519942380487919 0 0 0 0
2702233132 0.130667045712471 -0.17136110365390778 0.007112953811883926 0.003977305255830288 0 0 0 0
2705955216 0.12241062521934509 -0.18053117394447327 0.0073022255674004555 0.002600199542939663 0 0 0 0
2709677300 0.11014324426651001 -0.18877041339874268 0.00731284637004137 0.0013043349608778954 0 0 0 0
2713399384 0.09796926379203796 -0.19445352256298065 0.007255328819155693 0.000374562107026577 0 0 0 0
2717121468 0.08560020476579666 -0.19651208817958832 0.0074682459235191345 -0.0007542697712779045 0 0 0 0
2720843552 0.0703454539179802 -0.19819217920303345 0.007436621934175491 -0.0022336626425385475 0 0 0 0
2724565636 0.05646747723221779 -0.19609063863754272 0.006751823239028454 -0.003712519071996212 0 0 0 0
2728287720 0.0419733040034771 -0.19036434590816498 0.00593341700732708 -0.004858383908867836 0 0 0 0
2732009804 0.029592592269182205 -0.18321380019187927 0.005005364306271076 -0.005964773707091808 0 0 0 0
2735731888 0.01918085664510727 -0.17159029841423035 0.003803539089858532 -0.006806663237512112 0 0 0 0
2739453972 0.011230884119868279 -0.15930578112602234 0.0025947205722332 -0.007468841969966888 0 0 0 0
2743176056 0.0028805267065763474 -0.14564698934555054 0.0011724215000867844 -0.007872364483773708 0 0 0 0
2746898140 -0.0040219612419605255 -0.13133929669857025 -0.0003182990476489067 -0.008273604325950146 0 0 0 0
2750620224 -0.0072750188410282135 -0.11451549828052521 -0.0021201875060796738 -0.008318701758980751 0 0 0 0
2754342308 -0.007253129035234451 -0.09718753397464752 -0.003942091949284077 -0.007944446057081223 0 0 0 0
2758064392 -0.004981284961104393 -0.07832273095846176 -0.005703888833522797 -0.006433191709220409 0 0 0 0
2761786476 0.0025934427976608276 -0.06098340079188347 -0.006875423714518547 -0.004987139254808426 0 0 0 0
2765508560 0.011123711243271828 -0.04432032257318497 -0.007776879705488682 -0.0031657731160521507 0 0 0 0
2769230644 0.023281199857592583 -0.030131366103887558 -0.007989487610757351 -0.0012132078409194946 0 0 0 0
2772952728 0.037170905619859695 -0.017397455871105194 -0.0077855465933680534 0.0008151913061738014 0 0 0 0
2776674812 0.05345867574214935 -0.006080666556954384 -0.0069869160652160645 0.002371753565967083 0 0 0 0
2780396896 0.0722094178199768 0.0026776473969221115 -0.006120949983596802 0.0038293618708848953 0 0 0 0
2784118980 0.0927051529288292 0.009163089096546173 -0.004832339473068714 0.004952705465257168 0 0 0 0
2787841064 0.11481977999210358 0.01180541142821312 -0.0033909911289811134 0.005613388493657112 0 0 0 0
2791563148 0.1380040943622589 0.011147530749440193 -0.00164877250790596 0.005966062657535076 0 0 0 0
2795285232 0.16035737097263336 0.005823777988553047 -7.300637662410736e-06 0.005776555277407169 0 0 0 0
2799007316 0.18287266790866852 -0.0021885856986045837 0.0013883663341403008 0.0051620760932564735 0 0 0 0
2802729400 0.20331844687461853 -0.016032181680202484 0.0024275528267025948 0.004119373857975006 0 0 0 0
2806451484 0.22104302048683167 -0.03506985306739807 0.002888050861656666 0.003100988455116749 0 0 0 0
2810173568 0.23577921092510223 -0.051015354692935944 0.0030834125354886055 0.0024206992238759995 0 0 0 0
2813895652 0.24955083429813385 -0.07123709470033646 0.003600962460041046 0.0017605815082788467 0 0 0 0
2817617736 0.2590436637401581 -0.09841158241033554 0.003997103311121464 0.0009685894474387169 0 0 0 0
2821339820 0.26634326577186584 -0.12175901979207993 0.0041502537205815315 -0.00023884978145360947 0 0 0 0
2825061904 0.26582977175712585 -0.14946487545967102 0.003754928708076477 -0.001088014803826809 0 0 0 0
2828783988 0.26682278513908386 -0.17387467622756958 0.003423723392188549 -0.0016710469499230385 0 0 0 0
2832506072 0.25784817337989807 -0.2019139528274536 0.002956346608698368 -0.002180286683142185 0 0 0 0
2836228156 0.2477930337190628 -0.22590722143650055 0.0026022475212812424 -0.0026422031223773956 0 0 0 0
2839950240 0.2319999784231186 -0.25011658668518066 0.0021183183416724205 -0.0030038096010684967 0 0 0 0
2843672324 0.21323198080062866 -0.27176374197006226 0.0017637629061937332 -0.0032576676458120346 0 0 0 0
2847394408 0.19576893746852875 -0.28655362129211426 0.0013411585241556168 -0.0036356188356876373 0 0 0 0
2851116492 0.1721954494714737 -0.30046331882476807 0.0008221929892897606 -0.003953005187213421 0 0 0 0
2854838576 0.14995363354682922 -0.31057310104370117 0.00012317299842834473 -0.004084446467459202 0 0 0 0
2858560660 0.12787902355194092 -0.31910890340805054 -0.0003541363403201103 -0.0045694150030612946 0 0 0 0
2862282744 0.09782197326421738 -0.32476353645324707 -0.0011799391359090805 -0.004389501176774502 0 0 0 0
2866004828 0.07942758500576019 -0.3241642117500305 -0.0016953377053141594 -0.004237473011016846 0 0 0 0
2869726912 0.05232821777462959 -0.3238499164581299 -0.0023153191432356834 -0.003882385790348053 0 0 0 0
2873448996 0.027722328901290894 -0.3185422122478485 -0.0029008155688643456 -0.0035994593054056168 0 0 0 0
2877171080 -0.0008426997810602188 -0.3113293945789337 -0.0035923561081290245 -0.00316740944981575 0 0 0 0
2880893164 -0.021728482097387314 -0.30163460969924927 -0.004262168891727924 -0.0025536194443702698 0 0 0 0
2884615248 -0.0465395525097847 -0.28616705536842346 -0.004742426797747612 -0.0014703497290611267 0 0 0 0
2888337332 -0.06745107471942902 -0.26734116673469543 -0.004738956689834595 -0.0003533121198415756 0 0 0 0
2892059416 -0.08274061977863312 -0.24637636542320251 -0.004615991376340389 0.0007235659286379814 0 0 0 0
2895781500 -0.0991935133934021 -0.2232619971036911 -0.004021170549094677 0.0016666986048221588 0 0 0 0
2899503584 -0.10712562501430511 -0.19883182644844055 -0.0036699483171105385 0.0022539785131812096 0 0 0 0
2903225668 -0.1172281801700592 -0.17145855724811554 -0.002953093498945236 0.0028694281354546547 0 0 0 0
2906947752 -0.11963700503110886 -0.14668579399585724 -0.0024613626301288605 0.0034706806764006615 0 0 0 0
2910669836 -0.12000495940446854 -0.1198597401380539 -0.0016418006271123886 0.004227893427014351 0 0 0 0
2914391920 -0.1163530945777893 -0.09423651546239853 -0.00048046186566352844 0.004448983818292618 0 0 0 0
2918114004 -0.109246626496315 -0.07111813127994537 0.0007480224594473839 0.004546424373984337 0 0 0 0
2921836088 -0.09957537055015564 -0.04919637739658356 0.0018534492701292038 0.0041117239743471146 0 0 0 0
2925558172 -0.08827171474695206 -0.026788834482431412 0.002843317575752735 0.0033856313675642014 0 0 0 0
2929280256 -0.0752459317445755 -0.0077262260019779205 0.0033672600984573364 0.0025820238515734673 0 0 0 0
2933002340 -0.05946456640958786 0.009302925318479538 0.0036602169275283813 0.0020947130396962166 0 0 0 0
2936724424 -0.04117151349782944 0.025630943477153778 0.004128801636397839 0.0014343950897455215 0 0 0 0
2940446508 -0.02298779785633087 0.038568366318941116 0.004460809752345085 0.0007217926904559135 0 0 0 0
2944168592 -0.002594185061752796 0.04948444664478302 0.004423344507813454 -0.00015670713037252426 0 0 0 0
2947890676 0.018542418256402016 0.05861271545290947 0.004252113401889801 -0.0008496642112731934 0 0 0 0
2951612760 0.04142777621746063 0.0650048479437828 0.0039248596876859665 -0.0012050820514559746 0 0 0 0
2955334844 0.06413581222295761 0.0690625011920929 0.0038669798523187637 -0.0016315793618559837 0 0 0 0
2959056928 0.08784859627485275 0.06958725303411484 0.003835347481071949 -0.002125120721757412 0 0 0 0
2962779012 0.1121194139122963 0.06729152053594589 0.0038500232622027397 -0.0028480347245931625 0 0 0 0
2966501096 0.13488614559173584 0.06222342699766159 0.0034281285479664803 -0.003476749174296856 0 0 0 0
2970223180 0.1579613983631134 0.05248972773551941 0.0027840938419103622 -0.00437676627188921 0 0 0 0
2973945264 0.17879575490951538 0.041590020060539246 0.0014889175072312355 -0.004973987117409706 0 0 0 0
2977667348 0.19896088540554047 0.027139414101839066 0.0005492223426699638 -0.004981916397809982 0 0 0 0
2981389432 0.21719616651535034 0.013460598886013031 -0.00044101011008024216 -0.004838517867028713 0 0 0 0
2985111516 0.23201905190944672 -0.006148084998130798 -0.0014779074117541313 -0.004429874010384083 0 0 0 0
2988833600 0.2447822540998459 -0.027897275984287262 -0.0022144345566630363 -0.003784444183111191 0 0 0 0
2992555684 0.25526994466781616 -0.04860812798142433 -0.0028009703382849693 -0.0029240772128105164 0 0 0 0
2996277768 0.2630208134651184 -0.07030092924833298 -0.0029876790940761566 -0.0021664025261998177 0 0 0 0
2999999852 0.2670397162437439 -0.09200118482112885 -0.003185912035405636 -0.001354355365037918 0 0 0 0
