# HZ S RI R 50
1500000000 -0.09944518655538559 -0.01836562342941761 0.04489228129386902 -0.027447255328297615 0 0 0 0
1503722084 -0.0808393806219101 0.007203066721558571 0.038477521389722824 -0.03330472484230995 0 0 0 0
1507444168 -0.05681530013680458 0.028696412220597267 0.03244922682642937 -0.03782065957784653 0 0 0 0
1511166252 -0.02823878638446331 0.045806724578142166 0.026321234181523323 -0.04180845618247986 0 0 0 0
1514888336 0.0032027829438447952 0.05841096490621567 0.01928969845175743 -0.044902995228767395 0 0 0 0
1518610420 0.03712477162480354 0.06653812527656555 0.012005984783172607 -0.047078847885131836 0 0 0 0
1522332504 0.07310457527637482 0.07073817402124405 0.004343559965491295 -0.048817239701747894 0 0 0 0
1526054588 0.11206866055727005 0.06937907636165619 -0.004936838522553444 -0.04917024448513985 0 0 0 0
1529776672 0.1526874601840973 0.06169063597917557 -0.014456484466791153 -0.046680644154548645 0 0 0 0
1533498756 0.19445452094078064 0.046970661729574203 -0.022127807140350342 -0.04143105447292328 0 0 0 0
1537220840 0.2327929437160492 0.021749325096607208 -0.028200453147292137 -0.035009607672691345 0 0 0 0
1540942924 0.2671518325805664 -0.010428480803966522 -0.03210179880261421 -0.028180809691548347 0 0 0 0
1544665008 0.29660406708717346 -0.04433821141719818 -0.03448093682527542 -0.02130577340722084 0 0 0 0
1548387092 0.3202076852321625 -0.08638036996126175 -0.03538109362125397 -0.014757013879716396 0 0 0 0
1552109176 0.3376549184322357 -0.1312725991010666 -0.03493783622980118 -0.008792761713266373 0 0 0 0
1555831260 0.3485780954360962 -0.1794297993183136 -0.033934518694877625 -0.0033119944855570793 0 0 0 0
1559553344 0.3520694077014923 -0.22909098863601685 -0.03231725096702576 0.0009970562532544136 0 0 0 0
1563275428 0.34714213013648987 -0.2802015244960785 -0.030595166608691216 0.004932185634970665 0 0 0 0
1566997512 0.3351518213748932 -0.3324360251426697 -0.028660060837864876 0.008604149334132671 0 0 0 0
1570719596 0.3134487271308899 -0.3824644088745117 -0.026107758283615112 0.012020346708595753 0 0 0 0
1574441680 0.2839609384536743 -0.4282885491847992 -0.02328009158372879 0.014530113898217678 0 0 0 0
1578163764 0.2500632107257843 -0.467828631401062 -0.020450452342629433 0.016349149867892265 0 0 0 0
1581885848 0.2063562124967575 -0.5054395198822021 -0.018075071275234222 0.0178542360663414 0 0 0 0
1585607932 0.16443853080272675 -0.5344116687774658 -0.015993822365999222 0.019404800608754158 0 0 0 0
1589330016 0.11047954857349396 -0.5593701601028442 -0.013527675531804562 0.02110040932893753 0 0 0 0
1593052100 0.05498426407575607 -0.5763577222824097 -0.010683631524443626 0.022756347432732582 0 0 0 0
1596774184 -0.003114759922027588 -0.583855926990509 -0.007537431083619595 0.024068353697657585 0 0 0 0
1600496268 -0.06700099259614944 -0.5806220173835754 -0.00386927742511034 0.024800967425107956 0 0 0 0
1604218352 -0.11936122179031372 -0.570655882358551 -0.0007012877613306046 0.025052344426512718 0 0 0 0
1607940436 -0.1819716989994049 -0.5501198768615723 0.003081335686147213 0.024823494255542755 0 0 0 0
1611662520 -0.2354067713022232 -0.5252348780632019 0.006599243730306625 0.024299751967191696 0 0 0 0
1615384604 -0.2821667790412903 -0.4930201768875122 0.009908361360430717 0.023182017728686333 0 0 0 0
1619106688 -0.3321201801300049 -0.44751670956611633 0.013387024402618408 0.02162191830575466 0 0 0 0
1622828772 -0.37263762950897217 -0.39870110154151917 0.016700133681297302 0.019715724512934685 0 0 0 0
1626550856 -0.40525251626968384 -0.3437667489051819 0.019757144153118134 0.017184697091579437 0 0 0 0
1630272940 -0.4305609464645386 -0.2816573977470398 0.022674551233649254 0.013912622816860676 0 0 0 0
1633995024 -0.4487454295158386 -0.21590417623519897 0.02536475658416748 0.010135756805539131 0 0 0 0
1637717108 -0.45575469732284546 -0.1512364149093628 0.02743922546505928 0.005519777536392212 0 0 0 0
1641439192 -0.4544810652732849 -0.08041305840015411 0.028301335871219635 0.00029468536376953125 0 0 0 0
1645161276 -0.44112640619277954 -0.01220659725368023 0.028229929506778717 -0.0050664022564888 0 0 0 0
1648883360 -0.41779622435569763 0.05512358248233795 0.026815015822649002 -0.010713630355894566 0 0 0 0
1652605444 -0.3857170641422272 0.11965171992778778 0.02377060055732727 -0.01571040228009224 0 0 0 0
1656327528 -0.3445448577404022 0.17847031354904175 0.01998252421617508 -0.019576041027903557 0 0 0 0
1660049612 -0.2905089259147644 0.23530513048171997 0.015902532264590263 -0.02254919521510601 0 0 0 0
1663771696 -0.2285883128643036 0.2826540470123291 0.011287616565823555 -0.025222711265087128 0 0 0 0
1667493780 -0.16075700521469116 0.3183777630329132 0.005902102217078209 -0.026953859254717827 0 0 0 0
1671215864 -0.08434005081653595 0.345610111951828 -0.0002560792490839958 -0.027141565456986427 0 0 0 0
1674937948 -0.005726352334022522 0.3583223521709442 -0.0058938972651958466 -0.0252386461943388 0 0 0 0
1678660032 0.07419387996196747 0.35952913761138916 -0.010231688618659973 -0.022241471335291862 0 0 0 0
1682382116 0.15411318838596344 0.3477291464805603 -0.013619625009596348 -0.018571171909570694 0 0 0 0
1686104200 0.23084694147109985 0.3247520923614502 -0.015657756477594376 -0.014621811918914318 0 0 0 0
1689826284 0.3038189709186554 0.2886987626552582 -0.016612157225608826 -0.010842079296708107 0 0 0 0
1693548368 0.37227022647857666 0.23964600265026093 -0.017018666490912437 -0.007842378690838814 0 0 0 0
1697270452 0.4284422993659973 0.18467268347740173 -0.017310626804828644 -0.005113723687827587 0 0 0 0
1700992536 0.477486789226532 0.11654091626405716 -0.017374161630868912 -0.0020220885053277016 0 0 0 0
1704714620 0.5131959915161133 0.04827146977186203 -0.016926828771829605 0.0011963946744799614 0 0 0 0
1708436704 0.5383056998252869 -0.029720768332481384 -0.015430236235260963 0.00423642061650753 0 0 0 0
1712158788 0.551401674747467 -0.10794291645288467 -0.01306016743183136 0.006785421632230282 0 0 0 0
1715880872 0.5538414716720581 -0.1828184574842453 -0.010702108033001423 0.008176750503480434 0 0 0 0
1719602956 0.5420811772346497 -0.26133525371551514 -0.00826169177889824 0.008633105084300041 0 0 0 0
1723325040 0.5217533707618713 -0.3344419598579407 -0.006340578198432922 0.008728357031941414 0 0 0 0
1727047124 0.48900556564331055 -0.4047446548938751 -0.004654722288250923 0.008798854425549507 0 0 0 0
1730769208 0.4440135955810547 -0.46816083788871765 -0.002860555425286293 0.00831872969865799 0 0 0 0
1734491292 0.39212900400161743 -0.5226033926010132 -0.001670978032052517 0.007540364749729633 0 0 0 0
1738213376 0.3317079246044159 -0.5708497166633606 -0.0008892463520169258 0.006430592387914658 0 0 0 0
1741935460 0.26670289039611816 -0.6061748266220093 -0.0007569324225187302 0.005573885515332222 0 0 0 0
1745657544 0.20497728884220123 -0.6283374428749084 -0.0009831488132476807 0.005314282141625881 0 0 0 0
1749379628 0.12980760633945465 -0.6442885994911194 -0.0010784175246953964 0.0052254172042012215 0 0 0 0
1753101712 0.054575592279434204 -0.6466483473777771 -0.001084454357624054 0.00550090242177248 0 0 0 0
1756823796 -0.012040853500366211 -0.6388049125671387 -0.0007994696497917175 0.005836515687406063 0 0 0 0
1760545880 -0.08049722015857697 -0.6195942759513855 -0.00043115299195051193 0.00632272195070982 0 0 0 0
1764267964 -0.14403338730335236 -0.591651201248169 0.00023557431995868683 0.006917574442923069 0 0 0 0
1767990048 -0.19858168065547943 -0.557379424571991 0.0014090072363615036 0.007489723153412342 0 0 0 0
1771712132 -0.25137436389923096 -0.5113363862037659 0.002781614661216736 0.007223865017294884 0 0 0 0
1775434216 -0.2901342809200287 -0.4613208472728729 0.004209468141198158 0.006579536944627762 0 0 0 0
1779156300 -0.3243847191333771 -0.4068308174610138 0.005047593265771866 0.005500489845871925 0 0 0 0
1782878384 -0.34822389483451843 -0.3489111065864563 0.005194931291043758 0.0041989851742982864 0 0 0 0
1786600468 -0.3657923638820648 -0.2880072593688965 0.00490926206111908 0.0033382922410964966 0 0 0 0
1790322552 -0.37349289655685425 -0.2245880365371704 0.004571417346596718 0.0030446555465459824 0 0 0 0
1794044636 -0.3704068660736084 -0.1633014678955078 0.004413958638906479 0.002666010521352291 0 0 0 0
1797766720 -0.35869044065475464 -0.10116998106241226 0.0039876606315374374 0.0025325119495391846 0 0 0 0
1801488804 -0.3365499973297119 -0.0457034558057785 0.0033948123455047607 0.0033695772290229797 0 0 0 0
1805210888 -0.3085847496986389 0.008744236081838608 0.003930877894163132 0.004992346279323101 0 0 0 0
1808932972 -0.27206355333328247 0.05426345765590668 0.005922938697040081 0.006361803039908409 0 0 0 0
1812655056 -0.2290073037147522 0.09418752789497375 0.009150399826467037 0.006343921646475792 0 0 0 0
1816377140 -0.1803489625453949 0.1260373890399933 0.01227753609418869 0.004635457880795002 0 0 0 0
1820099224 -0.12957026064395905 0.14959169924259186 0.014659082517027855 0.0015882812440395355 0 0 0 0
1823821308 -0.07505775988101959 0.16485366225242615 0.015624419786036015 -0.0023588351905345917 0 0 0 0
1827543392 -0.02117227390408516 0.17087119817733765 0.014608894474804401 -0.006247933954000473 0 0 0 0
1831265476 0.03113356977701187 0.168772354722023 0.013028784655034542 -0.008996289223432541 0 0 0 0
1834987560 0.0823613852262497 0.15759128332138062 0.011264780536293983 -0.010946298949420452 0 0 0 0
1838709644 0.12793898582458496 0.14043758809566498 0.010012194514274597 -0.012443977408111095 0 0 0 0
1842431728 0.1704331934452057 0.11735789477825165 0.008417130447924137 -0.014638412743806839 0 0 0 0
1846153812 0.20830169320106506 0.08989977836608887 0.006052183918654919 -0.016339970752596855 0 0 0 0
1849875896 0.24144808948040009 0.05607355386018753 0.003727927803993225 -0.017654910683631897 0 0 0 0
1853597980 0.26829880475997925 0.016223788261413574 0.000727103091776371 -0.019020916894078255 0 0 0 0
1857320064 0.2876855432987213 -0.02350372076034546 -0.0026833247393369675 -0.019692299887537956 0 0 0 0
1861042148 0.2997288703918457 -0.06686617434024811 -0.005859273485839367 -0.019678857177495956 0 0 0 0
1864764232 0.3040018379688263 -0.10987511277198792 -0.009544268250465393 -0.01974685676395893 0 0 0 0
1868486316 0.30124419927597046 -0.1518009603023529 -0.014269934967160225 -0.018677469342947006 0 0 0 0
1872208400 0.29185211658477783 -0.1928796023130417 -0.018510280176997185 -0.015828784555196762 0 0 0 0
1875930484 0.27702921628952026 -0.2272157520055771 -0.020634742453694344 -0.013346036896109581 0 0 0 0
1879652568 0.2540484070777893 -0.2602105736732483 -0.02341764234006405 -0.009854458272457123 0 0 0 0
1883374652 0.22954967617988586 -0.28698229789733887 -0.02561270445585251 -0.005181977525353432 0 0 0 0
1887096736 0.20209699869155884 -0.3082025647163391 -0.026958594098687172 -0.0001326063647866249 0 0 0 0
1890818820 0.17112842202186584 -0.3242529034614563 -0.026604346930980682 0.005320848897099495 0 0 0 0
1894540904 0.14095784723758698 -0.33452436327934265 -0.025586361065506935 0.009844712913036346 0 0 0 0
1898262988 0.10837655514478683 -0.340298056602478 -0.024060742929577827 0.014605024829506874 0 0 0 0
1901985072 0.07685571908950806 -0.3384959399700165 -0.021457936614751816 0.019409269094467163 0 0 0 0
1905707156 0.046851977705955505 -0.3346576690673828 -0.017630333080887794 0.023682203143835068 0 0 0 0
1909429240 0.019178837537765503 -0.32380157709121704 -0.012827478349208832 0.02694779634475708 0 0 0 0
1913151324 -0.0075540691614151 -0.3096325099468231 -0.00735580176115036 0.0291777141392231 0 0 0 0
1916873408 -0.025939375162124634 -0.2928628921508789 -0.0019262013956904411 0.030209742486476898 0 0 0 0
1920595492 -0.045635342597961426 -0.27205002307891846 0.003858627751469612 0.030417941510677338 0 0 0 0
1924317576 -0.059843212366104126 -0.24896720051765442 0.009649867191910744 0.029546361416578293 0 0 0 0
1928039660 -0.0675925761461258 -0.22506828606128693 0.015345949679613113 0.027696503326296806 0 0 0 0
1931761744 -0.07445357739925385 -0.20008835196495056 0.02146782912313938 0.024029767140746117 0 0 0 0
1935483828 -0.07648754119873047 -0.17487956583499908 0.026051541790366173 0.018586132675409317 0 0 0 0
1939205912 -0.07507844269275665 -0.14924511313438416 0.02870285138487816 0.012387307360768318 0 0 0 0
1942927996 -0.07026456296443939 -0.1227017268538475 0.029786068946123123 0.005886213853955269 0 0 0 0
1946650080 -0.059071652591228485 -0.09784232079982758 0.029636578634381294 0.00031885504722595215 0 0 0 0
1950372164 -0.04153650999069214 -0.07637761533260345 0.028490565717220306 -0.004555577412247658 0 0 0 0
1954094248 -0.022430194541811943 -0.05729011073708534 0.026675106957554817 -0.009553549811244011 0 0 0 0
1957816332 0.00024138018488883972 -0.04358924180269241 0.02396455779671669 -0.014394357800483704 0 0 0 0
1961538416 0.024211104959249496 -0.03384704142808914 0.02046499215066433 -0.017911985516548157 0 0 0 0
1965260500 0.04990805685520172 -0.027662938460707664 0.016817517578601837 -0.020555168390274048 0 0 0 0
1968982584 0.0778253898024559 -0.026500415056943893 0.013322485610842705 -0.022857345640659332 0 0 0 0
1972704668 0.10506688058376312 -0.03144185245037079 0.009496498852968216 -0.025423839688301086 0 0 0 0
1976426752 0.13088756799697876 -0.04202469810843468 0.004513399675488472 -0.02686433680355549 0 0 0 0
1980148836 0.15337011218070984 -0.058696914464235306 -0.0008331751450896263 -0.027303021401166916 0 0 0 0
1983870920 0.1729123592376709 -0.07719306647777557 -0.005812026560306549 -0.027049139142036438 0 0 0 0
1987593004 0.18626795709133148 -0.10110952705144882 -0.011108174920082092 -0.02557542361319065 0 0 0 0
1991315088 0.19552141427993774 -0.12447899580001831 -0.01619170792400837 -0.022884095087647438 0 0 0 0
1995037172 0.19994574785232544 -0.14938198029994965 -0.020482882857322693 -0.018565626814961433 0 0 0 0
1998759256 0.19943058490753174 -0.17459888756275177 -0.02314949408173561 -0.014218603260815144 0 0 0 0
2002481340 0.1973940134048462 -0.19741517305374146 -0.025125442072749138 -0.009655268862843513 0 0 0 0
2006203424 0.1890701949596405 -0.22103355824947357 -0.026130851358175278 -0.0044363029301166534 0 0 0 0
2009925508 0.17561562359333038 -0.24275675415992737 -0.025964025408029556 8.967891335487366e-05 0 0 0 0
2013647592 0.16118359565734863 -0.26130351424217224 -0.02506743185222149 0.004811183549463749 0 0 0 0
2017369676 0.1415472775697708 -0.2775614559650421 -0.023354869335889816 0.008759347721934319 0 0 0 0
2021091760 0.11910625547170639 -0.291975736618042 -0.021137405186891556 0.012898562476038933 0 0 0 0
2024813844 0.0958215594291687 -0.3010595440864563 -0.018199773505330086 0.015934519469738007 0 0 0 0
2028535928 0.06777621805667877 -0.3055700361728668 -0.01489965058863163 0.01826058141887188 0 0 0 0
2032258012 0.04224381595849991 -0.3045799732208252 -0.011998437345027924 0.01988847926259041 0 0 0 0
2035980096 0.01680462807416916 -0.29998642206192017 -0.008938459679484367 0.021609289571642876 0 0 0 0
2039702180 -0.009762868285179138 -0.2909247875213623 -0.005275820381939411 0.023466290906071663 0 0 0 0
2043424264 -0.03345164656639099 -0.2761710286140442 -0.0008816588670015335 0.023966025561094284 0 0 0 0
2047146348 -0.0539110004901886 -0.2580452859401703 0.003537870943546295 0.02315104566514492 0 0 0 0
2050868432 -0.0718550831079483 -0.2371927946805954 0.007416801527142525 0.021947024390101433 0 0 0 0
2054590516 -0.08535510301589966 -0.2135884016752243 0.011090188287198544 0.01949228160083294 0 0 0 0
2058312600 -0.09676414728164673 -0.1870143711566925 0.013487014919519424 0.016939355060458183 0 0 0 0
2062034684 -0.10336996614933014 -0.15918844938278198 0.015318239107728004 0.014082052744925022 0 0 0 0
2065756768 -0.10612142086029053 -0.1294136643409729 0.016777247190475464 0.011305838823318481 0 0 0 0
2069478852 -0.10437944531440735 -0.0980437695980072 0.017727047204971313 0.008718537166714668 0 0 0 0
2073200936 -0.0983680710196495 -0.06659571826457977 0.019137194380164146 0.006180536933243275 0 0 0 0
2076923020 -0.08593129366636276 -0.03674944117665291 0.01986408606171608 0.003504641354084015 0 0 0 0
2080645104 -0.06842094659805298 -0.007810775190591812 0.020862232893705368 7.831025868654251e-05 0 0 0 0
2084367188 -0.045557036995887756 0.01900150254368782 0.02064480260014534 -0.0038353176787495613 0 0 0 0
2088089272 -0.017199141904711723 0.04147394374012947 0.01968361809849739 -0.007115916348993778 0 0 0 0
2091811356 0.01657845824956894 0.05884528160095215 0.01815657690167427 -0.010909314267337322 0 0 0 0
2095533440 0.05178174376487732 0.06963787972927094 0.015629438683390617 -0.014117124490439892 0 0 0 0
2099255524 0.08902662247419357 0.07344746589660645 0.012175275012850761 -0.016559677198529243 0 0 0 0
2102977608 0.12688042223453522 0.07013702392578125 0.008815200999379158 -0.017727412283420563 0 0 0 0
2106699692 0.1624855101108551 0.06132832169532776 0.00569317489862442 -0.01822558045387268 0 0 0 0
2110421776 0.1968563348054886 0.046561677008867264 0.0028405990451574326 -0.018963785842061043 0 0 0 0
2114143860 0.22783131897449493 0.024263568222522736 -0.0004805913195014 -0.019425055012106895 0 0 0 0
2117865944 0.2532164752483368 -0.0019359737634658813 -0.0037843501195311546 -0.019155068323016167 0 0 0 0
2121588028 0.2720092535018921 -0.03004828840494156 -0.007579188793897629 -0.017870137467980385 0 0 0 0
2125310112 0.28649288415908813 -0.06144573539495468 -0.01066090352833271 -0.016001075506210327 0 0 0 0
2129032196 0.2957623302936554 -0.09259229898452759 -0.013360479846596718 -0.013608252629637718 0 0 0 0
2132754280 0.2989051043987274 -0.12497547268867493 -0.015878520905971527 -0.010603159666061401 0 0 0 0
2136476364 0.29979950189590454 -0.15665623545646667 -0.017602551728487015 -0.006977049633860588 0 0 0 0
2140198448 0.29583343863487244 -0.1881689429283142 -0.01812388002872467 -0.0026065949350595474 0 0 0 0
2143920532 0.28760039806365967 -0.2164490669965744 -0.01708192378282547 0.0012191561982035637 0 0 0 0
2147642616 0.2719019949436188 -0.24770976603031158 -0.015194420702755451 0.0041573066264390945 0 0 0 0
2151364700 0.2545134425163269 -0.271862268447876 -0.013162922114133835 0.005644890479743481 0 0 0 0
2155086784 0.23036885261535645 -0.2933920621871948 -0.011326063424348831 0.0068943314254283905 0 0 0 0
2158808868 0.20842374861240387 -0.3100382685661316 -0.009892063215374947 0.007594740018248558 0 0 0 0
2162530952 0.18067656457424164 -0.3250001072883606 -0.008708752691745758 0.008400151506066322 0 0 0 0
2166253036 0.15355700254440308 -0.33490270376205444 -0.007809985429048538 0.009242421947419643 0 0 0 0
2169975120 0.12240082025527954 -0.341319739818573 -0.006257585249841213 0.010304709896445274 0 0 0 0
2173697204 0.093482106924057 -0.341255784034729 -0.004449949599802494 0.01087554544210434 0 0 0 0
2177419288 0.060959592461586 -0.3371865749359131 -0.002995004877448082 0.010794121772050858 0 0 0 0
2181141372 0.03349915146827698 -0.3267629146575928 -0.001966637559235096 0.010517269372940063 0 0 0 0
2184863456 0.003198757767677307 -0.31401801109313965 -0.0010041464120149612 0.010700898244976997 0 0 0 0
2188585540 -0.018089810386300087 -0.29643458127975464 -6.422866135835648e-05 0.011380773968994617 0 0 0 0
2192307624 -0.038839828222990036 -0.27503857016563416 0.0014797328040003777 0.011973527260124683 0 0 0 0
2196029708 -0.05740990489721298 -0.2503484785556793 0.003965382464230061 0.012299343943595886 0 0 0 0
2199751792 -0.07035936415195465 -0.2224252074956894 0.006642005406320095 0.011786578223109245 0 0 0 0
2203473876 -0.0818871408700943 -0.19114813208580017 0.009168403223156929 0.010370483621954918 0 0 0 0
2207195960 -0.0807461366057396 -0.16297180950641632 0.01088760420680046 0.008487336337566376 0 0 0 0
2210918044 -0.08112862706184387 -0.13054028153419495 0.012395293451845646 0.005877598188817501 0 0 0 0
2214640128 -0.0736999660730362 -0.10219345986843109 0.013165254145860672 0.0031782733276486397 0 0 0 0
2218362212 -0.06062150001525879 -0.07676348835229874 0.013292651623487473 0.0004047052934765816 0 0 0 0
2222084296 -0.045600757002830505 -0.05100894719362259 0.012635543011128902 -0.0026740608736872673 0 0 0 0
2225806380 -0.02651515230536461 -0.028476247563958168 0.010799472220242023 -0.005273841321468353 0 0 0 0
2229528464 -0.002348939888179302 -0.010062720626592636 0.008621420711278915 -0.0069403089582920074 0 0 0 0
2233250548 0.024421727284789085 0.002967153675854206 0.006406080909073353 -0.00784546509385109 0 0 0 0
2236972632 0.05157347023487091 0.010474303737282753 0.004014783538877964 -0.007630284875631332 0 0 0 0
2240694716 0.07934695482254028 0.014112893491983414 0.0023758038878440857 -0.006844778545200825 0 0 0 0
2244416800 0.10721075534820557 0.01324646919965744 0.0021871915087103844 -0.0060611627995967865 0 0 0 0
2248138884 0.133407860994339 0.008934874087572098 0.002052511088550091 -0.006008360534906387 0 0 0 0
2251860968 0.1586763858795166 -0.005384849384427071 0.001337534748017788 -0.006984117440879345 0 0 0 0
2255583052 0.18169677257537842 -0.01865636184811592 0.0008191568776965141 -0.007151693105697632 0 0 0 0
2259305136 0.20195050537586212 -0.0345398485660553 0.00033962540328502655 -0.007256368175148964 0 0 0 0
2263027220 0.21756620705127716 -0.05843222513794899 -0.00033750012516975403 -0.007726824842393398 0 0 0 0
2266749304 0.22722503542900085 -0.08388654887676239 -0.0013596965000033379 -0.008218616247177124 0 0 0 0
2270471388 0.23576194047927856 -0.10399944335222244 -0.0027299076318740845 -0.0084755290299654 0 0 0 0
2274193472 0.23680326342582703 -0.13182561099529266 -0.004035940393805504 -0.008312609046697617 0 0 0 0
2277915556 0.2338806390762329 -0.1565200239419937 -0.005411624908447266 -0.007823859341442585 0 0 0 0
2281637640 0.22944578528404236 -0.17917966842651367 -0.006401943042874336 -0.007191336713731289 0 0 0 0
2285359724 0.22069361805915833 -0.19790148735046387 -0.0072882939130067825 -0.006768275983631611 0 0 0 0
2289081808 0.19998851418495178 -0.22156818211078644 -0.008356400765478611 -0.005720176734030247 0 0 0 0
2292803892 0.18811064958572388 -0.23428674042224884 -0.009175842627882957 -0.005195426754653454 0 0 0 0
2296525976 0.1711634397506714 -0.2451273500919342 -0.010382402688264847 -0.004332486540079117 0 0 0 0
2300248060 0.14892461895942688 -0.25611692667007446 -0.011502434499561787 -0.002949451096355915 0 0 0 0
2303970144 0.13329000771045685 -0.26312774419784546 -0.012413760647177696 -0.0009203217923641205 0 0 0 0
2307692228 0.1045137569308281 -0.2667042016983032 -0.01252872683107853 0.0014161476865410805 0 0 0 0
2311414312 0.08291450142860413 -0.2650825083255768 -0.01208464428782463 0.003708197735249996 0 0 0 0
2315136396 0.060387738049030304 -0.2596778869628906 -0.01100566890090704 0.00571504607796669 0 0 0 0
2318858480 0.03845810145139694 -0.2517924904823303 -0.010003848932683468 0.006974447518587112 0 0 0 0
2322580564 0.01417858712375164 -0.23867131769657135 -0.008989090099930763 0.008231368847191334 0 0 0 0
2326302648 0.0020202696323394775 -0.22140911221504211 -0.00753456074744463 0.009422233328223228 0 0 0 0
2330024732 -0.01713509112596512 -0.2008529007434845 -0.005996000021696091 0.010416335426270962 0 0 0 0
2333746816 -0.027820387855172157 -0.17770883440971375 -0.0044252751395106316 0.01107065100222826 0 0 0 0
2337468900 -0.03230826556682587 -0.153011754155159 -0.0030087046325206757 0.011527064256370068 0 0 0 0
2341190984 -0.03958495333790779 -0.12473604828119278 -0.0014668665826320648 0.011958115734159946 0 0 0 0
2344913068 -0.034848690032958984 -0.0994400829076767 0.0004609161987900734 0.0123211070895195 0 0 0 0
2348635152 -0.02906166948378086 -0.07318568229675293 0.002580239437520504 0.012043221853673458 0 0 0 0
2352357236 -0.018504248932003975 -0.04806799441576004 0.00425547081977129 0.011108048260211945 0 0 0 0
2356079320 -0.0029536010697484016 -0.024890590459108353 0.0058201877400279045 0.009863371960818768 0 0 0 0
2359801404 0.016333356499671936 -0.003178008832037449 0.006681190803647041 0.008721694350242615 0 0 0 0
2363523488 0.04013415798544884 0.0141642726957798 0.007650448940694332 0.007588454522192478 0 0 0 0
2367245572 0.06763177365064621 0.02823501080274582 0.008658550679683685 0.006344040855765343 0 0 0 0
2370967656 0.09702520072460175 0.03671439364552498 0.009362663142383099 0.00473418366163969 0 0 0 0
2374689740 0.12879261374473572 0.03859861195087433 0.009778846986591816 0.002668144181370735 0 0 0 0
2378411824 0.16039733588695526 0.03575886785984039 0.009395337663590908 0.0004353132098913193 0 0 0 0
2382133908 0.19347545504570007 0.026276707649230957 0.008422225713729858 -0.0008520325645804405 0 0 0 0
2385855992 0.22177575528621674 0.011088460683822632 0.007561527192592621 -0.001939338631927967 0 0 0 0
2389578076 0.24682536721229553 -0.010555796325206757 0.006786842830479145 -0.002654166892170906 0 0 0 0
2393300160 0.2671726644039154 -0.0352630615234375 0.005738202482461929 -0.003185192123055458 0 0 0 0
2397022244 0.2827678620815277 -0.06242278218269348 0.005120045505464077 -0.0034447526559233665 0 0 0 0
2400744328 0.2932427227497101 -0.09400772303342819 0.004680094309151173 -0.004134093411266804 0 0 0 0
2404466412 0.29699617624282837 -0.12356649339199066 0.0038752052932977676 -0.004668567329645157 0 0 0 0
2408188496 0.2982015609741211 -0.1528184711933136 0.0027755312621593475 -0.0049869464710354805 0 0 0 0
2411910580 0.2943599224090576 -0.18385446071624756 0.002095581032335758 -0.004915470257401466 0 0 0 0
2415632664 0.28468945622444153 -0.20894475281238556 0.0014362931251525879 -0.0051606930792331696 0 0 0 0
2419354748 0.271350234746933 -0.23467114567756653 0.0004800129681825638 -0.005511563271284103 0 0 0 0
2423076832 0.2563204765319824 -0.2557115852832794 -0.0006892047822475433 -0.005329951643943787 0 0 0 0
2426798916 0.23819804191589355 -0.2754729390144348 -0.0017648329958319664 -0.004750728607177734 0 0 0 0
2430521000 0.21603001654148102 -0.2939683198928833 -0.0023590270429849625 -0.0038094641640782356 0 0 0 0
2434243084 0.19252505898475647 -0.3092637360095978 -0.002547808922827244 -0.0029890239238739014 0 0 0 0
2437965168 0.16725429892539978 -0.32236817479133606 -0.0028156815096735954 -0.00234418548643589 0 0 0 0
2441687252 0.1387757658958435 -0.3301021158695221 -0.0026846108958125114 -0.0017899125814437866 0 0 0 0
2445409336 0.11163577437400818 -0.3342086672782898 -0.0022828811779618263 -0.0012006117030978203 0 0 0 0
2449131420 0.08007172495126724 -0.3326314091682434 -0.002033025026321411 -0.000997280701994896 0 0 0 0
2452853504 0.051044292747974396 -0.3267703056335449 -0.00163173396140337 -0.0009077508002519608 0 0 0 0
2456575588 0.0222531259059906 -0.31399837136268616 -0.0013383151963353157 -0.0009522009640932083 0 0 0 0
2460297672 -0.0034032389521598816 -0.2994336485862732 -0.0011366447433829308 -0.0014153765514492989 0 0 0 0
2464019756 -0.028823912143707275 -0.28052818775177 -0.0010012174025177956 -0.0015856381505727768 0 0 0 0
2467741840 -0.04640848934650421 -0.2583984136581421 -0.0011843908578157425 -0.0021833153441548347 0 0 0 0
2471463924 -0.06282830983400345 -0.2324790060520172 -0.0017591239884495735 -0.0027992893010377884 0 0 0 0
2475186008 -0.07560941576957703 -0.20525223016738892 -0.0025771334767341614 -0.002937696874141693 0 0 0 0
2478908092 -0.08155648410320282 -0.1768108606338501 -0.003358207643032074 -0.0026948200538754463 0 0 0 0
2482630176 -0.08683786541223526 -0.1472262442111969 -0.004163747653365135 -0.0022491198033094406 0 0 0 0
2486352260 -0.08360336720943451 -0.11884798854589462 -0.004565923474729061 -0.0018565459176898003 0 0 0 0
2490074344 -0.07819928228855133 -0.09043512493371964 -0.004942743107676506 -0.0014006784185767174 0 0 0 0
2493796428 -0.06813546270132065 -0.06328640878200531 -0.005141339264810085 -0.0008476991206407547 0 0 0 0
2497518512 -0.055477872490882874 -0.03819985315203667 -0.005421440117061138 -0.00015665777027606964 0 0 0 0
2501240596 -0.0386071614921093 -0.016003649681806564 -0.0053668562322855 0.000587882474064827 0 0 0 0
2504962680 -0.019660720601677895 0.0043021151795983315 -0.005244620144367218 0.0010457206517457962 0 0 0 0
2508684764 0.0028609223663806915 0.022055530920624733 -0.005400702357292175 0.0012921122834086418 0 0 0 0
2512406848 0.028290588408708572 0.03621714189648628 -0.0055959224700927734 0.0016959626227617264 0 0 0 0
2516128932 0.05677244812250137 0.04554353654384613 -0.005909317173063755 0.002282923087477684 0 0 0 0
2519851016 0.08587498962879181 0.050990354269742966 -0.006359117105603218 0.0033354805782437325 0 0 0 0
2523573100 0.11559124290943146 0.04944639652967453 -0.006070579402148724 0.004766236059367657 0 0 0 0
2527295184 0.14402523636817932 0.04230017215013504 -0.005206260830163956 0.005940893664956093 0 0 0 0
2531017268 0.16919776797294617 0.032456908375024796 -0.004524349234998226 0.006678969599306583 0 0 0 0
2534739352 0.19158408045768738 0.01782893016934395 -0.0037472285330295563 0.007736716419458389 0 0 0 0
2538461436 0.21136687695980072 0.0024932287633419037 -0.0024480530992150307 0.008902592584490776 0 0 0 0
2542183520 0.2272639274597168 -0.016138896346092224 -0.0007414417341351509 0.009471136145293713 0 0 0 0
2545905604 0.24091041088104248 -0.03900418058037758 0.0013751918449997902 0.009526596404612064 0 0 0 0
2549627688 0.25039786100387573 -0.05988125130534172 0.002994392067193985 0.009266066364943981 0 0 0 0
2553349772 0.25730133056640625 -0.08085986226797104 0.004623187705874443 0.00841341819614172 0 0 0 0
2557071856 0.259194940328598 -0.10440093278884888 0.006037562154233456 0.007261041551828384 0 0 0 0
2560793940 0.25996774435043335 -0.12281427532434464 0.006950894370675087 0.006051836535334587 0 0 0 0
2564516024 0.2569616138935089 -0.14478084444999695 0.007655520923435688 0.004899946041405201 0 0 0 0
2568238108 0.2517489492893219 -0.16434085369110107 0.008316531777381897 0.0037834681570529938 0 0 0 0
2571960192 0.24452029168605804 -0.1813664734363556 0.008943162858486176 0.0024561258032917976 0 0 0 0
2575682276 0.23474015295505524 -0.1997108906507492 0.009520758874714375 0.001230347901582718 0 0 0 0
2579404360 0.2232303023338318 -0.21490980684757233 0.009931177832186222 -0.000518391840159893 0 0 0 0
2583126444 0.2059815526008606 -0.22949612140655518 0.010001739487051964 -0.0023794909939169884 0 0 0 0
2586848528 0.19033493101596832 -0.24061746895313263 0.009724476374685764 -0.004252292215824127 0 0 0 0
2590570612 0.172279953956604 -0.2507358491420746 0.009142732247710228 -0.006332779303193092 0 0 0 0
2594292696 0.15687164664268494 -0.2541520893573761 0.007799488492310047 -0.008078576065599918 0 0 0 0
2598014780 0.13976459205150604 -0.2563321888446808 0.0061747850850224495 -0.009442591108381748 0 0 0 0
2601736864 0.12021017074584961 -0.2583477199077606 0.004173596389591694 -0.010489480569958687 0 0 0 0
2605458948 0.10163978487253189 -0.2548182010650635 0.00186849944293499 -0.010927765630185604 0 0 0 0
2609181032 0.08693414181470871 -0.24981050193309784 0.00020277313888072968 -0.01094247866421938 0 0 0 0
2612903116 0.07305844128131866 -0.24209237098693848 -0.0016284584999084473 -0.010587463155388832 0 0 0 0
2616625200 0.05774828791618347 -0.232978954911232 -0.00337287038564682 -0.00995742715895176 0 0 0 0
2620347284 0.04906824231147766 -0.22207066416740417 -0.004527035169303417 -0.009135305881500244 0 0 0 0
2624069368 0.03901613876223564 -0.21087375283241272 -0.005432317964732647 -0.008279155008494854 0 0 0 0
2627791452 0.029860008507966995 -0.19775390625 -0.006322095170617104 -0.00752757303416729 0 0 0 0
2631513536 0.024043917655944824 -0.18447789549827576 -0.007143688388168812 -0.006524369120597839 0 0 0 0
2635235620 0.020024556666612625 -0.16918420791625977 -0.00767053198069334 -0.0058630118146538734 0 0 0 0
2638957704 0.018356364220380783 -0.15513691306114197 -0.008547710254788399 -0.005297493189573288 0 0 0 0
2642679788 0.021809788420796394 -0.13928604125976562 -0.009731314145028591 -0.004336078651249409 0 0 0 0
2646401872 0.02825607731938362 -0.12591688334941864 -0.010750222951173782 -0.002732411026954651 0 0 0 0
2650123956 0.0345940962433815 -0.11400681734085083 -0.011168284341692924 -0.0009278887882828712 0 0 0 0
2653846040 0.04327970743179321 -0.10407933592796326 -0.011399470269680023 0.000876949168741703 0 0 0 0
2657568124 0.05472997575998306 -0.09591909497976303 -0.011311156675219536 0.0026669157668948174 0 0 0 0
2661290208 0.0677482932806015 -0.09147921204566956 -0.01097856555134058 0.004752635955810547 0 0 0 0
2665012292 0.07985550165176392 -0.09084107726812363 -0.009924683719873428 0.0069089410826563835 0 0 0 0
2668734376 0.09119229763746262 -0.09163179993629456 -0.008512115105986595 0.008647244423627853 0 0 0 0
2672456460 0.10139608383178711 -0.09451401233673096 -0.0063744718208909035 0.010060601867735386 0 0 0 0
2676178544 0.11004741489887238 -0.09895376116037369 -0.004127614200115204 0.011002526618540287 0 0 0 0
2679900628 0.11973600089550018 -0.10450837761163712 -0.001824570819735527 0.011235222220420837 0 0 0 0
2683622712 0.1262751966714859 -0.11254046857357025 0.0005484223365783691 0.011000074446201324 0 0 0 0
2687344796 0.13010403513908386 -0.12271459400653839 0.0027293749153614044 0.010213100351393223 0 0 0 0
2691066880 0.1334962546825409 -0.13337823748588562 0.004330429248511791 0.008882615715265274 0 0 0 0
2694788964 0.13278523087501526 -0.14346839487552643 0.005566184408962727 0.007638562470674515 0 0 0 0
2698511048 0.13203060626983643 -0.15330517292022705 0.006563871167600155 0.006186849437654018 0 0 0 0
2702233132 0.12600022554397583 -0.16569536924362183 0.007387900725007057 0.004667743109166622 0 0 0 0
2705955216 0.11862741410732269 -0.17519214749336243 0.007652088068425655 0.003240257501602173 0 0 0 0
2709677300 0.10880057513713837 -0.1814277023077011 0.007814588025212288 0.0016615008935332298 0 0 0 0
2713399384 0.09983966499567032 -0.18698139488697052 0.008071552962064743 0.0004891706630587578 0 0 0 0
2717121468 0.0882941484451294 -0.19152256846427917 0.008256621658802032 -0.0010543502867221832 0 0 0 0
2720843552 0.07616878300905228 -0.19353149831295013 0.007736440747976303 -0.0028119180351495743 0 0 0 0
2724565636 0.06224134564399719 -0.19349265098571777 0.006945925764739513 -0.0041899485513567924 0 0 0 0
2728287720 0.04823540896177292 -0.18979838490486145 0.005676694214344025 -0.005268940702080727 0 0 0 0
2732009804 0.035585515201091766 -0.18256133794784546 0.00469751562923193 -0.005989218130707741 0 0 0 0
2735731888 0.021749578416347504 -0.1718382090330124 0.003773215226829052 -0.006641903892159462 0 0 0 0
2739453972 0.012108993716537952 -0.16082939505577087 0.002781219780445099 -0.00748724490404129 0 0 0 0
2743176056 0.0048397257924079895 -0.1472828984260559 0.0016910461708903313 -0.008159101009368896 0 0 0 0
2746898140 -0.0011472776532173157 -0.1326054334640503 7.913913577795029e-05 -0.008924346417188644 0 0 0 0
2750620224 -0.003443188965320587 -0.11709865927696228 -0.0019321497529745102 -0.009217983111739159 0 0 0 0
2754342308 -0.0050249285995960236 -0.10016277432441711 -0.004389191046357155 -0.008808760903775692 0 0 0 0
2758064392 -0.0030505377799272537 -0.0833284854888916 -0.006480667740106583 -0.007282824255526066 0 0 0 0
2761786476 0.0015430320054292679 -0.06655679643154144 -0.007735555060207844 -0.0052330149337649345 0 0 0 0
2765508560 0.008580833673477173 -0.04927520826458931 -0.008382217958569527 -0.0032886629924178123 0 0 0 0
2769230644 0.018682504072785378 -0.03367967531085014 -0.008604016155004501 -0.0012775957584381104 0 0 0 0
2772952728 0.03219745308160782 -0.01863938756287098 -0.008441168814897537 0.0008555129170417786 0 0 0 0
2776674812 0.04848385602235794 -0.006593538448214531 -0.007556193508207798 0.0024766288697719574 0 0 0 0
2780396896 0.06672792881727219 0.003652578219771385 -0.006417684257030487 0.0038913367316126823 0 0 0 0
2784118980 0.08711718022823334 0.011026382446289062 -0.005237110890448093 0.004928836598992348 0 0 0 0
2787841064 0.10952046513557434 0.01470143347978592 -0.003740353509783745 0.0058022672310471535 0 0 0 0
2791563148 0.13315439224243164 0.014923421666026115 -0.002204948104918003 0.0062764594331383705 0 0 0 0
2795285232 0.15693099796772003 0.011532316915690899 -0.0004178052768111229 0.006290755234658718 0 0 0 0
2799007316 0.18049128353595734 0.0035644471645355225 0.0013006357476115227 0.005834126845002174 0 0 0 0
2802729400 0.2029162049293518 -0.010125488042831421 0.0026681488379836082 0.00472074281424284 0 0 0 0
2806451484 0.2225639373064041 -0.02706058695912361 0.0033031031489372253 0.0034991586580872536 0 0 0 0
2810173568 0.2400725781917572 -0.04570318013429642 0.0034685544669628143 0.0025687897577881813 0 0 0 0
2813895652 0.2545231282711029 -0.06778227537870407 0.0037080738693475723 0.0019199615344405174 0 0 0 0
2817617736 0.26428908109664917 -0.09409500658512115 0.0040817866101861 0.0011594593524932861 0 0 0 0
2821339820 0.27164530754089355 -0.11876016110181808 0.004120472818613052 0.00042374711483716965 0 0 0 0
2825061904 0.2743648886680603 -0.14670538902282715 0.004087492823600769 -0.0004954515025019646 0 0 0 0
2828783988 0.27254992723464966 -0.1731657236814499 0.003854416310787201 -0.0010996581986546516 0 0 0 0
2832506072 0.26398906111717224 -0.20371967554092407 0.0036614201962947845 -0.0017067017033696175 0 0 0 0
2836228156 0.2544163167476654 -0.22692374885082245 0.0032581957057118416 -0.0023657316341996193 0 0 0 0
2839950240 0.2399071753025055 -0.2526659667491913 0.002898823469877243 -0.002677096053957939 0 0 0 0
2843672324 0.22079409658908844 -0.2725014090538025 0.0025650933384895325 -0.0031032292172312737 0 0 0 0
2847394408 0.20186078548431396 -0.2915399968624115 0.0023885536938905716 -0.003566664643585682 0 0 0 0
2851116492 0.17794331908226013 -0.3068336844444275 0.001892533153295517 -0.004121698439121246 0 0 0 0
2854838576 0.15222880244255066 -0.3181687295436859 0.00113017950206995 -0.004704702645540237 0 0 0 0
2858560660 0.1327747404575348 -0.32587572932243347 0.0004924004897475243 -0.005193171091377735 0 0 0 0
2862282744 0.09910766780376434 -0.3338862657546997 -0.0004785526543855667 -0.005293757654726505 0 0 0 0
2866004828 0.07636822015047073 -0.3329392969608307 -0.001353706233203411 -0.005069849081337452 0 0 0 0
2869726912 0.049843013286590576 -0.3320295810699463 -0.001971624791622162 -0.004715609364211559 0 0 0 0
2873448996 0.02099187672138214 -0.3264900743961334 -0.0026787659153342247 -0.004435895010828972 0 0 0 0
2877171080 -0.006580755114555359 -0.3175055682659149 -0.0034649213775992393 -0.004039647988975048 0 0 0 0
2880893164 -0.029284868389368057 -0.30525892972946167 -0.00419054739177227 -0.0032817693427205086 0 0 0 0
2884615248 -0.05200406163930893 -0.29048991203308105 -0.004807101562619209 -0.0025817658752202988 0 0 0 0
2888337332 -0.0722484290599823 -0.27032241225242615 -0.005094037391245365 -0.0014101359993219376 0 0 0 0
2892059416 -0.09131987392902374 -0.24903205037117004 -0.0052204737439751625 -0.00014215614646673203 0 0 0 0
2895781500 -0.10673559457063675 -0.22462201118469238 -0.004948300309479237 0.0008642682805657387 0 0 0 0
2899503584 -0.1193230152130127 -0.19718478620052338 -0.00439184345304966 0.0016767065972089767 0 0 0 0
2903225668 -0.12624402344226837 -0.16970068216323853 -0.003925619646906853 0.0025155767798423767 0 0 0 0
2906947752 -0.1304653435945511 -0.140388622879982 -0.0033112801611423492 0.003278185613453388 0 0 0 0
2910669836 -0.12699653208255768 -0.11341223865747452 -0.002362971194088459 0.004026931710541248 0 0 0 0
2914391920 -0.12270479649305344 -0.08470942825078964 -0.0011894935742020607 0.0044380854815244675 0 0 0 0
2918114004 -0.11338946223258972 -0.060138165950775146 4.75933775305748e-05 0.004609494470059872 0 0 0 0
2921836088 -0.1019529178738594 -0.038437120616436005 0.0011806590482592583 0.00407443568110466 0 0 0 0
2925558172 -0.08861004561185837 -0.016984926536679268 0.0018709059804677963 0.0033472757786512375 0 0 0 0
2929280256 -0.07255519926548004 0.0026464946568012238 0.0021350355818867683 0.002877345308661461 0 0 0 0
2933002340 -0.05465281009674072 0.018882961943745613 0.0024708565324544907 0.0025927405804395676 0 0 0 0
2936724424 -0.034995753318071365 0.033646322786808014 0.0029644640162587166 0.0022114459425210953 0 0 0 0
2940446508 -0.014769092202186584 0.045091185718774796 0.0033510467037558556 0.0016685323789715767 0 0 0 0
2944168592 0.00690255593508482 0.05405769869685173 0.003588903695344925 0.0009937835857272148 0 0 0 0
2947890676 0.029727552086114883 0.05980264022946358 0.003504210151731968 0.0005475310608744621 0 0 0 0
2951612760 0.05178537592291832 0.06429045647382736 0.0036758575588464737 0.00012355390936136246 0 0 0 0
2955334844 0.07290610671043396 0.0669921487569809 0.0037523433566093445 -0.00022727716714143753 0 0 0 0
2959056928 0.09640128910541534 0.06523039191961288 0.0039753383025527 -0.0006494568660855293 0 0 0 0
2962779012 0.11905114352703094 0.06239721179008484 0.004192964173853397 -0.001212053932249546 0 0 0 0
2966501096 0.1415223926305771 0.055558446794748306 0.004320594482123852 -0.0021545011550188065 0 0 0 0
2970223180 0.163335919380188 0.04632568359375 0.004094965755939484 -0.003379983827471733 0 0 0 0
2973945264 0.18310405313968658 0.03501022979617119 0.003153839148581028 -0.004314727149903774 0 0 0 0
2977667348 0.20178867876529694 0.019279763102531433 0.002116689458489418 -0.004765148274600506 0 0 0 0
2981389432 0.21828031539916992 0.001330506056547165 0.0008374350145459175 -0.004899273626506329 0 0 0 0
2985111516 0.23144392669200897 -0.01527460664510727 -0.00015416275709867477 -0.004648230038583279 0 0 0 0
2988833600 0.24172039330005646 -0.038256216794252396 -0.0010284092277288437 -0.003984398208558559 0 0 0 0
2992555684 0.2489965260028839 -0.05720633268356323 -0.0016870629042387009 -0.0035850852727890015 0 0 0 0
2996277768 0.2557176649570465 -0.07566668093204498 -0.0022559314966201782 -0.002974766306579113 0 0 0 0
2999999852 0.2581283450126648 -0.09883919358253479 -0.002745276317000389 -0.002177366055548191 0 0 0 0
