# HZ S RI R 50
1500000000 -0.07011283934116364 -0.07982800155878067 0.03261635825037956 -0.022188453003764153 0 0 0 0
1503722084 -0.06844203174114227 -0.061666108667850494 0.029176242649555206 -0.026192864403128624 0 0 0 0
1507444168 -0.06252556294202805 -0.04070748761296272 0.025478841736912727 -0.030166063457727432 0 0 0 0
1511166252 -0.050644662231206894 -0.017498333007097244 0.021475588902831078 -0.0343613438308239 0 0 0 0
1514888336 -0.032048940658569336 0.004323343746364117 0.015778053551912308 -0.038424909114837646 0 0 0 0
1518610420 -0.007070888765156269 0.023513030260801315 0.00897880457341671 -0.041645027697086334 0 0 0 0
1522332504 0.023124486207962036 0.03886216878890991 0.00070218276232481 -0.04307937994599342 0 0 0 0
1526054588 0.05799465626478195 0.04909719154238701 -0.00833920482546091 -0.042037151753902435 0 0 0 0
1529776672 0.09660464525222778 0.053366221487522125 -0.01612422987818718 -0.03820391744375229 0 0 0 0
1533498756 0.13895627856254578 0.050275977700948715 -0.02242336794734001 -0.03288249671459198 0 0 0 0
1537220840 0.18208171427249908 0.03761053830385208 -0.02647284045815468 -0.02685687318444252 0 0 0 0
1540942924 0.22338110208511353 0.015112541615962982 -0.0288457702845335 -0.020683754235506058 0 0 0 0
1544665008 0.2609778046607971 -0.013376541435718536 -0.03003672882914543 -0.015089547261595726 0 0 0 0
1548387092 0.29231616854667664 -0.05237245559692383 -0.030409004539251328 -0.010193961672484875 0 0 0 0
1552109176 0.3175588846206665 -0.09363512694835663 -0.030128667131066322 -0.005310985259711742 0 0 0 0
1555831260 0.33658427000045776 -0.13988365232944489 -0.029573822394013405 -0.001259494572877884 0 0 0 0
1559553344 0.3473013639450073 -0.19112014770507812 -0.028633031994104385 0.002872975543141365 0 0 0 0
1563275428 0.3507736325263977 -0.24232551455497742 -0.02715802937746048 0.007338250055909157 0 0 0 0
1566997512 0.34480851888656616 -0.2965303063392639 -0.024716781452298164 0.01127837784588337 0 0 0 0
1570719596 0.3285042941570282 -0.349548876285553 -0.02137291058897972 0.014401756227016449 0 0 0 0
1574441680 0.3038181662559509 -0.4013843536376953 -0.017566822469234467 0.016492636874318123 0 0 0 0
1578163764 0.2730695903301239 -0.44547051191329956 -0.01417891401797533 0.017443690448999405 0 0 0 0
1581885848 0.23422013223171234 -0.4872106909751892 -0.011396285146474838 0.01797300949692726 0 0 0 0
1585607932 0.19178642332553864 -0.5225690603256226 -0.008754940703511238 0.018391717225313187 0 0 0 0
1589330016 0.1397401988506317 -0.5517175197601318 -0.006221910007297993 0.01837494596838951 0 0 0 0
1593052100 0.08350706100463867 -0.5734067559242249 -0.003991256467998028 0.01814834214746952 0 0 0 0
1596774184 0.023790687322616577 -0.5857645869255066 -0.002042199485003948 0.018060903996229172 0 0 0 0
1600496268 -0.03512337803840637 -0.5896269679069519 -0.0002555912360548973 0.01821286603808403 0 0 0 0
1604218352 -0.09329875558614731 -0.5846297144889832 0.0016571860760450363 0.018507789820432663 0 0 0 0
1607940436 -0.15517044067382812 -0.5717900395393372 0.0041445521637797356 0.01854904368519783 0 0 0 0
1611662520 -0.21722356975078583 -0.5504404902458191 0.007036088965833187 0.0182676762342453 0 0 0 0
1615384604 -0.27289530634880066 -0.5187188982963562 0.010037378408014774 0.017225664108991623 0 0 0 0
1619106688 -0.32718873023986816 -0.47601374983787537 0.013175715692341328 0.015447891317307949 0 0 0 0
1622828772 -0.37507277727127075 -0.4252188503742218 0.015946518629789352 0.012999888509511948 0 0 0 0
1626550856 -0.4131815731525421 -0.3714906871318817 0.018153633922338486 0.009762434288859367 0 0 0 0
1630272940 -0.4446225166320801 -0.30527305603027344 0.01951763406395912 0.006076539866626263 0 0 0 0
1633995024 -0.46702003479003906 -0.23707756400108337 0.019697554409503937 0.002007962204515934 0 0 0 0
1637717108 -0.478330135345459 -0.1650775671005249 0.01892278902232647 -0.0012652305886149406 0 0 0 0
1641439192 -0.47803759574890137 -0.09048007428646088 0.01814168691635132 -0.00405244342982769 0 0 0 0
1645161276 -0.4657417833805084 -0.014706876128911972 0.0171576626598835 -0.006960149854421616 0 0 0 0
1648883360 -0.4420146048069 0.05760221183300018 0.01512732170522213 -0.009663590230047703 0 0 0 0
1652605444 -0.40636590123176575 0.12880653142929077 0.012871530838310719 -0.011648238636553288 0 0 0 0
1656327528 -0.3594874143600464 0.1928357183933258 0.010948730632662773 -0.0131577393040061 0 0 0 0
1660049612 -0.30367279052734375 0.24849437177181244 0.00883551500737667 -0.014683257788419724 0 0 0 0
1663771696 -0.23680280148983002 0.29772549867630005 0.005885513499379158 -0.016282040625810623 0 0 0 0
1667493780 -0.16620826721191406 0.3345443606376648 0.0024098511785268784 -0.01688888482749462 0 0 0 0
1671215864 -0.08907473087310791 0.36043018102645874 -0.001086616888642311 -0.016793087124824524 0 0 0 0
1674937948 -0.0041707828640937805 0.37374648451805115 -0.004721442237496376 -0.015541741624474525 0 0 0 0
1678660032 0.08025328814983368 0.372764527797699 -0.007607676088809967 -0.013208690099418163 0 0 0 0
1682382116 0.16004440188407898 0.35942041873931885 -0.009123431518673897 -0.010191824287176132 0 0 0 0
1686104200 0.23944765329360962 0.3318026661872864 -0.009296545758843422 -0.00770878791809082 0 0 0 0
1689826284 0.31167006492614746 0.2944045662879944 -0.00906275026500225 -0.006178177893161774 0 0 0 0
1693548368 0.3793529272079468 0.244899719953537 -0.009490102529525757 -0.005122189410030842 0 0 0 0
1697270452 0.4364483952522278 0.18939679861068726 -0.00998540036380291 -0.0038964543491601944 0 0 0 0
1700992536 0.48533058166503906 0.12197655439376831 -0.010237345471978188 -0.002184063196182251 0 0 0 0
1704714620 0.5234092473983765 0.04868526756763458 -0.010190820321440697 -0.0005223564803600311 0 0 0 0
1708436704 0.5487057566642761 -0.029835358262062073 -0.009901103563606739 0.0008688420057296753 0 0 0 0
1712158788 0.5606905221939087 -0.10914115607738495 -0.00916741881519556 0.0025370167568325996 0 0 0 0
1715880872 0.5617421865463257 -0.1866970658302307 -0.008199797943234444 0.003953816369175911 0 0 0 0
1719602956 0.5483021140098572 -0.26872339844703674 -0.006827707402408123 0.005015515722334385 0 0 0 0
1723325040 0.5252287983894348 -0.34178346395492554 -0.005167989060282707 0.0053598713129758835 0 0 0 0
1727047124 0.4930562674999237 -0.4092029333114624 -0.004177025519311428 0.005327710881829262 0 0 0 0
1730769208 0.44512656331062317 -0.4757217764854431 -0.003460722044110298 0.005180126056075096 0 0 0 0
1734491292 0.3929620385169983 -0.529900312423706 -0.002932364121079445 0.0054124342277646065 0 0 0 0
1738213376 0.33169642090797424 -0.5756239891052246 -0.001993446610867977 0.005759671330451965 0 0 0 0
1741935460 0.2663092017173767 -0.6113287210464478 -0.0007129674777388573 0.005476163700222969 0 0 0 0
1745657544 0.19897957146167755 -0.6343695521354675 0.0001254994422197342 0.004592536017298698 0 0 0 0
1749379628 0.12624064087867737 -0.6491152048110962 0.00041923392564058304 0.003715486265718937 0 0 0 0
1753101712 0.05418509989976883 -0.6509926319122314 0.00024969130754470825 0.0028831008821725845 0 0 0 0
1756823796 -0.016239359974861145 -0.6435636281967163 -0.00032984092831611633 0.0026412876322865486 0 0 0 0
1760545880 -0.08240556716918945 -0.6250210404396057 -0.0007516387850046158 0.002849253825843334 0 0 0 0
1764267964 -0.14919039607048035 -0.5964369773864746 -0.0010579777881503105 0.003068024292588234 0 0 0 0
1767990048 -0.20267601311206818 -0.559377908706665 -0.0011276565492153168 0.003839835524559021 0 0 0 0
1771712132 -0.25217634439468384 -0.5146482586860657 -0.0007486585527658463 0.004610104486346245 0 0 0 0
1775434216 -0.29636913537979126 -0.4636452794075012 -6.568897515535355e-05 0.004881666041910648 0 0 0 0
1779156300 -0.3281857669353485 -0.4085744619369507 0.0005171149969100952 0.004999195225536823 0 0 0 0
1782878384 -0.3539702296257019 -0.3498326241970062 0.0009315013885498047 0.005143626593053341 0 0 0 0
1786600468 -0.3708374798297882 -0.2892061769962311 0.0013024266809225082 0.005373711697757244 0 0 0 0
1790322552 -0.37934744358062744 -0.22488407790660858 0.0017510578036308289 0.005912172608077526 0 0 0 0
1794044636 -0.3777698874473572 -0.16263394057750702 0.0029369527474045753 0.006433174945414066 0 0 0 0
1797766720 -0.3654910624027252 -0.10222116112709045 0.004076482728123665 0.006562401540577412 0 0 0 0
1801488804 -0.3448234498500824 -0.04363583028316498 0.005337811075150967 0.006669076159596443 0 0 0 0
1805210888 -0.31672388315200806 0.010922728106379509 0.007197701372206211 0.006761676631867886 0 0 0 0
1808932972 -0.2811990976333618 0.059875376522541046 0.009549119509756565 0.006170265376567841 0 0 0 0
1812655056 -0.23825524747371674 0.10240036249160767 0.011688229627907276 0.004462485201656818 0 0 0 0
1816377140 -0.18957465887069702 0.13598321378231049 0.013374540023505688 0.0025565344840288162 0 0 0 0
1820099224 -0.13671520352363586 0.16261950135231018 0.015116172842681408 -9.705498814582825e-05 0 0 0 0
1823821308 -0.07911305129528046 0.18020445108413696 0.01572309248149395 -0.0038856277242302895 0 0 0 0
1827543392 -0.020361199975013733 0.1874426156282425 0.015114239417016506 -0.007317693904042244 0 0 0 0
1831265476 0.0358964167535305 0.18540453910827637 0.01409437321126461 -0.01034508552402258 0 0 0 0
1834987560 0.09113360941410065 0.17341464757919312 0.012821730226278305 -0.013662546873092651 0 0 0 0
1838709644 0.14254169166088104 0.15470781922340393 0.009948546066880226 -0.017306409776210785 0 0 0 0
1842431728 0.18865656852722168 0.1273907572031021 0.005731286481022835 -0.019681289792060852 0 0 0 0
1846153812 0.22890493273735046 0.0935576856136322 0.0012305080890655518 -0.020188644528388977 0 0 0 0
1849875896 0.26114553213119507 0.05481642857193947 -0.0024841586127877235 -0.019855516031384468 0 0 0 0
1853597980 0.2869316637516022 0.011744864284992218 -0.006180975586175919 -0.019354060292243958 0 0 0 0
1857320064 0.30411210656166077 -0.033391304314136505 -0.009871616959571838 -0.01813582517206669 0 0 0 0
1861042148 0.3125360906124115 -0.08019748330116272 -0.012941094115376472 -0.016191111877560616 0 0 0 0
1864764232 0.3125321865081787 -0.12565946578979492 -0.015803171321749687 -0.013568439520895481 0 0 0 0
1868486316 0.3054882287979126 -0.17011094093322754 -0.01809827610850334 -0.01064898632466793 0 0 0 0
1872208400 0.2938268184661865 -0.20750686526298523 -0.019877340644598007 -0.0075837839394807816 0 0 0 0
1875930484 0.276691734790802 -0.2433166652917862 -0.021424833685159683 -0.004745625890791416 0 0 0 0
1879652568 0.25124797224998474 -0.2754066586494446 -0.022123895585536957 -0.0003016749396920204 0 0 0 0
1883374652 0.2234768122434616 -0.3003814220428467 -0.02172887697815895 0.0037914784625172615 0 0 0 0
1887096736 0.19378367066383362 -0.3206561207771301 -0.020336568355560303 0.0074846697971224785 0 0 0 0
1890818820 0.1616039276123047 -0.3351757228374481 -0.018776122480630875 0.010121144354343414 0 0 0 0
1894540904 0.1307486593723297 -0.3437557816505432 -0.017553070560097694 0.012759434059262276 0 0 0 0
1898262988 0.09700742363929749 -0.3480379581451416 -0.01607043482363224 0.015753239393234253 0 0 0 0
1901985072 0.06100058555603027 -0.3478214740753174 -0.013680066913366318 0.019115222617983818 0 0 0 0
1905707156 0.03003329038619995 -0.34088441729545593 -0.010637996718287468 0.02217978611588478 0 0 0 0
1909429240 0.0025933608412742615 -0.32579225301742554 -0.006876637227833271 0.024597443640232086 0 0 0 0
1913151324 -0.024111993610858917 -0.30733510851860046 -0.002172118052840233 0.026518402621150017 0 0 0 0
1916873408 -0.04714980721473694 -0.2856035828590393 0.0038099605590105057 0.027289068326354027 0 0 0 0
1920595492 -0.06201016902923584 -0.26045018434524536 0.009395349770784378 0.02651457116007805 0 0 0 0
1924317576 -0.07383789122104645 -0.23317088186740875 0.014682082459330559 0.024401675909757614 0 0 0 0
1928039660 -0.08062285929918289 -0.2045157253742218 0.020098041743040085 0.021219264715909958 0 0 0 0
1931761744 -0.08250227570533752 -0.1760689914226532 0.0250205360352993 0.016333255916833878 0 0 0 0
1935483828 -0.07717598974704742 -0.14881257712841034 0.028211412951350212 0.010109374299645424 0 0 0 0
1939205912 -0.06777852773666382 -0.1234368085861206 0.029369469732046127 0.0031291618943214417 0 0 0 0
1942927996 -0.05584963411092758 -0.10134716331958771 0.028364192694425583 -0.003445337526500225 0 0 0 0
1946650080 -0.04041212052106857 -0.08193328976631165 0.025923853740096092 -0.008899519219994545 0 0 0 0
1950372164 -0.021949831396341324 -0.06478817760944366 0.022611631080508232 -0.013640271499752998 0 0 0 0
1954094248 -0.0003163805231451988 -0.05095774307847023 0.01895170658826828 -0.01706964522600174 0 0 0 0
1957816332 0.022663112729787827 -0.04203459247946739 0.014662626199424267 -0.019994430243968964 0 0 0 0
1961538416 0.0467163510620594 -0.037314850836992264 0.010199478827416897 -0.021657247096300125 0 0 0 0
1965260500 0.07097625732421875 -0.03741544485092163 0.005522223189473152 -0.022423051297664642 0 0 0 0
1968982584 0.0943223237991333 -0.042356982827186584 0.0015494953840970993 -0.022170349955558777 0 0 0 0
1972704668 0.11697173118591309 -0.04982449859380722 -0.0018167495727539062 -0.021341565996408463 0 0 0 0
1976426752 0.13655519485473633 -0.061901409178972244 -0.005168341100215912 -0.020457414910197258 0 0 0 0
1980148836 0.15498295426368713 -0.07644397765398026 -0.008240674622356892 -0.01945376954972744 0 0 0 0
1983870920 0.1705944538116455 -0.09442593902349472 -0.011627312749624252 -0.0174892395734787 0 0 0 0
1987593004 0.18151725828647614 -0.11485128104686737 -0.014280020259320736 -0.015103965066373348 0 0 0 0
1991315088 0.18815046548843384 -0.1373787671327591 -0.016505561769008636 -0.011942064389586449 0 0 0 0
1995037172 0.19077101349830627 -0.16054755449295044 -0.018162712454795837 -0.009009978733956814 0 0 0 0
1998759256 0.1906447410583496 -0.18228404223918915 -0.019618211314082146 -0.005875842645764351 0 0 0 0
2002481340 0.18781395256519318 -0.20397554337978363 -0.020223524421453476 -0.0025207074359059334 0 0 0 0
2006203424 0.17760322988033295 -0.227504163980484 -0.020047109574079514 0.0009758211672306061 0 0 0 0
2009925508 0.16594775021076202 -0.24623486399650574 -0.019747350364923477 0.004062231630086899 0 0 0 0
2013647592 0.14758366346359253 -0.26495611667633057 -0.018628515303134918 0.007244785316288471 0 0 0 0
2017369676 0.1268034726381302 -0.278947114944458 -0.01741909049451351 0.010218913666903973 0 0 0 0
2021091760 0.1052674800157547 -0.28974583745002747 -0.015594188123941422 0.013317369855940342 0 0 0 0
2024813844 0.08131389319896698 -0.2954694628715515 -0.013142029754817486 0.015663493424654007 0 0 0 0
2028535928 0.059922829270362854 -0.29696398973464966 -0.01036929152905941 0.017913073301315308 0 0 0 0
2032258012 0.03455501049757004 -0.29290416836738586 -0.007029008120298386 0.019468216225504875 0 0 0 0
2035980096 0.013106495141983032 -0.286181777715683 -0.003863586112856865 0.020401576533913612 0 0 0 0
2039702180 -0.009337518364191055 -0.27628645300865173 -0.00023240502923727036 0.02077491022646427 0 0 0 0
2043424264 -0.030097099021077156 -0.26408910751342773 0.003413100726902485 0.01987968571484089 0 0 0 0
2047146348 -0.046909235417842865 -0.248906672000885 0.006633003242313862 0.018956821411848068 0 0 0 0
2050868432 -0.06489314138889313 -0.22899331152439117 0.009506924077868462 0.01767587848007679 0 0 0 0
2054590516 -0.07823731750249863 -0.20601670444011688 0.012278435751795769 0.015489083714783192 0 0 0 0
2058312600 -0.08820891380310059 -0.18130744993686676 0.014246578328311443 0.013478348962962627 0 0 0 0
2062034684 -0.09421703219413757 -0.15451036393642426 0.016546882688999176 0.011064154095947742 0 0 0 0
2065756768 -0.09674660861492157 -0.12611615657806396 0.0183427594602108 0.008027715608477592 0 0 0 0
2069478852 -0.09300818294286728 -0.09853042662143707 0.01978355459868908 0.004440994001924992 0 0 0 0
2073200936 -0.0871429294347763 -0.07047182321548462 0.020171688869595528 0.00045116711407899857 0 0 0 0
2076923020 -0.07642612606287003 -0.04275931417942047 0.019230864942073822 -0.0035303905606269836 0 0 0 0
2080645104 -0.060350365936756134 -0.016715213656425476 0.017661884427070618 -0.006986338645219803 0 0 0 0
2084367188 -0.03998662903904915 0.007324189879000187 0.015390350483357906 -0.009903562255203724 0 0 0 0
2088089272 -0.014894898980855942 0.028320636600255966 0.013187521137297153 -0.011699451133608818 0 0 0 0
2091811356 0.013294145464897156 0.04479021579027176 0.010603480972349644 -0.013322832994163036 0 0 0 0
2095533440 0.04329030588269234 0.05731493979692459 0.008148320019245148 -0.014435932040214539 0 0 0 0
2099255524 0.07646635919809341 0.06507307291030884 0.005622683092951775 -0.01529753115028143 0 0 0 0
2102977608 0.11234915256500244 0.0683845579624176 0.0030554402619600296 -0.01568957418203354 0 0 0 0
2106699692 0.1494414061307907 0.06355112791061401 0.0005761943757534027 -0.01621629111468792 0 0 0 0
2110421776 0.18470516800880432 0.05230309069156647 -0.0021444736048579216 -0.01644805260002613 0 0 0 0
2114143860 0.21811947226524353 0.03280995786190033 -0.00593431293964386 -0.01585652306675911 0 0 0 0
2117865944 0.2469569742679596 0.00978396087884903 -0.008892702870070934 -0.013666988350450993 0 0 0 0
2121588028 0.2706183195114136 -0.018752850592136383 -0.011057567782700062 -0.011157777160406113 0 0 0 0
2125310112 0.28788816928863525 -0.05108191445469856 -0.012397773563861847 -0.00875181332230568 0 0 0 0
2129032196 0.2994745373725891 -0.08430692553520203 -0.013275251723825932 -0.006333807483315468 0 0 0 0
2132754280 0.30593806505203247 -0.11549688130617142 -0.013645360246300697 -0.0038599204272031784 0 0 0 0
2136476364 0.30523499846458435 -0.15299154818058014 -0.013693283312022686 -0.0014595948159694672 0 0 0 0
2140198448 0.3035321831703186 -0.1821654736995697 -0.013442927971482277 0.0009519094601273537 0 0 0 0
2143920532 0.296081006526947 -0.21315966546535492 -0.012402575463056564 0.0029818089678883553 0 0 0 0
2147642616 0.2825208306312561 -0.24531301856040955 -0.011392567306756973 0.0043426863849163055 0 0 0 0
2151364700 0.26404502987861633 -0.27345436811447144 -0.01065061241388321 0.00562882237136364 0 0 0 0
2155086784 0.24166536331176758 -0.297176718711853 -0.009528427384793758 0.00735125970095396 0 0 0 0
2158808868 0.21505117416381836 -0.3170571029186249 -0.007836909964680672 0.008757222443819046 0 0 0 0
2162530952 0.1864684522151947 -0.3320866525173187 -0.0062477923929691315 0.009421094320714474 0 0 0 0
2166253036 0.15656006336212158 -0.34273409843444824 -0.0044959234073758125 0.009609977714717388 0 0 0 0
2169975120 0.12382311373949051 -0.3481224775314331 -0.003220934420824051 0.00973992608487606 0 0 0 0
2173697204 0.09310741722583771 -0.3499632477760315 -0.001959247514605522 0.009675148874521255 0 0 0 0
2177419288 0.06328114867210388 -0.3454492688179016 -0.0010729096829891205 0.009488492272794247 0 0 0 0
2181141372 0.03293992578983307 -0.33713316917419434 -0.00018514413386583328 0.009604837745428085 0 0 0 0
2184863456 0.005355287343263626 -0.32330968976020813 0.0009313235059380531 0.009922316297888756 0 0 0 0
2188585540 -0.02081020176410675 -0.3061273992061615 0.002364490181207657 0.010006650350987911 0 0 0 0
2192307624 -0.045329801738262177 -0.28333911299705505 0.004139510914683342 0.009529827162623405 0 0 0 0
2196029708 -0.06529271602630615 -0.25810062885284424 0.005629832856357098 0.009026043117046356 0 0 0 0
2199751792 -0.0801766887307167 -0.22835496068000793 0.007138477638363838 0.008037252351641655 0 0 0 0
2203473876 -0.09267762303352356 -0.19827985763549805 0.008543314412236214 0.00664140097796917 0 0 0 0
2207195960 -0.0943298414349556 -0.1695079803466797 0.009318170137703419 0.004818250425159931 0 0 0 0
2210918044 -0.09616738557815552 -0.13580793142318726 0.009779385291039944 0.003065052442252636 0 0 0 0
2214640128 -0.09074447304010391 -0.10338333994150162 0.00989124458283186 0.0017139064148068428 0 0 0 0
2218362212 -0.08116047829389572 -0.07082553207874298 0.010071966797113419 7.342174649238586e-05 0 0 0 0
2222084296 -0.06513303518295288 -0.03962789475917816 0.010418778285384178 -0.0013742726296186447 0 0 0 0
2225806380 -0.041880566626787186 -0.010199720039963722 0.010135451331734657 -0.0035196542739868164 0 0 0 0
2229528464 -0.01252821646630764 0.011596113443374634 0.009582353755831718 -0.005465093068778515 0 0 0 0
2233250548 0.019499611109495163 0.026472557336091995 0.008238875307142735 -0.007527557201683521 0 0 0 0
2236972632 0.05376148968935013 0.03392960503697395 0.006103420630097389 -0.009114419110119343 0 0 0 0
2240694716 0.08585186302661896 0.03839775547385216 0.003785635344684124 -0.009675538167357445 0 0 0 0
2244416800 0.11946065723896027 0.03157161921262741 0.0016079423949122429 -0.009762698784470558 0 0 0 0
2248138884 0.14915426075458527 0.024626241996884346 1.5671364963054657e-05 -0.00947598833590746 0 0 0 0
2251860968 0.1776450127363205 0.011351142078638077 -0.0008794935420155525 -0.00924987904727459 0 0 0 0
2255583052 0.2034430056810379 -0.009795054793357849 -0.002722371369600296 -0.008789164945483208 0 0 0 0
2259305136 0.2248097062110901 -0.02830549329519272 -0.0046217069029808044 -0.008017633110284805 0 0 0 0
2263027220 0.2393777221441269 -0.05817433446645737 -0.005811814218759537 -0.006799835711717606 0 0 0 0
2266749304 0.24999307096004486 -0.08491732180118561 -0.006557337939739227 -0.005545745603740215 0 0 0 0
2270471388 0.2546030282974243 -0.11398310214281082 -0.006673554889857769 -0.004466703161597252 0 0 0 0
2274193472 0.2515310049057007 -0.14260262250900269 -0.0065143899992108345 -0.0037940628826618195 0 0 0 0
2277915556 0.2500317394733429 -0.16662783920764923 -0.0063886577263474464 -0.0035256724804639816 0 0 0 0
2281637640 0.24092653393745422 -0.19357144832611084 -0.006678811274468899 -0.0036940351128578186 0 0 0 0
2285359724 0.2241031527519226 -0.2205192744731903 -0.007618340663611889 -0.0033714771270751953 0 0 0 0
2289081808 0.2105562388896942 -0.2383948117494583 -0.008574136532843113 -0.0019770869985222816 0 0 0 0
2292803892 0.1923719346523285 -0.25462278723716736 -0.008940372616052628 -0.0006249025464057922 0 0 0 0
2296525976 0.16790112853050232 -0.26770469546318054 -0.009094912558794022 0.0008489042520523071 0 0 0 0
2300248060 0.1468954086303711 -0.2758183777332306 -0.00883851945400238 0.0024969764053821564 0 0 0 0
2303970144 0.11655998229980469 -0.28579413890838623 -0.008053842931985855 0.003858078271150589 0 0 0 0
2307692228 0.08690036088228226 -0.2850106656551361 -0.007232764735817909 0.0049073826521635056 0 0 0 0
2311414312 0.06470641493797302 -0.27936792373657227 -0.006323072127997875 0.005613592453300953 0 0 0 0
2315136396 0.03960214555263519 -0.2695801258087158 -0.005539481528103352 0.0060387542471289635 0 0 0 0
2318858480 0.017706334590911865 -0.25714147090911865 -0.004769805818796158 0.006199615076184273 0 0 0 0
2322580564 -0.005633305758237839 -0.23946034908294678 -0.004230784252285957 0.00633158627897501 0 0 0 0
2326302648 -0.024305641651153564 -0.21664145588874817 -0.0039725834503769875 0.0066076889634132385 0 0 0 0
2330024732 -0.03932362049818039 -0.19216376543045044 -0.003371485508978367 0.007128573022782803 0 0 0 0
2333746816 -0.04532471299171448 -0.16610316932201385 -0.0030539166182279587 0.007936470210552216 0 0 0 0
2337468900 -0.05225808545947075 -0.13590341806411743 -0.0019609807059168816 0.008596760220825672 0 0 0 0
2341190984 -0.049376580864191055 -0.10707058012485504 -0.00035021547228097916 0.008940629661083221 0 0 0 0
2344913068 -0.04311966150999069 -0.07742363959550858 0.0013513276353478432 0.008672529831528664 0 0 0 0
2348635152 -0.03260952606797218 -0.04907229170203209 0.0026426995173096657 0.007787042297422886 0 0 0 0
2352357236 -0.015027415007352829 -0.025114255025982857 0.0033278372138738632 0.0069547658786177635 0 0 0 0
2356079320 0.006665072403848171 -0.0030147237703204155 0.0038962634280323982 0.006406726315617561 0 0 0 0
2359801404 0.031087350100278854 0.013168071396648884 0.00490960106253624 0.005780251696705818 0 0 0 0
2363523488 0.057172901928424835 0.025359997525811195 0.005775703117251396 0.004415472038090229 0 0 0 0
2367245572 0.08421999216079712 0.03388764709234238 0.006084436550736427 0.0029787616804242134 0 0 0 0
2370967656 0.11328641325235367 0.038350507616996765 0.005822096951305866 0.0013451837003231049 0 0 0 0
2374689740 0.14291656017303467 0.03739573061466217 0.004881318658590317 4.321057349443436e-05 0 0 0 0
2378411824 0.17236389219760895 0.03223090618848801 0.0037618260830640793 -0.000551014207303524 0 0 0 0
2382133908 0.2019779533147812 0.02234688401222229 0.0028031272813677788 -0.0005400776863098145 0 0 0 0
2385855992 0.23030847311019897 0.005963371135294437 0.002360893413424492 -0.00033014267683029175 0 0 0 0
2389578076 0.254720002412796 -0.014162331819534302 0.0022517796605825424 -0.00023501086980104446 0 0 0 0
2393300160 0.27471089363098145 -0.04003576934337616 0.001979866996407509 -0.00045015569776296616 0 0 0 0
2397022244 0.2890203595161438 -0.06839822977781296 0.0016681533306837082 -0.0005646413192152977 0 0 0 0
2400744328 0.300407350063324 -0.09982345998287201 0.0012798914685845375 -0.0005750423297286034 0 0 0 0
2404466412 0.3023608326911926 -0.13054978847503662 0.0009116614237427711 -8.070748299360275e-05 0 0 0 0
2408188496 0.30052101612091064 -0.16369010508060455 0.0011299429461359978 0.00020700693130493164 0 0 0 0
2411910580 0.29874563217163086 -0.19043754041194916 0.0012845927849411964 9.971205145120621e-05 0 0 0 0
2415632664 0.2827465236186981 -0.22048291563987732 0.00112996157258749 -0.00011816434562206268 0 0 0 0
2419354748 0.2706717252731323 -0.244040384888649 0.0008861757814884186 -1.8030405044555664e-06 0 0 0 0
2423076832 0.25092455744743347 -0.2669883072376251 0.0010784650221467018 0.0004188120365142822 0 0 0 0
2426798916 0.22725701332092285 -0.2883605360984802 0.0013408791273832321 0.0007899096235632896 0 0 0 0
2430521000 0.2055613100528717 -0.30147629976272583 0.0018246853724122047 0.0010910071432590485 0 0 0 0
2434243084 0.182814359664917 -0.3118895888328552 0.002702796831727028 0.0009865537285804749 0 0 0 0
2437965168 0.15767847001552582 -0.32170572876930237 0.003696184605360031 0.0004800697788596153 0 0 0 0
2441687252 0.13403278589248657 -0.3268499970436096 0.004500695504248142 -0.00045333337038755417 0 0 0 0
2445409336 0.10458287596702576 -0.33142128586769104 0.004981580190360546 -0.0017407368868589401 0 0 0 0
2449131420 0.07773283123970032 -0.32886436581611633 0.005006464198231697 -0.003359246999025345 0 0 0 0
2452853504 0.04960595816373825 -0.3247983455657959 0.004523955285549164 -0.004748690873384476 0 0 0 0
2456575588 0.02083224058151245 -0.3155601918697357 0.0036885403096675873 -0.005910180509090424 0 0 0 0
2460297672 -0.00784863531589508 -0.2998223602771759 0.0023567872121930122 -0.006872344762086868 0 0 0 0
2464019756 -0.0340447798371315 -0.2811073958873749 0.0012307148426771164 -0.007300038821995258 0 0 0 0
2467741840 -0.05393421649932861 -0.2576916217803955 0.00017511844635009766 -0.007775184698402882 0 0 0 0
2471463924 -0.07209306210279465 -0.23072746396064758 -0.0012364806607365608 -0.007942973636090755 0 0 0 0
2475186008 -0.08417024463415146 -0.20100077986717224 -0.00278615765273571 -0.00797844585031271 0 0 0 0
2478908092 -0.08986719697713852 -0.16985833644866943 -0.0040629832074046135 -0.007678552530705929 0 0 0 0
2482630176 -0.09221164137125015 -0.13732565939426422 -0.005504243075847626 -0.007336278446018696 0 0 0 0
2486352260 -0.08790233731269836 -0.10669116675853729 -0.006577835418283939 -0.0065301768481731415 0 0 0 0
2490074344 -0.07903525233268738 -0.07725100219249725 -0.00762932188808918 -0.005642535164952278 0 0 0 0
2493796428 -0.06577611714601517 -0.049907151609659195 -0.008467777632176876 -0.004772345535457134 0 0 0 0
2497518512 -0.049382809549570084 -0.02630101703107357 -0.009513463824987411 -0.003998094238340855 0 0 0 0
2501240596 -0.03004053421318531 -0.004619256593286991 -0.010644065216183662 -0.0025053322315216064 0 0 0 0
2504962680 -0.007328253239393234 0.014062204398214817 -0.011410033330321312 -0.0007948242127895355 0 0 0 0
2508684764 0.017662834376096725 0.02818327397108078 -0.011662761680781841 0.001301310956478119 0 0 0 0
2512406848 0.04384724423289299 0.0385504774749279 -0.011538248509168625 0.0032497812062501907 0 0 0 0
2516128932 0.07167369872331619 0.043774932622909546 -0.011015249416232109 0.0053052036091685295 0 0 0 0
2519851016 0.09914068132638931 0.046542562544345856 -0.009934479370713234 0.007158169522881508 0 0 0 0
2523573100 0.12644276022911072 0.044014282524585724 -0.008477959781885147 0.00888051837682724 0 0 0 0
2527295184 0.15359467267990112 0.03579751029610634 -0.0068921372294425964 0.00989411398768425 0 0 0 0
2531017268 0.17871379852294922 0.025060689076781273 -0.005301997996866703 0.010605622082948685 0 0 0 0
2534739352 0.2014627754688263 0.009173013269901276 -0.003244822844862938 0.011370972730219364 0 0 0 0
2538461436 0.22113777697086334 -0.010267466306686401 -0.0013221343979239464 0.01142086274921894 0 0 0 0
2542183520 0.23519374430179596 -0.03018694370985031 0.00039556995034217834 0.011034428142011166 0 0 0 0
2545905604 0.2469927966594696 -0.05256465822458267 0.001799541525542736 0.010552724823355675 0 0 0 0
2549627688 0.2539551258087158 -0.07516124099493027 0.0027962075546383858 0.01038486696779728 0 0 0 0
2553349772 0.25767213106155396 -0.09989794343709946 0.00431522261351347 0.009926077909767628 0 0 0 0
2557071856 0.2562519311904907 -0.1213458776473999 0.005910171195864677 0.009505480527877808 0 0 0 0
2560793940 0.2523197829723358 -0.14395634829998016 0.007520091719925404 0.008725488558411598 0 0 0 0
2564516024 0.24306246638298035 -0.16369721293449402 0.008881587535142899 0.0075083766132593155 0 0 0 0
2568238108 0.23212671279907227 -0.18158864974975586 0.010461189784109592 0.006056728772819042 0 0 0 0
2571960192 0.222014382481575 -0.1946674883365631 0.011613224633038044 0.004333534277975559 0 0 0 0
2575682276 0.2094549536705017 -0.20634324848651886 0.012639963999390602 0.0019063027575612068 0 0 0 0
2579404360 0.19679418206214905 -0.2155826836824417 0.013052396476268768 -0.0005141915753483772 0 0 0 0
2583126444 0.18496179580688477 -0.22260205447673798 0.012770763598382473 -0.0033408720046281815 0 0 0 0
2586848528 0.1692558079957962 -0.23135073482990265 0.011655114591121674 -0.005954654887318611 0 0 0 0
2590570612 0.15619079768657684 -0.2344202995300293 0.010242261923849583 -0.00806901603937149 0 0 0 0
2594292696 0.13826023042201996 -0.23716393113136292 0.008296367712318897 -0.00985963549464941 0 0 0 0
2598014780 0.12551136314868927 -0.2361675351858139 0.006023293361067772 -0.010863475501537323 0 0 0 0
2601736864 0.11288587749004364 -0.23190531134605408 0.0037042517215013504 -0.01124148815870285 0 0 0 0
2605458948 0.09994607418775558 -0.22948826849460602 0.0019409507513046265 -0.011090496554970741 0 0 0 0
2609181032 0.0894070491194725 -0.22506588697433472 0.00033635180443525314 -0.01056951005011797 0 0 0 0
2612903116 0.07826025784015656 -0.21907570958137512 -0.0008896645158529282 -0.010256494395434856 0 0 0 0
2616625200 0.06817815452814102 -0.2109604775905609 -0.0016656089574098587 -0.009973336942493916 0 0 0 0
2620347284 0.05970411002635956 -0.20372433960437775 -0.002730601467192173 -0.00995409581810236 0 0 0 0
2624069368 0.05427718907594681 -0.1929650604724884 -0.0038417549803853035 -0.010009819641709328 0 0 0 0
2627791452 0.049974121153354645 -0.1834850013256073 -0.005522280931472778 -0.009314344264566898 0 0 0 0
2631513536 0.048041678965091705 -0.17402642965316772 -0.006514407694339752 -0.008686555549502373 0 0 0 0
2635235620 0.04530971869826317 -0.1643373668193817 -0.00796404667198658 -0.008134828880429268 0 0 0 0
2638957704 0.04361313581466675 -0.1551283895969391 -0.009341404773294926 -0.007275845855474472 0 0 0 0
2642679788 0.045851100236177444 -0.14399488270282745 -0.010623401030898094 -0.00557649414986372 0 0 0 0
2646401872 0.05031672120094299 -0.13473261892795563 -0.011500291526317596 -0.0041946470737457275 0 0 0 0
2650123956 0.055813394486904144 -0.1266590654850006 -0.012244359590113163 -0.002837972715497017 0 0 0 0
2653846040 0.062395304441452026 -0.12066851556301117 -0.013258025981485844 -0.000711420550942421 0 0 0 0
2657568124 0.06971633434295654 -0.11753109842538834 -0.013500163331627846 0.0017661470919847488 0 0 0 0
2661290208 0.07703155279159546 -0.11608496308326721 -0.013440684415400028 0.004380048252642155 0 0 0 0
2665012292 0.08515183627605438 -0.11468842625617981 -0.012330937199294567 0.006724901497364044 0 0 0 0
2668734376 0.08932320773601532 -0.11700651049613953 -0.010699350386857986 0.008997548371553421 0 0 0 0
2672456460 0.09459953010082245 -0.11912919580936432 -0.00873761810362339 0.010886347852647305 0 0 0 0
2676178544 0.09839440882205963 -0.12114488333463669 -0.006566623225808144 0.011974036693572998 0 0 0 0
2679900628 0.10241293907165527 -0.12343563139438629 -0.004181798547506332 0.01291733793914318 0 0 0 0
2683622712 0.10622306168079376 -0.1263948231935501 -0.0017320169135928154 0.01342395506799221 0 0 0 0
2687344796 0.1090237945318222 -0.13205581903457642 0.0009904764592647552 0.01348734088242054 0 0 0 0
2691066880 0.11188419908285141 -0.13846595585346222 0.0037988731637597084 0.012769720517098904 0 0 0 0
2694788964 0.11103026568889618 -0.14511778950691223 0.0063016824424266815 0.011391849257051945 0 0 0 0
2698511048 0.11307177692651749 -0.15041562914848328 0.00783003680408001 0.009622400626540184 0 0 0 0
2702233132 0.10966382920742035 -0.1579284518957138 0.009342396631836891 0.007779696956276894 0 0 0 0
2705955216 0.10371722280979156 -0.1664949655532837 0.010378873907029629 0.005803118459880352 0 0 0 0
2709677300 0.0979282557964325 -0.17218293249607086 0.011349103413522243 0.003942999057471752 0 0 0 0
2713399384 0.08842352032661438 -0.17777298390865326 0.011997509747743607 0.001889222301542759 0 0 0 0
2717121468 0.07744613289833069 -0.17973308265209198 0.012304071336984634 -0.0006746742874383926 0 0 0 0
2720843552 0.06638789176940918 -0.18065974116325378 0.011941628530621529 -0.003474593162536621 0 0 0 0
2724565636 0.05527392029762268 -0.17800867557525635 0.010879576206207275 -0.006013599224388599 0 0 0 0
2728287720 0.043623581528663635 -0.17253851890563965 0.009205034002661705 -0.008308958262205124 0 0 0 0
2732009804 0.03469211608171463 -0.16562633216381073 0.007029316388070583 -0.00977378524839878 0 0 0 0
2735731888 0.024656979367136955 -0.1561666876077652 0.004648333415389061 -0.0106730991974473 0 0 0 0
2739453972 0.017666757106781006 -0.1463562250137329 0.002503739669919014 -0.011081116273999214 0 0 0 0
2743176056 0.011997824534773827 -0.13279539346694946 0.0004172641783952713 -0.01124483160674572 0 0 0 0
2746898140 0.007151555269956589 -0.11903011798858643 -0.0017105396836996078 -0.011150452308356762 0 0 0 0
2750620224 0.006806102581322193 -0.10392950475215912 -0.0038273902609944344 -0.010600668378174305 0 0 0 0
2754342308 0.008433285169303417 -0.0885571837425232 -0.0059903459623456 -0.009595472365617752 0 0 0 0
2758064392 0.012432914227247238 -0.0728885680437088 -0.007790828123688698 -0.0076731909066438675 0 0 0 0
2761786476 0.020413417369127274 -0.05858694389462471 -0.008985788561403751 -0.00582168810069561 0 0 0 0
2765508560 0.029952719807624817 -0.04590385779738426 -0.00963110476732254 -0.003515329211950302 0 0 0 0
2769230644 0.0413794070482254 -0.035260628908872604 -0.009819227270781994 -0.0014435900375247002 0 0 0 0
2772952728 0.05373641848564148 -0.025422196835279465 -0.009358437731862068 0.0005213413387537003 0 0 0 0
2776674812 0.06730907410383224 -0.01819334737956524 -0.00871369894593954 0.0023094918578863144 0 0 0 0
2780396896 0.08312194794416428 -0.01223091408610344 -0.007720409892499447 0.0039054881781339645 0 0 0 0
2784118980 0.1006288081407547 -0.006832916289567947 -0.006674415431916714 0.005285014398396015 0 0 0 0
2787841064 0.11914391815662384 -0.00637730211019516 -0.005074746906757355 0.006537167355418205 0 0 0 0
2791563148 0.13779689371585846 -0.008449181914329529 -0.0030904021114110947 0.007289369590580463 0 0 0 0
2795285232 0.1556108593940735 -0.012666285037994385 -0.0009865593165159225 0.007288891822099686 0 0 0 0
2799007316 0.1744997799396515 -0.020395953208208084 0.0008346261456608772 0.006552962586283684 0 0 0 0
2802729400 0.192316934466362 -0.029524430632591248 0.0020020389929413795 0.0056319572031497955 0 0 0 0
2806451484 0.20704542100429535 -0.046234019100666046 0.0028164293617010117 0.004526261240243912 0 0 0 0
2810173568 0.22088339924812317 -0.058842144906520844 0.0032364027574658394 0.003677752800285816 0 0 0 0
2813895652 0.23269474506378174 -0.07730467617511749 0.0038082413375377655 0.0029065413400530815 0 0 0 0
2817617736 0.2408728003501892 -0.09625791013240814 0.004104473628103733 0.0019491147249937057 0 0 0 0
2821339820 0.246358260512352 -0.11714695394039154 0.004022205248475075 0.0010016830638051033 0 0 0 0
2825061904 0.24910300970077515 -0.13679561018943787 0.0037992512807250023 0.0003822231665253639 0 0 0 0
2828783988 0.24900832772254944 -0.1609085202217102 0.0037410100921988487 -3.7573277950286865e-05 0 0 0 0
2832506072 0.24583591520786285 -0.18432597815990448 0.0037544015794992447 -0.0005935877561569214 0 0 0 0
2836228156 0.24171856045722961 -0.20647448301315308 0.0035051442682743073 -0.0012702131643891335 0 0 0 0
2839950240 0.23360282182693481 -0.22817060351371765 0.0031661326065659523 -0.0016947947442531586 0 0 0 0
2843672324 0.22224929928779602 -0.2487160861492157 0.0030525512993335724 -0.0019146427512168884 0 0 0 0
2847394408 0.2070503830909729 -0.269111692905426 0.002901132218539715 -0.0023121312260627747 0 0 0 0
2851116492 0.18585112690925598 -0.2873513698577881 0.0029260674491524696 -0.0029425574466586113 0 0 0 0
2854838576 0.16390535235404968 -0.30060186982154846 0.0026713311672210693 -0.0036088144406676292 0 0 0 0
2858560660 0.14155837893486023 -0.3130500614643097 0.0022423146292567253 -0.004654173739254475 0 0 0 0
2862282744 0.11505682021379471 -0.3213277757167816 0.0012431694194674492 -0.005174857564270496 0 0 0 0
2866004828 0.09008493274450302 -0.3256554901599884 0.00023513101041316986 -0.0053818104788661 0 0 0 0
2869726912 0.06752362847328186 -0.3259612023830414 -0.0006721885874867439 -0.005355761386454105 0 0 0 0
2873448996 0.03955554589629173 -0.32330116629600525 -0.0017293216660618782 -0.005137615837156773 0 0 0 0
2877171080 0.013159014284610748 -0.318372517824173 -0.0026325685903429985 -0.004450920969247818 0 0 0 0
2880893164 -0.011419281363487244 -0.31033357977867126 -0.0033146701753139496 -0.003659570589661598 0 0 0 0
2884615248 -0.03273981064558029 -0.2974987328052521 -0.003442247398197651 -0.002830405719578266 0 0 0 0
2888337332 -0.056836746633052826 -0.2838221490383148 -0.0037160497158765793 -0.00225259643048048 0 0 0 0
2892059416 -0.07715582847595215 -0.26623019576072693 -0.003801139071583748 -0.0016306396573781967 0 0 0 0
2895781500 -0.09527844190597534 -0.24397000670433044 -0.003965199925005436 -0.000906684435904026 0 0 0 0
2899503584 -0.1106005311012268 -0.2197902351617813 -0.003923474811017513 -0.00018422212451696396 0 0 0 0
2903225668 -0.12466826289892197 -0.19268034398555756 -0.0038951626047492027 0.0005976632237434387 0 0 0 0
2906947752 -0.13143974542617798 -0.16600994765758514 -0.0034983744844794273 0.0013062916696071625 0 0 0 0
2910669836 -0.13616247475147247 -0.1371321976184845 -0.003054201602935791 0.002138981595635414 0 0 0 0
2914391920 -0.13692495226860046 -0.10774540901184082 -0.002422175370156765 0.002553650178015232 0 0 0 0
2918114004 -0.1323181837797165 -0.07773394137620926 -0.0016993004828691483 0.002972841262817383 0 0 0 0
2921836088 -0.12369159609079361 -0.04971965402364731 -0.0011683590710163116 0.0032064374536275864 0 0 0 0
2925558172 -0.11341080069541931 -0.02253136783838272 -0.0004085144028067589 0.0033557964488863945 0 0 0 0
2929280256 -0.09752990305423737 0.0013590119779109955 0.00012852251529693604 0.003257324919104576 0 0 0 0
2933002340 -0.0791245847940445 0.024272501468658447 0.0007310230284929276 0.003243689425289631 0 0 0 0
2936724424 -0.05698865279555321 0.04456888884305954 0.0013056444004178047 0.00339665450155735 0 0 0 0
2940446508 -0.033628568053245544 0.06005334109067917 0.0019892416894435883 0.0033739060163497925 0 0 0 0
2944168592 -0.007191382348537445 0.07292112708091736 0.0027656015008687973 0.0031395992264151573 0 0 0 0
2947890676 0.01973254419863224 0.0818583145737648 0.0037212613970041275 0.0026947716251015663 0 0 0 0
2951612760 0.04658808931708336 0.08797604590654373 0.004531044512987137 0.00225040502846241 0 0 0 0
2955334844 0.07452428340911865 0.09024175256490707 0.005110325291752815 0.0012655314058065414 0 0 0 0
2959056928 0.10257209837436676 0.08899453282356262 0.005749879404902458 0.00022756308317184448 0 0 0 0
2962779012 0.1313573569059372 0.08316004276275635 0.006100650876760483 -0.0009195860475301743 0 0 0 0
2966501096 0.15738531947135925 0.07332628220319748 0.005938311107456684 -0.0024699214845895767 0 0 0 0
2970223180 0.1828257143497467 0.05812062695622444 0.005449773743748665 -0.0037846481427550316 0 0 0 0
2973945264 0.20359012484550476 0.041682928800582886 0.004168757237493992 -0.004913095384836197 0 0 0 0
2977667348 0.2229296714067459 0.021323949098587036 0.0030810032039880753 -0.005542450584471226 0 0 0 0
2981389432 0.23842266201972961 -0.0008692629635334015 0.0017880992963910103 -0.005885436199605465 0 0 0 0
2985111516 0.2502678632736206 -0.02250857651233673 0.0005146283656358719 -0.006174669601023197 0 0 0 0
2988833600 0.2576104998588562 -0.0447709783911705 -0.0007056314498186111 -0.005809220485389233 0 0 0 0
2992555684 0.26279929280281067 -0.068984255194664 -0.0019689910113811493 -0.0051765237003564835 0 0 0 0
2996277768 0.2647343873977661 -0.08986508101224899 -0.0030800793319940567 -0.004349225200712681 0 0 0 0
2999999852 0.2656823694705963 -0.11446511745452881 -0.0036695031449198723 -0.0034572668373584747 0 0 0 0
