# HZ S RI R 50
1500000000 -0.09253129363059998 -0.0914049968123436 0.04297725856304169 -0.022045060992240906 0 0 0 0
1503722084 -0.0918208509683609 -0.06626831740140915 0.03934589773416519 -0.028461288660764694 0 0 0 0
1507444168 -0.08353384584188461 -0.03913427144289017 0.03461567312479019 -0.03500094264745712 0 0 0 0
1511166252 -0.06865178793668747 -0.013403884135186672 0.028998613357543945 -0.04091779887676239 0 0 0 0
1514888336 -0.04841167852282524 0.00993758998811245 0.020983751863241196 -0.046698421239852905 0 0 0 0
1518610420 -0.02247978001832962 0.0321568064391613 0.010467441752552986 -0.05048836022615433 0 0 0 0
1522332504 0.00947134755551815 0.05066239833831787 -0.0011049751192331314 -0.05063273012638092 0 0 0 0
1526054588 0.047199007123708725 0.06373797357082367 -0.011615591123700142 -0.04659891128540039 0 0 0 0
1529776672 0.08967722952365875 0.06982384622097015 -0.01858925260603428 -0.040203094482421875 0 0 0 0
1533498756 0.1360951066017151 0.0667714923620224 -0.02271481603384018 -0.03411252796649933 0 0 0 0
1537220840 0.1823984980583191 0.05369867384433746 -0.025706112384796143 -0.02874850295484066 0 0 0 0
1540942924 0.22660043835639954 0.030473776161670685 -0.028193267062306404 -0.02332349680364132 0 0 0 0
1544665008 0.26705309748649597 -0.0023100171238183975 -0.029895812273025513 -0.017867157235741615 0 0 0 0
1548387092 0.30030447244644165 -0.04109323024749756 -0.03012361191213131 -0.012502520345151424 0 0 0 0
1552109176 0.3256950080394745 -0.08676799386739731 -0.029418209567666054 -0.007935253903269768 0 0 0 0
1555831260 0.3444589376449585 -0.13410347700119019 -0.028730234131217003 -0.004434290342032909 0 0 0 0
1559553344 0.3535422384738922 -0.1874636709690094 -0.02840542420744896 -0.0009656110778450966 0 0 0 0
1563275428 0.35472428798675537 -0.24053502082824707 -0.02764599397778511 0.0032084817066788673 0 0 0 0
1566997512 0.3467436134815216 -0.29447266459465027 -0.025736475363373756 0.0073329126462340355 0 0 0 0
1570719596 0.33340686559677124 -0.3470950722694397 -0.023170357570052147 0.0104905404150486 0 0 0 0
1574441680 0.3081592917442322 -0.3982727825641632 -0.020463043823838234 0.012884683907032013 0 0 0 0
1578163764 0.27572140097618103 -0.4436227083206177 -0.017745520919561386 0.014725301414728165 0 0 0 0
1581885848 0.23783709108829498 -0.4846232831478119 -0.015301997773349285 0.015899324789643288 0 0 0 0
1585607932 0.19120198488235474 -0.5191787481307983 -0.012797472067177296 0.0170826967805624 0 0 0 0
1589330016 0.14175458252429962 -0.5475124716758728 -0.010487434454262257 0.01795291155576706 0 0 0 0
1593052100 0.09154847264289856 -0.5688529014587402 -0.00831674039363861 0.018624380230903625 0 0 0 0
1596774184 0.03547893464565277 -0.5817787647247314 -0.006266298703849316 0.01922682113945484 0 0 0 0
1600496268 -0.025676634162664413 -0.5883732438087463 -0.0041806865483522415 0.01990577019751072 0 0 0 0
1604218352 -0.08464992046356201 -0.5853233933448792 -0.001712227240204811 0.020650282502174377 0 0 0 0
1607940436 -0.1449362188577652 -0.5749046206474304 0.0013587409630417824 0.021006036549806595 0 0 0 0
1611662520 -0.20548033714294434 -0.5562711358070374 0.004375104792416096 0.02117113396525383 0 0 0 0
1615384604 -0.2656080424785614 -0.5254254341125488 0.007936006411910057 0.02058514580130577 0 0 0 0
1619106688 -0.32022446393966675 -0.48684805631637573 0.011678908951580524 0.018974944949150085 0 0 0 0
1622828772 -0.36710110306739807 -0.43788641691207886 0.014646291732788086 0.016398772597312927 0 0 0 0
1626550856 -0.41028109192848206 -0.3811552822589874 0.016637541353702545 0.013520652428269386 0 0 0 0
1630272940 -0.4411320984363556 -0.31846851110458374 0.018206577748060226 0.010680414736270905 0 0 0 0
1633995024 -0.46705013513565063 -0.2492041438817978 0.01969413086771965 0.007715810090303421 0 0 0 0
1637717108 -0.48052120208740234 -0.17782948911190033 0.020491765812039375 0.00423860177397728 0 0 0 0
1641439192 -0.48272469639778137 -0.10523427277803421 0.02084166370332241 0.0011000102385878563 0 0 0 0
1645161276 -0.47253137826919556 -0.027855783700942993 0.020674191415309906 -0.002343505620956421 0 0 0 0
1648883360 -0.4510539472103119 0.048589617013931274 0.019726021215319633 -0.005734517239034176 0 0 0 0
1652605444 -0.41747409105300903 0.11964970827102661 0.018198465928435326 -0.008491561748087406 0 0 0 0
1656327528 -0.3713618814945221 0.18449528515338898 0.016705922782421112 -0.011092429049313068 0 0 0 0
1660049612 -0.3182036876678467 0.2436010241508484 0.014981075190007687 -0.01364576444029808 0 0 0 0
1663771696 -0.2540687918663025 0.29422372579574585 0.012340392917394638 -0.01655988022685051 0 0 0 0
1667493780 -0.18105734884738922 0.3361503481864929 0.008691102266311646 -0.018774552270770073 0 0 0 0
1671215864 -0.10087977349758148 0.36511480808258057 0.00413272250443697 -0.019662920385599136 0 0 0 0
1674937948 -0.016610532999038696 0.38033825159072876 -0.00016454141587018967 -0.018846919760107994 0 0 0 0
1678660032 0.06957603991031647 0.3806001842021942 -0.0037064943462610245 -0.016988765448331833 0 0 0 0
1682382116 0.15216225385665894 0.36736366152763367 -0.005948667414486408 -0.014569824561476707 0 0 0 0
1686104200 0.2329128235578537 0.3413209319114685 -0.007253408432006836 -0.012557609006762505 0 0 0 0
1689826284 0.3084757924079895 0.304222971200943 -0.008545555174350739 -0.011168061755597591 0 0 0 0
1693548368 0.37516719102859497 0.2565472424030304 -0.009926905855536461 -0.009460722096264362 0 0 0 0
1697270452 0.4337408244609833 0.1985989511013031 -0.011281969025731087 -0.006920036859810352 0 0 0 0
1700992536 0.4848232567310333 0.13194961845874786 -0.011572116054594517 -0.004444833844900131 0 0 0 0
1704714620 0.5222167372703552 0.05810575187206268 -0.010893058963119984 -0.001990034244954586 0 0 0 0
1708436704 0.5478101968765259 -0.02111046016216278 -0.009872318245470524 -0.0005749696865677834 0 0 0 0
1712158788 0.5616036653518677 -0.10119681060314178 -0.008945731446146965 0.0004769647493958473 0 0 0 0
1715880872 0.5628721714019775 -0.17824174463748932 -0.008236941881477833 0.001072704792022705 0 0 0 0
1719602956 0.5510253310203552 -0.25664758682250977 -0.007539751939475536 0.0017764978110790253 0 0 0 0
1723325040 0.5291830897331238 -0.3319079279899597 -0.006997286342084408 0.0020909132435917854 0 0 0 0
1727047124 0.5000002384185791 -0.39909857511520386 -0.006743724457919598 0.0024519143626093864 0 0 0 0
1730769208 0.4558895528316498 -0.46338212490081787 -0.006364854983985424 0.0029950151219964027 0 0 0 0
1734491292 0.40359923243522644 -0.5205187797546387 -0.0059959301725029945 0.0035635987296700478 0 0 0 0
1738213376 0.3504538834095001 -0.5668455362319946 -0.005297139286994934 0.004197792150080204 0 0 0 0
1741935460 0.28020980954170227 -0.6069977283477783 -0.004603699781000614 0.0043149059638381 0 0 0 0
1745657544 0.21605920791625977 -0.6334272027015686 -0.0043508876115083694 0.004373745061457157 0 0 0 0
1749379628 0.13895082473754883 -0.6515945196151733 -0.004010066390037537 0.0045099928975105286 0 0 0 0
1753101712 0.07194539904594421 -0.6561247110366821 -0.003929564729332924 0.004535723477602005 0 0 0 0
1756823796 -0.002291383221745491 -0.6506800055503845 -0.0038776490837335587 0.005056663416326046 0 0 0 0
1760545880 -0.06793150305747986 -0.6355019807815552 -0.00380643829703331 0.005571016110479832 0 0 0 0
1764267964 -0.13609518110752106 -0.6081603169441223 -0.0035948650911450386 0.0062691690400242805 0 0 0 0
1767990048 -0.19434349238872528 -0.5731428265571594 -0.0033633187413215637 0.007126215845346451 0 0 0 0
1771712132 -0.24493134021759033 -0.5322076082229614 -0.002798639237880707 0.008019114844501019 0 0 0 0
1775434216 -0.29265516996383667 -0.4824887812137604 -0.0020987140014767647 0.008825739845633507 0 0 0 0
1779156300 -0.331645667552948 -0.4245920181274414 -0.0010254895314574242 0.009799987077713013 0 0 0 0
1782878384 -0.35736387968063354 -0.36816054582595825 0.00018789060413837433 0.010707331821322441 0 0 0 0
1786600468 -0.37912124395370483 -0.3031017482280731 0.0019891615957021713 0.011291047558188438 0 0 0 0
1790322552 -0.3893987834453583 -0.23908063769340515 0.003910725936293602 0.01188854593783617 0 0 0 0
1794044636 -0.3893621563911438 -0.17476634681224823 0.006173150613903999 0.011583477258682251 0 0 0 0
1797766720 -0.3796798884868622 -0.10731763392686844 0.007742572575807571 0.010684387758374214 0 0 0 0
1801488804 -0.36003562808036804 -0.047257523983716965 0.009167936630547047 0.010510774329304695 0 0 0 0
1805210888 -0.3316178619861603 0.008995920419692993 0.011417211033403873 0.010518794879317284 0 0 0 0
1808932972 -0.29371362924575806 0.05944203585386276 0.014541950076818466 0.009720360860228539 0 0 0 0
1812655056 -0.24980449676513672 0.10561113804578781 0.018131036311388016 0.007707410492002964 0 0 0 0
1816377140 -0.19851067662239075 0.142381951212883 0.02106405422091484 0.004204205237329006 0 0 0 0
1820099224 -0.14369907975196838 0.17096321284770966 0.023213878273963928 -0.0004326868802309036 0 0 0 0
1823821308 -0.0849626362323761 0.1889531910419464 0.02382134087383747 -0.005944938398897648 0 0 0 0
1827543392 -0.024200081825256348 0.19625984132289886 0.022506628185510635 -0.011430918239057064 0 0 0 0
1831265476 0.03237389028072357 0.19423164427280426 0.020315753296017647 -0.01615755632519722 0 0 0 0
1834987560 0.08910912275314331 0.18208813667297363 0.017045235261321068 -0.020814331248402596 0 0 0 0
1838709644 0.1412755250930786 0.16335222125053406 0.011954518035054207 -0.024932442232966423 0 0 0 0
1842431728 0.18964698910713196 0.13616672158241272 0.005744218826293945 -0.026948776096105576 0 0 0 0
1846153812 0.2316513955593109 0.10369223356246948 0.0001399647444486618 -0.026494313031435013 0 0 0 0
1849875896 0.2670576870441437 0.06203707307577133 -0.004630031995475292 -0.025287460535764694 0 0 0 0
1853597980 0.2942500412464142 0.018066242337226868 -0.008740721270442009 -0.023830082267522812 0 0 0 0
1857320064 0.31185758113861084 -0.02858516201376915 -0.012750755995512009 -0.021733839064836502 0 0 0 0
1861042148 0.32073336839675903 -0.07792074233293533 -0.016243591904640198 -0.018841151148080826 0 0 0 0
1864764232 0.3218546211719513 -0.12520332634449005 -0.018874529749155045 -0.015574177727103233 0 0 0 0
1868486316 0.3152315318584442 -0.1683678925037384 -0.020872514694929123 -0.012308228760957718 0 0 0 0
1872208400 0.3019478917121887 -0.20996908843517303 -0.022747082635760307 -0.00860153790563345 0 0 0 0
1875930484 0.2822937071323395 -0.24772179126739502 -0.02496955171227455 -0.005376938730478287 0 0 0 0
1879652568 0.253461092710495 -0.2828209698200226 -0.024895690381526947 -0.00048586446791887283 0 0 0 0
1883374652 0.22608526051044464 -0.3073052763938904 -0.023987924680113792 0.00352681428194046 0 0 0 0
1887096736 0.19473619759082794 -0.327584445476532 -0.022277824580669403 0.006937935017049313 0 0 0 0
1890818820 0.15971645712852478 -0.34229201078414917 -0.02072829194366932 0.009699303656816483 0 0 0 0
1894540904 0.12718218564987183 -0.34959179162979126 -0.019426612183451653 0.012077508494257927 0 0 0 0
1898262988 0.09238924831151962 -0.3517579436302185 -0.018158018589019775 0.014854240231215954 0 0 0 0
1901985072 0.058437347412109375 -0.3481975793838501 -0.016115836799144745 0.01794205978512764 0 0 0 0
1905707156 0.02384689450263977 -0.337673157453537 -0.013316476717591286 0.020650163292884827 0 0 0 0
1909429240 -0.0026103705167770386 -0.323788046836853 -0.010304911062121391 0.02306649461388588 0 0 0 0
1913151324 -0.026882342994213104 -0.3049573302268982 -0.006506690755486488 0.02538234554231167 0 0 0 0
1916873408 -0.05011573061347008 -0.2822062373161316 -0.001873810775578022 0.02687152847647667 0 0 0 0
1920595492 -0.06623031198978424 -0.2561514973640442 0.0027897050604224205 0.027413921430706978 0 0 0 0
1924317576 -0.07530349493026733 -0.22856715321540833 0.0079435333609581 0.02768094092607498 0 0 0 0
1928039660 -0.08129292726516724 -0.19950684905052185 0.01376724150031805 0.02650698646903038 0 0 0 0
1931761744 -0.0824618935585022 -0.16928257048130035 0.019746173173189163 0.023286454379558563 0 0 0 0
1935483828 -0.07424048334360123 -0.14277806878089905 0.024481698870658875 0.01803937740623951 0 0 0 0
1939205912 -0.06442883610725403 -0.11686250567436218 0.027457524091005325 0.011858846992254257 0 0 0 0
1942927996 -0.05002916231751442 -0.09603468328714371 0.027876585721969604 0.006090077571570873 0 0 0 0
1946650080 -0.03273320943117142 -0.07879925519227982 0.027411047369241714 0.0007098251953721046 0 0 0 0
1950372164 -0.013980558142066002 -0.06348627805709839 0.02613607794046402 -0.004049445502460003 0 0 0 0
1954094248 0.007007908076047897 -0.05192851647734642 0.024228442460298538 -0.008230188861489296 0 0 0 0
1957816332 0.029453400522470474 -0.045016247779130936 0.02199374884366989 -0.011571146547794342 0 0 0 0
1961538416 0.05231142044067383 -0.04142007231712341 0.019712623208761215 -0.01438084989786148 0 0 0 0
1965260500 0.07551193237304688 -0.041682638227939606 0.016911150887608528 -0.017321977764368057 0 0 0 0
1968982584 0.09962014853954315 -0.04577576369047165 0.014157299883663654 -0.019839396700263023 0 0 0 0
1972704668 0.12125104665756226 -0.05397714674472809 0.010992913506925106 -0.021940551698207855 0 0 0 0
1976426752 0.14111322164535522 -0.06658053398132324 0.0075732748955488205 -0.02410893514752388 0 0 0 0
1980148836 0.1587810516357422 -0.08387020230293274 0.0031168265268206596 -0.025649841874837875 0 0 0 0
1983870920 0.17152152955532074 -0.1039317324757576 -0.0019154949113726616 -0.026195187121629715 0 0 0 0
1987593004 0.1808304488658905 -0.12440638989210129 -0.006833191029727459 -0.025387851521372795 0 0 0 0
1991315088 0.18500785529613495 -0.1465643346309662 -0.011422163806855679 -0.02389415353536606 0 0 0 0
1995037172 0.1868533343076706 -0.1682458519935608 -0.01561395451426506 -0.021905893459916115 0 0 0 0
1998759256 0.18473610281944275 -0.18896296620368958 -0.019366873428225517 -0.018996775150299072 0 0 0 0
2002481340 0.17730168998241425 -0.21169644594192505 -0.023176386952400208 -0.014868142083287239 0 0 0 0
2006203424 0.16798225045204163 -0.23071154952049255 -0.02564891427755356 -0.010075868107378483 0 0 0 0
2009925508 0.15356971323490143 -0.24862664937973022 -0.02697489783167839 -0.005305422469973564 0 0 0 0
2013647592 0.13795186579227448 -0.2622358500957489 -0.027344578877091408 -1.810956746339798e-05 0 0 0 0
2017369676 0.11832687258720398 -0.2743796110153198 -0.02705620788037777 0.004479227587580681 0 0 0 0
2021091760 0.0983799546957016 -0.28191056847572327 -0.025692330673336983 0.009567473083734512 0 0 0 0
2024813844 0.07760422676801682 -0.2862497866153717 -0.0234536025673151 0.014005112461745739 0 0 0 0
2028535928 0.05475953221321106 -0.28777313232421875 -0.020567862316966057 0.01814756542444229 0 0 0 0
2032258012 0.03473000228404999 -0.2841091752052307 -0.016685733571648598 0.021950969472527504 0 0 0 0
2035980096 0.013387873768806458 -0.27843302488327026 -0.012255659326910973 0.0237509086728096 0 0 0 0
2039702180 -0.007843881845474243 -0.269931823015213 -0.007496535778045654 0.024783959612250328 0 0 0 0
2043424264 -0.02700304239988327 -0.25892531871795654 -0.003241848200559616 0.024691063910722733 0 0 0 0
2047146348 -0.04655250161886215 -0.24316257238388062 0.0004110662266612053 0.024458149448037148 0 0 0 0
2050868432 -0.0636068731546402 -0.22409552335739136 0.0039534782990813255 0.023840351030230522 0 0 0 0
2054590516 -0.07584115862846375 -0.20181883871555328 0.007337115705013275 0.023243248462677002 0 0 0 0
2058312600 -0.08575520664453506 -0.17668169736862183 0.011117614805698395 0.022026745602488518 0 0 0 0
2062034684 -0.09025998413562775 -0.15035921335220337 0.015015380457043648 0.019956521689891815 0 0 0 0
2065756768 -0.09041012078523636 -0.12307657301425934 0.018606100231409073 0.016787467524409294 0 0 0 0
2069478852 -0.08796028047800064 -0.09580457210540771 0.020951395854353905 0.013082243502140045 0 0 0 0
2073200936 -0.0805586725473404 -0.06885424256324768 0.022356649860739708 0.00887036882340908 0 0 0 0
2076923020 -0.06891851127147675 -0.04243467375636101 0.022935383021831512 0.00489604938775301 0 0 0 0
2080645104 -0.05334802716970444 -0.01820632815361023 0.022749004885554314 0.0012491466477513313 0 0 0 0
2084367188 -0.03373078629374504 0.004016252234578133 0.022313067689538002 -0.0018136417493224144 0 0 0 0
2088089272 -0.010578148066997528 0.024186626076698303 0.02201114222407341 -0.004905296489596367 0 0 0 0
2091811356 0.016144167631864548 0.040401700884103775 0.02163376286625862 -0.008403876796364784 0 0 0 0
2095533440 0.0458514466881752 0.05320693552494049 0.0205675195902586 -0.012270767241716385 0 0 0 0
2099255524 0.07888002693653107 0.06117584928870201 0.017989197745919228 -0.016423426568508148 0 0 0 0
2102977608 0.1146697998046875 0.0631944090127945 0.014771455898880959 -0.019561223685741425 0 0 0 0
2106699692 0.150840625166893 0.05887877568602562 0.010773086920380592 -0.022157710045576096 0 0 0 0
2110421776 0.1854483187198639 0.04676394164562225 0.006503657437860966 -0.02396077662706375 0 0 0 0
2114143860 0.21718204021453857 0.028883246704936028 0.0014603929594159126 -0.02484365925192833 0 0 0 0
2117865944 0.24548837542533875 0.004438899457454681 -0.003913387656211853 -0.02447984367609024 0 0 0 0
2121588028 0.26807016134262085 -0.02200866863131523 -0.008590297773480415 -0.022834764793515205 0 0 0 0
2125310112 0.28542912006378174 -0.05266997590661049 -0.012865117751061916 -0.020214948803186417 0 0 0 0
2129032196 0.29773038625717163 -0.0868513360619545 -0.016266005113720894 -0.016566358506679535 0 0 0 0
2132754280 0.3030284345149994 -0.1185263842344284 -0.018369236961007118 -0.012280664406716824 0 0 0 0
2136476364 0.30372726917266846 -0.15297234058380127 -0.01918487250804901 -0.008349630050361156 0 0 0 0
2140198448 0.3013298511505127 -0.18264387547969818 -0.01940615475177765 -0.004586191847920418 0 0 0 0
2143920532 0.2923257350921631 -0.21461686491966248 -0.018786242231726646 -0.0013983407989144325 0 0 0 0
2147642616 0.278124064207077 -0.24559028446674347 -0.017919497564435005 0.0012643365189433098 0 0 0 0
2151364700 0.2591703236103058 -0.2731948494911194 -0.0172263290733099 0.0034207217395305634 0 0 0 0
2155086784 0.23723004758358002 -0.29674893617630005 -0.016273632645606995 0.005923239514231682 0 0 0 0
2158808868 0.20979687571525574 -0.31599223613739014 -0.014754893258213997 0.008163182064890862 0 0 0 0
2162530952 0.18420177698135376 -0.33023160696029663 -0.013436082750558853 0.009953322820365429 0 0 0 0
2166253036 0.15435194969177246 -0.34056156873703003 -0.011862198822200298 0.011908360756933689 0 0 0 0
2169975120 0.12314967811107635 -0.34531038999557495 -0.009758398868143559 0.013845587149262428 0 0 0 0
2173697204 0.09404479712247849 -0.34597599506378174 -0.0069814203307032585 0.014970052987337112 0 0 0 0
2177419288 0.059701427817344666 -0.34334060549736023 -0.004308917559683323 0.015296214260160923 0 0 0 0
2181141372 0.030011191964149475 -0.33316096663475037 -0.0022296886891126633 0.015475966036319733 0 0 0 0
2184863456 0.001350119709968567 -0.31920191645622253 0.0001500183716416359 0.015742158517241478 0 0 0 0
2188585540 -0.02193303406238556 -0.30095094442367554 0.002699015662074089 0.015474892221391201 0 0 0 0
2192307624 -0.04368094354867935 -0.27953994274139404 0.00531793013215065 0.014693553559482098 0 0 0 0
2196029708 -0.06431064754724503 -0.25368085503578186 0.007500153034925461 0.01329774409532547 0 0 0 0
2199751792 -0.077365942299366 -0.2271653562784195 0.009360337629914284 0.012342583388090134 0 0 0 0
2203473876 -0.08869878947734833 -0.19551043212413788 0.011495806276798248 0.010735400952398777 0 0 0 0
2207195960 -0.09067035466432571 -0.16633367538452148 0.01341464463621378 0.008751117624342442 0 0 0 0
2210918044 -0.09396281838417053 -0.13250230252742767 0.014410905539989471 0.00632890872657299 0 0 0 0
2214640128 -0.08622715622186661 -0.1033092588186264 0.015462423674762249 0.003985040821135044 0 0 0 0
2218362212 -0.07789283990859985 -0.07058359682559967 0.01580640859901905 0.0010666018351912498 0 0 0 0
2222084296 -0.0618327297270298 -0.040128376334905624 0.015571542084217072 -0.0018725097179412842 0 0 0 0
2225806380 -0.03914579749107361 -0.014408367685973644 0.015050136484205723 -0.0045455219224095345 0 0 0 0
2229528464 -0.012014963664114475 0.008344748988747597 0.013849266804754734 -0.007080697454512119 0 0 0 0
2233250548 0.01978299953043461 0.02347998507320881 0.012199191376566887 -0.009382445365190506 0 0 0 0
2236972632 0.05184946209192276 0.03317216783761978 0.00989555660635233 -0.01131577417254448 0 0 0 0
2240694716 0.0853486955165863 0.035674721002578735 0.007176642306149006 -0.012750133872032166 0 0 0 0
2244416800 0.11873288452625275 0.031489524990320206 0.004616377875208855 -0.013518775813281536 0 0 0 0
2248138884 0.14918507635593414 0.027262039482593536 0.00187746062874794 -0.013933665119111538 0 0 0 0
2251860968 0.17870591580867767 0.008340515196323395 -0.0023016706109046936 -0.01423962228000164 0 0 0 0
2255583052 0.20370249450206757 -0.007550537586212158 -0.004889242351055145 -0.013001995161175728 0 0 0 0
2259305136 0.22465313971042633 -0.033296480774879456 -0.007033294066786766 -0.01070865336805582 0 0 0 0
2263027220 0.24005869030952454 -0.05972616747021675 -0.008046713657677174 -0.008418591693043709 0 0 0 0
2266749304 0.24977092444896698 -0.08708298206329346 -0.008090818300843239 -0.006717376410961151 0 0 0 0
2270471388 0.2530469596385956 -0.1174636110663414 -0.008128952234983444 -0.005383957177400589 0 0 0 0
2274193472 0.25249290466308594 -0.14405301213264465 -0.007847839966416359 -0.004441567696630955 0 0 0 0
2277915556 0.24895545840263367 -0.1700911968946457 -0.007889454253017902 -0.00374432560056448 0 0 0 0
2281637640 0.23431560397148132 -0.20142048597335815 -0.008015705272555351 -0.0035897400230169296 0 0 0 0
2285359724 0.2282378077507019 -0.21608984470367432 -0.008682233281433582 -0.003462504595518112 0 0 0 0
2289081808 0.2068324238061905 -0.24006423354148865 -0.009564411826431751 -0.00261703971773386 0 0 0 0
2292803892 0.18515357375144958 -0.25682541728019714 -0.010260730981826782 -0.0015584109351038933 0 0 0 0
2296525976 0.1674186885356903 -0.2648092806339264 -0.011169753037393093 -0.0002943817526102066 0 0 0 0
2300248060 0.14061486721038818 -0.27565228939056396 -0.011769229546189308 0.0016761105507612228 0 0 0 0
2303970144 0.11856180429458618 -0.28228071331977844 -0.0113674346357584 0.003937960602343082 0 0 0 0
2307692228 0.09055276960134506 -0.2806602716445923 -0.010384135879576206 0.005877591669559479 0 0 0 0
2311414312 0.06366792321205139 -0.2765793204307556 -0.008988166227936745 0.007346784695982933 0 0 0 0
2315136396 0.0361722968518734 -0.26844629645347595 -0.007441078312695026 0.008372155949473381 0 0 0 0
2318858480 0.02151719108223915 -0.25584861636161804 -0.005991766229271889 0.008839338086545467 0 0 0 0
2322580564 -0.011386029422283173 -0.23782899975776672 -0.004467322491109371 0.009057912975549698 0 0 0 0
2326302648 -0.022977665066719055 -0.21618427336215973 -0.003448639065027237 0.00901607982814312 0 0 0 0
2330024732 -0.03697456046938896 -0.1926533430814743 -0.002622128464281559 0.00913043413311243 0 0 0 0
2333746816 -0.04854535311460495 -0.1656380295753479 -0.0016618464142084122 0.009384924545884132 0 0 0 0
2337468900 -0.050333864986896515 -0.13775892555713654 -0.0003273049369454384 0.009589657187461853 0 0 0 0
2341190984 -0.049379438161849976 -0.10842714458703995 0.0011490555480122566 0.009386206045746803 0 0 0 0
2344913068 -0.044586535543203354 -0.07886684685945511 0.002781486138701439 0.008455492556095123 0 0 0 0
2348635152 -0.03346449136734009 -0.05105721578001976 0.0034593595191836357 0.007155736908316612 0 0 0 0
2352357236 -0.01654537208378315 -0.026021702215075493 0.0034462381154298782 0.006312447600066662 0 0 0 0
2356079320 0.004951800219714642 -0.004314593970775604 0.003491722047328949 0.005903330631554127 0 0 0 0
2359801404 0.028794385492801666 0.013416528701782227 0.004007240757346153 0.005860283970832825 0 0 0 0
2363523488 0.05528256297111511 0.025375787168741226 0.005313558503985405 0.005426943302154541 0 0 0 0
2367245572 0.0829450860619545 0.03481372073292732 0.006300952285528183 0.004021943546831608 0 0 0 0
2370967656 0.11218322813510895 0.0399184376001358 0.006445924751460552 0.00214199535548687 0 0 0 0
2374689740 0.1419994980096817 0.040346454828977585 0.005689757876098156 0.0004888083785772324 0 0 0 0
2378411824 0.17332960665225983 0.03345050662755966 0.004098967649042606 -0.00011427514255046844 0 0 0 0
2382133908 0.20315048098564148 0.024597756564617157 0.0032493220642209053 0.00022956077009439468 0 0 0 0
2385855992 0.23126062750816345 0.008203379809856415 0.003292434848845005 0.0006396211683750153 0 0 0 0
2389578076 0.25555992126464844 -0.01446428894996643 0.0034230034798383713 0.0007766643539071083 0 0 0 0
2393300160 0.27516353130340576 -0.03874450922012329 0.0037396252155303955 0.00044524669647216797 0 0 0 0
2397022244 0.2905198633670807 -0.06598936021327972 0.003952354192733765 -2.4792738258838654e-05 0 0 0 0
2400744328 0.3016192615032196 -0.09832800924777985 0.0037623969838023186 -0.0006526829674839973 0 0 0 0
2404466412 0.30453377962112427 -0.12888740003108978 0.0036215418949723244 -0.0012113405391573906 0 0 0 0
2408188496 0.3058573305606842 -0.15988335013389587 0.003466259688138962 -0.0016035959124565125 0 0 0 0
2411910580 0.2997916638851166 -0.18985643982887268 0.003008829429745674 -0.0023385286331176758 0 0 0 0
2415632664 0.28872913122177124 -0.22085706889629364 0.0023766448721289635 -0.00284480769187212 0 0 0 0
2419354748 0.27259865403175354 -0.24815894663333893 0.0015797736123204231 -0.0029581598937511444 0 0 0 0
2423076832 0.255690336227417 -0.26926177740097046 0.0010843751952052116 -0.002702656202018261 0 0 0 0
2426798916 0.2311842441558838 -0.2922058701515198 0.0009627249091863632 -0.0026121269911527634 0 0 0 0
2430521000 0.20733846724033356 -0.30614954233169556 0.0002766083925962448 -0.002139612101018429 0 0 0 0
2434243084 0.18194937705993652 -0.3173980414867401 0.00011139363050460815 -0.0018013417720794678 0 0 0 0
2437965168 0.15544825792312622 -0.32760027050971985 0.0004220837727189064 -0.0011826641857624054 0 0 0 0
2441687252 0.1303631067276001 -0.331165611743927 0.0011406810954213142 -0.0010819695889949799 0 0 0 0
2445409336 0.1018056869506836 -0.33476120233535767 0.0019466951489448547 -0.0013278089463710785 0 0 0 0
2449131420 0.07119345664978027 -0.33218324184417725 0.002489631064236164 -0.002363576553761959 0 0 0 0
2452853504 0.04321068525314331 -0.327057808637619 0.0023642675951123238 -0.0037151025608181953 0 0 0 0
2456575588 0.013619896024465561 -0.3159586787223816 0.0017143208533525467 -0.004914420656859875 0 0 0 0
2460297672 -0.012672826647758484 -0.3004204332828522 0.00036687497049570084 -0.005708623677492142 0 0 0 0
2464019756 -0.03546622395515442 -0.280337393283844 -0.000676007941365242 -0.006005218252539635 0 0 0 0
2467741840 -0.05837218090891838 -0.2572099566459656 -0.0016948720440268517 -0.005955582484602928 0 0 0 0
2471463924 -0.07513636350631714 -0.22994422912597656 -0.0026185475289821625 -0.00584174320101738 0 0 0 0
2475186008 -0.08755909651517868 -0.20019231736660004 -0.0036129187792539597 -0.005770864896476269 0 0 0 0
2478908092 -0.09315883368253708 -0.1690157949924469 -0.004673651419579983 -0.005685329437255859 0 0 0 0
2482630176 -0.0953429713845253 -0.1354757696390152 -0.005985717289149761 -0.005334153771400452 0 0 0 0
2486352260 -0.09130005538463593 -0.10306280106306076 -0.007201485335826874 -0.004273084923624992 0 0 0 0
2490074344 -0.08130073547363281 -0.07321053743362427 -0.007884935475885868 -0.003104671835899353 0 0 0 0
2493796428 -0.0672488734126091 -0.046297017484903336 -0.008223982527852058 -0.0020324615761637688 0 0 0 0
2497518512 -0.05075011029839516 -0.020773380994796753 -0.008775923401117325 -0.0008828509598970413 0 0 0 0
2501240596 -0.030521871522068977 0.0010127192363142967 -0.009091239422559738 0.00022338982671499252 0 0 0 0
2504962680 -0.007121727801859379 0.019442861899733543 -0.009440646506845951 0.0016930541023612022 0 0 0 0
2508684764 0.019478317350149155 0.03422798216342926 -0.009356343187391758 0.0034465407952666283 0 0 0 0
2512406848 0.04663459211587906 0.04415745288133621 -0.008653439581394196 0.005101910792291164 0 0 0 0
2516128932 0.07556548714637756 0.04969893395900726 -0.007577438838779926 0.006621622480452061 0 0 0 0
2519851016 0.10456922650337219 0.05156249925494194 -0.00630746316164732 0.007872221991419792 0 0 0 0
2523573100 0.1328943967819214 0.04717142879962921 -0.004651475697755814 0.008518150076270103 0 0 0 0
2527295184 0.1607643961906433 0.038752876222133636 -0.0031114472076296806 0.008710600435733795 0 0 0 0
2531017268 0.1865602284669876 0.027153991162776947 -0.002174961380660534 0.008746896870434284 0 0 0 0
2534739352 0.20943766832351685 0.00879155844449997 -0.0009448463097214699 0.00913434848189354 0 0 0 0
2538461436 0.22876298427581787 -0.010328821837902069 0.0005827108398079872 0.009114736691117287 0 0 0 0
2542183520 0.2433607578277588 -0.03378356993198395 0.0020864177495241165 0.008760135620832443 0 0 0 0
2545905604 0.2525925040245056 -0.057967618107795715 0.0033391164615750313 0.007956643588840961 0 0 0 0
2549627688 0.2589781880378723 -0.08145717531442642 0.004310970194637775 0.006905043497681618 0 0 0 0
2553349772 0.2620418071746826 -0.10441450774669647 0.00483223982155323 0.00618097186088562 0 0 0 0
2557071856 0.2588304281234741 -0.1291860044002533 0.0054229991510510445 0.005273517221212387 0 0 0 0
2560793940 0.2534031867980957 -0.1516166776418686 0.005959858186542988 0.004682361148297787 0 0 0 0
2564516024 0.2421095371246338 -0.1738234907388687 0.006659730337560177 0.004090690985321999 0 0 0 0
2568238108 0.23223477602005005 -0.1876695454120636 0.007385764271020889 0.003495236858725548 0 0 0 0
2571960192 0.2186499536037445 -0.203434020280838 0.008401446044445038 0.0021917736157774925 0 0 0 0
2575682276 0.20432515442371368 -0.2138938456773758 0.009214380756020546 0.0006192121654748917 0 0 0 0
2579404360 0.19081726670265198 -0.22110942006111145 0.009234577417373657 -0.0011219112202525139 0 0 0 0
2583126444 0.17363636195659637 -0.22900289297103882 0.008976252749562263 -0.002977455034852028 0 0 0 0
2586848528 0.1611407846212387 -0.23226211965084076 0.008477975614368916 -0.004537193104624748 0 0 0 0
2590570612 0.14626985788345337 -0.23542258143424988 0.007639775983989239 -0.006013244390487671 0 0 0 0
2594292696 0.13005763292312622 -0.23707281053066254 0.006407303735613823 -0.0075064655393362045 0 0 0 0
2598014780 0.11710847914218903 -0.23512090742588043 0.005103046074509621 -0.008679784834384918 0 0 0 0
2601736864 0.10306233167648315 -0.2307843565940857 0.003182407468557358 -0.009338773787021637 0 0 0 0
2605458948 0.09121887385845184 -0.22570617496967316 0.001429346390068531 -0.009537327103316784 0 0 0 0
2609181032 0.08064618706703186 -0.21901121735572815 -0.00020925700664520264 -0.00926247239112854 0 0 0 0
2612903116 0.07157836854457855 -0.21070027351379395 -0.001034080982208252 -0.00872345082461834 0 0 0 0
2616625200 0.06247370317578316 -0.20200194418430328 -0.0021311864256858826 -0.008336617611348629 0 0 0 0
2620347284 0.057464778423309326 -0.19170235097408295 -0.0027717240154743195 -0.00816076248884201 0 0 0 0
2624069368 0.05325273424386978 -0.18193519115447998 -0.0037953313440084457 -0.008095736615359783 0 0 0 0
2627791452 0.051977746188640594 -0.17288616299629211 -0.005051460117101669 -0.00756596215069294 0 0 0 0
2631513536 0.052042003720998764 -0.16372263431549072 -0.0058402931317687035 -0.0071843890473246574 0 0 0 0
2635235620 0.05126405134797096 -0.15497395396232605 -0.006942824460566044 -0.006971975788474083 0 0 0 0
2638957704 0.053303126245737076 -0.14690661430358887 -0.008271229453384876 -0.006307704374194145 0 0 0 0
2642679788 0.05661781504750252 -0.13774465024471283 -0.009643464349210262 -0.004986068233847618 0 0 0 0
2646401872 0.0628218874335289 -0.1308601349592209 -0.010667774826288223 -0.0036514298990368843 0 0 0 0
2650123956 0.06793670356273651 -0.1261402666568756 -0.011391300708055496 -0.001973457634449005 0 0 0 0
2653846040 0.07496772706508636 -0.12285570800304413 -0.01184277143329382 0.0001407051458954811 0 0 0 0
2657568124 0.07969829440116882 -0.12222494184970856 -0.011795362457633018 0.0024978676810860634 0 0 0 0
2661290208 0.0876174345612526 -0.12158677726984024 -0.011140952818095684 0.004602004773914814 0 0 0 0
2665012292 0.09202878177165985 -0.12269227206707001 -0.010038108564913273 0.006455442868173122 0 0 0 0
2668734376 0.09539831429719925 -0.12450938671827316 -0.008726151660084724 0.007959232665598392 0 0 0 0
2672456460 0.09961670637130737 -0.12783527374267578 -0.0070970989763736725 0.009373659268021584 0 0 0 0
2676178544 0.10192917287349701 -0.13095951080322266 -0.005253481678664684 0.010521955788135529 0 0 0 0
2679900628 0.1038043200969696 -0.13409841060638428 -0.0029394691810011864 0.011072536930441856 0 0 0 0
2683622712 0.10533477365970612 -0.13798436522483826 -0.0007389038801193237 0.011055056005716324 0 0 0 0
2687344796 0.1060367003083229 -0.14132940769195557 0.0011188816279172897 0.010710986331105232 0 0 0 0
2691066880 0.1071057915687561 -0.14614565670490265 0.003117312677204609 0.010001685470342636 0 0 0 0
2694788964 0.10554388165473938 -0.15079480409622192 0.004788903519511223 0.008839009329676628 0 0 0 0
2698511048 0.10310287773609161 -0.15751968324184418 0.005824525840580463 0.007678445428609848 0 0 0 0
2702233132 0.10082632303237915 -0.1625620722770691 0.007047722116112709 0.006510057486593723 0 0 0 0
2705955216 0.097537562251091 -0.16695870459079742 0.008023039437830448 0.0051133111119270325 0 0 0 0
2709677300 0.08854860067367554 -0.17369723320007324 0.008740449324250221 0.003570067696273327 0 0 0 0
2713399384 0.08027534186840057 -0.17800621688365936 0.009257938712835312 0.0020352788269519806 0 0 0 0
2717121468 0.07007052004337311 -0.17837831377983093 0.009820576757192612 0.00025829486548900604 0 0 0 0
2720843552 0.06021937355399132 -0.17648057639598846 0.009823182597756386 -0.0017456840723752975 0 0 0 0
2724565636 0.050639525055885315 -0.17289479076862335 0.009285122156143188 -0.003644963726401329 0 0 0 0
2728287720 0.040936000645160675 -0.16843441128730774 0.008373180404305458 -0.005610755644738674 0 0 0 0
2732009804 0.031653523445129395 -0.16071581840515137 0.007206751964986324 -0.007183008827269077 0 0 0 0
2735731888 0.021896809339523315 -0.1515422761440277 0.00559331476688385 -0.008543701842427254 0 0 0 0
2739453972 0.015611540526151657 -0.14078392088413239 0.0036537060514092445 -0.009731775149703026 0 0 0 0
2743176056 0.009491082280874252 -0.12728801369667053 0.00154107715934515 -0.01028064452111721 0 0 0 0
2746898140 0.006745766848325729 -0.11287621408700943 -0.0004926454275846481 -0.010363930836319923 0 0 0 0
2750620224 0.006630882620811462 -0.09835118800401688 -0.002655244432389736 -0.010216176509857178 0 0 0 0
2754342308 0.008868560194969177 -0.08308438956737518 -0.004808221943676472 -0.009344146586954594 0 0 0 0
2758064392 0.014085573144257069 -0.0679965615272522 -0.006504827179014683 -0.007934490218758583 0 0 0 0
2761786476 0.022906139492988586 -0.05361666902899742 -0.007936778478324413 -0.006432143971323967 0 0 0 0
2765508560 0.03238901123404503 -0.04207484424114227 -0.009059246629476547 -0.004292215220630169 0 0 0 0
2769230644 0.04467067867517471 -0.030620306730270386 -0.009243927896022797 -0.002161474898457527 0 0 0 0
2772952728 0.05860854685306549 -0.02107188291847706 -0.009030280634760857 -0.00023102108389139175 0 0 0 0
2776674812 0.07360858470201492 -0.014871100895106792 -0.00832226499915123 0.0015193400904536247 0 0 0 0
2780396896 0.09080533683300018 -0.010250311344861984 -0.007663533091545105 0.002632308751344681 0 0 0 0
2784118980 0.10780756920576096 -0.008316128514707088 -0.0070582786574959755 0.003939320333302021 0 0 0 0
2787841064 0.12466289848089218 -0.008700738660991192 -0.006162055768072605 0.005464736372232437 0 0 0 0
2791563148 0.1429063230752945 -0.011477380990982056 -0.004581289365887642 0.006719364784657955 0 0 0 0
2795285232 0.160373717546463 -0.017639897763729095 -0.002401025965809822 0.007484244182705879 0 0 0 0
2799007316 0.17812585830688477 -0.02347111701965332 -0.0005319500342011452 0.007160774432122707 0 0 0 0
2802729400 0.19497813284397125 -0.035478200763463974 0.0009228819981217384 0.006536989472806454 0 0 0 0
2806451484 0.20934833586215973 -0.0508468896150589 0.0021820003166794777 0.00580171961337328 0 0 0 0
2810173568 0.22151494026184082 -0.06475511938333511 0.0029545826837420464 0.005047736689448357 0 0 0 0
2813895652 0.23120063543319702 -0.082674041390419 0.0038515757769346237 0.004415049217641354 0 0 0 0
2817617736 0.23991744220256805 -0.10226493328809738 0.004806754179298878 0.0034815622493624687 0 0 0 0
2821339820 0.2453167736530304 -0.12234434485435486 0.005247509106993675 0.0022026151418685913 0 0 0 0
2825061904 0.24480921030044556 -0.1464114487171173 0.005441552028059959 0.0011397646740078926 0 0 0 0
2828783988 0.24648448824882507 -0.16589269042015076 0.005454173311591148 0.00021485146135091782 0 0 0 0
2832506072 0.24520224332809448 -0.18512457609176636 0.005429134704172611 -0.0007783351466059685 0 0 0 0
2836228156 0.2367626279592514 -0.21084129810333252 0.005160249769687653 -0.0017126621678471565 0 0 0 0
2839950240 0.22900532186031342 -0.23189343512058258 0.004747786559164524 -0.0025685708969831467 0 0 0 0
2843672324 0.2153775691986084 -0.25396618247032166 0.00432234164327383 -0.0031430060043931007 0 0 0 0
2847394408 0.1989753246307373 -0.272065669298172 0.0038573965430259705 -0.0038393130525946617 0 0 0 0
2851116492 0.18169423937797546 -0.2862609326839447 0.003603203222155571 -0.004508957266807556 0 0 0 0
2854838576 0.15752995014190674 -0.3008415699005127 0.002901531755924225 -0.005349142476916313 0 0 0 0
2858560660 0.13781291246414185 -0.31165629625320435 0.0021790890023112297 -0.006456713192164898 0 0 0 0
2862282744 0.10860374569892883 -0.3213413953781128 0.000716622918844223 -0.007086870260536671 0 0 0 0
2866004828 0.08919105678796768 -0.3237115740776062 -0.0007317205891013145 -0.007043910212814808 0 0 0 0
2869726912 0.06211142987012863 -0.323201060295105 -0.0021157003939151764 -0.006693891249597073 0 0 0 0
2873448996 0.03625795245170593 -0.3204196095466614 -0.0034370748326182365 -0.006056024692952633 0 0 0 0
2877171080 0.012030713260173798 -0.31421607732772827 -0.004555566236376762 -0.005059646442532539 0 0 0 0
2880893164 -0.013126969337463379 -0.3056957423686981 -0.005180945619940758 -0.0036548012867569923 0 0 0 0
2884615248 -0.03768569603562355 -0.2927653193473816 -0.005383387207984924 -0.002260301262140274 0 0 0 0
2888337332 -0.05839645117521286 -0.27804356813430786 -0.005187623202800751 -0.0014610933139920235 0 0 0 0
2892059416 -0.07937803864479065 -0.25968068838119507 -0.005158278159797192 -0.0005114739760756493 0 0 0 0
2895781500 -0.09381426870822906 -0.23850500583648682 -0.004973382689058781 0.0003156578168272972 0 0 0 0
2899503584 -0.10895625501871109 -0.2147909700870514 -0.004797695204615593 0.001287762075662613 0 0 0 0
2903225668 -0.12039053440093994 -0.18866802752017975 -0.004313098266720772 0.002272007055580616 0 0 0 0
2906947752 -0.12893885374069214 -0.16070345044136047 -0.0034979740157723427 0.0030961595475673676 0 0 0 0
2910669836 -0.1325356662273407 -0.13327577710151672 -0.0026317229494452477 0.003564773127436638 0 0 0 0
2914391920 -0.13250842690467834 -0.10341889411211014 -0.001679733395576477 0.004104679450392723 0 0 0 0
2918114004 -0.12636560201644897 -0.07612848281860352 -0.000694802962243557 0.004095173440873623 0 0 0 0
2921836088 -0.11793734133243561 -0.04871087148785591 0.00019656959921121597 0.003917790949344635 0 0 0 0
2925558172 -0.10660454630851746 -0.023354332894086838 0.0010698111727833748 0.0035980110988020897 0 0 0 0
2929280256 -0.0906360074877739 -1.744180917739868e-05 0.0016132388263940811 0.003281906247138977 0 0 0 0
2933002340 -0.07279123365879059 0.021414833143353462 0.002037525177001953 0.002794644795358181 0 0 0 0
2936724424 -0.05210424214601517 0.039406415075063705 0.0023563411086797714 0.002572431229054928 0 0 0 0
2940446508 -0.028905533254146576 0.054846055805683136 0.002566264010965824 0.002261410467326641 0 0 0 0
2944168592 -0.005039757117629051 0.06692778319120407 0.002917904406785965 0.0021751131862401962 0 0 0 0
2947890676 0.021563278511166573 0.07510682940483093 0.0035829469561576843 0.0019702771678566933 0 0 0 0
2951612760 0.04814187437295914 0.08053676038980484 0.0043869297951459885 0.0015109926462173462 0 0 0 0
2955334844 0.0745682641863823 0.08244746923446655 0.0048277899622917175 0.0008301874622702599 0 0 0 0
2959056928 0.10104900598526001 0.08118736743927002 0.00517971720546484 -0.00012701284140348434 0 0 0 0
2962779012 0.12777216732501984 0.07476465404033661 0.00567497406154871 -0.001137242652475834 0 0 0 0
2966501096 0.1526392102241516 0.06535201519727707 0.0055804019793868065 -0.0025224778801202774 0 0 0 0
2970223180 0.17544284462928772 0.054616719484329224 0.005143222399055958 -0.0037231743335723877 0 0 0 0
2973945264 0.19636934995651245 0.0374898761510849 0.0041849371045827866 -0.0049428390339016914 0 0 0 0
2977667348 0.21502839028835297 0.019079945981502533 0.003239016979932785 -0.005721841007471085 0 0 0 0
2981389432 0.23055733740329742 -0.00022270530462265015 0.0020610690116882324 -0.006419338285923004 0 0 0 0
2985111516 0.24119172990322113 -0.020986560732126236 0.0003584176301956177 -0.006659862585365772 0 0 0 0
2988833600 0.2501649260520935 -0.04384972155094147 -0.0013211201876401901 -0.006284698843955994 0 0 0 0
2992555684 0.2567448019981384 -0.06210341304540634 -0.0026712631806731224 -0.005586488172411919 0 0 0 0
2996277768 0.2604897618293762 -0.08674898743629456 -0.0038084732368588448 -0.004564492963254452 0 0 0 0
2999999852 0.26040226221084595 -0.11038500815629959 -0.004623321816325188 -0.003499947488307953 0 0 0 0
