# HZ S RI R 50
1500000000 -0.07664742320775986 -0.062003687024116516 0.037952717393636703 -0.029948437586426735 0 0 0 0
1503722084 -0.0692005604505539 -0.042982134968042374 0.03116176649928093 -0.034387849271297455 0 0 0 0
1507444168 -0.05833882838487625 -0.023077353835105896 0.024021362885832787 -0.037729233503341675 0 0 0 0
1511166252 -0.042084187269210815 -0.0011043716222047806 0.01643507182598114 -0.039561402052640915 0 0 0 0
1514888336 -0.01864735223352909 0.01936408504843712 0.00934392586350441 -0.039483580738306046 0 0 0 0
1518610420 0.011275545693933964 0.034837380051612854 0.0031378939747810364 -0.03830496594309807 0 0 0 0
1522332504 0.04545867443084717 0.04497751593589783 -0.0019830260425806046 -0.03680747374892235 0 0 0 0
1526054588 0.08208822458982468 0.049052245914936066 -0.006679310463368893 -0.035205237567424774 0 0 0 0
1529776672 0.12100459635257721 0.045160822570323944 -0.011406614445149899 -0.033003438264131546 0 0 0 0
1533498756 0.15898750722408295 0.03546858951449394 -0.015490717254579067 -0.03032829239964485 0 0 0 0
1537220840 0.19752448797225952 0.017212839797139168 -0.01971239037811756 -0.026778332889080048 0 0 0 0
1540942924 0.23168456554412842 -0.006577804684638977 -0.022753700613975525 -0.02245400846004486 0 0 0 0
1544665008 0.26259303092956543 -0.03818901255726814 -0.024924900382757187 -0.017877740785479546 0 0 0 0
1548387092 0.28938156366348267 -0.07220820337533951 -0.026154112070798874 -0.013712325133383274 0 0 0 0
1552109176 0.31020888686180115 -0.11241122335195541 -0.02632591314613819 -0.009044990874826908 0 0 0 0
1555831260 0.3245363235473633 -0.15719786286354065 -0.02567267045378685 -0.00528927706182003 0 0 0 0
1559553344 0.3318415880203247 -0.2038058340549469 -0.024825425818562508 -0.0017901742830872536 0 0 0 0
1563275428 0.33188188076019287 -0.2512497007846832 -0.02361469343304634 0.0009904606267809868 0 0 0 0
1566997512 0.32663971185684204 -0.29932260513305664 -0.022258806973695755 0.0031895535066723824 0 0 0 0
1570719596 0.3148709535598755 -0.34700527787208557 -0.021137915551662445 0.00503762811422348 0 0 0 0
1574441680 0.2945421636104584 -0.39475077390670776 -0.020384732633829117 0.006963151507079601 0 0 0 0
1578163764 0.2639213502407074 -0.4411246180534363 -0.019287528470158577 0.009128909558057785 0 0 0 0
1581885848 0.22665736079216003 -0.48214712738990784 -0.017875630408525467 0.010994672775268555 0 0 0 0
1585607932 0.1853388547897339 -0.5176324844360352 -0.016679225489497185 0.012548288330435753 0 0 0 0
1589330016 0.13270485401153564 -0.5463195443153381 -0.015686575323343277 0.014240993186831474 0 0 0 0
1593052100 0.07719609141349792 -0.5665438175201416 -0.014656346291303635 0.016447199508547783 0 0 0 0
1596774184 0.02459406852722168 -0.5799775719642639 -0.013006400316953659 0.019217340275645256 0 0 0 0
1600496268 -0.03345167636871338 -0.5846500992774963 -0.010711153037846088 0.02208961360156536 0 0 0 0
1604218352 -0.09661270678043365 -0.5817123055458069 -0.00654167216271162 0.024873455986380577 0 0 0 0
1607940436 -0.15415619313716888 -0.5694205164909363 -0.0016209399327635765 0.0259536299854517 0 0 0 0
1611662520 -0.21848493814468384 -0.5475202798843384 0.0033653192222118378 0.025581976398825645 0 0 0 0
1615384604 -0.2736620604991913 -0.5135830044746399 0.007552961818873882 0.024269739165902138 0 0 0 0
1619106688 -0.3265268802642822 -0.4728480279445648 0.011417355388402939 0.022584758698940277 0 0 0 0
1622828772 -0.370750367641449 -0.42645877599716187 0.014970224350690842 0.020114349201321602 0 0 0 0
1626550856 -0.4122505187988281 -0.370479553937912 0.018199864774942398 0.017095033079385757 0 0 0 0
1630272940 -0.44532740116119385 -0.305926650762558 0.020749181509017944 0.013523595407605171 0 0 0 0
1633995024 -0.47001537680625916 -0.23503521084785461 0.022570794448256493 0.009381145238876343 0 0 0 0
1637717108 -0.4810977578163147 -0.16371792554855347 0.023082388564944267 0.005344269797205925 0 0 0 0
1641439192 -0.48261570930480957 -0.08642135560512543 0.023041199892759323 0.0014987820759415627 0 0 0 0
1645161276 -0.4709668457508087 -0.010305672883987427 0.022912396118044853 -0.0019205650314688683 0 0 0 0
1648883360 -0.4459731876850128 0.06660592555999756 0.022357504814863205 -0.005480262450873852 0 0 0 0
1652605444 -0.40754401683807373 0.14010608196258545 0.021376242861151695 -0.00926216971129179 0 0 0 0
1656327528 -0.36029165983200073 0.20247694849967957 0.019729383289813995 -0.013166285119950771 0 0 0 0
1660049612 -0.30034488439559937 0.2618187367916107 0.016857126727700233 -0.01742188259959221 0 0 0 0
1663771696 -0.2314838469028473 0.30869776010513306 0.012207455933094025 -0.020490938797593117 0 0 0 0
1667493780 -0.15647996962070465 0.3462539613246918 0.00669444166123867 -0.02153904363512993 0 0 0 0
1671215864 -0.07419802248477936 0.37089794874191284 0.0019924333319067955 -0.020466273650527 0 0 0 0
1674937948 0.010431298986077309 0.3827166259288788 -0.0008741682395339012 -0.018985990434885025 0 0 0 0
1678660032 0.09651769697666168 0.3800818622112274 -0.0031834933906793594 -0.018045295029878616 0 0 0 0
1682382116 0.17993348836898804 0.36433252692222595 -0.005833704024553299 -0.017157671973109245 0 0 0 0
1686104200 0.26180222630500793 0.33341896533966064 -0.00883013941347599 -0.01571081206202507 0 0 0 0
1689826284 0.33524930477142334 0.29020291566848755 -0.011456049047410488 -0.013424528762698174 0 0 0 0
1693548368 0.40223228931427 0.2356199324131012 -0.013578161597251892 -0.010288533754646778 0 0 0 0
1697270452 0.45802560448646545 0.17416958510875702 -0.014567774720489979 -0.006438190117478371 0 0 0 0
1700992536 0.5039042234420776 0.10318687558174133 -0.013878041878342628 -0.002816947177052498 0 0 0 0
1704714620 0.5384124517440796 0.027304232120513916 -0.012533381581306458 -0.0002934066578745842 0 0 0 0
1708436704 0.5595610737800598 -0.0520748645067215 -0.010769550688564777 0.0015914235264062881 0 0 0 0
1712158788 0.5674161911010742 -0.13628357648849487 -0.009052635170519352 0.0027585579082369804 0 0 0 0
1715880872 0.5634223818778992 -0.21433046460151672 -0.007288713939487934 0.0032337550073862076 0 0 0 0
1719602956 0.5455124974250793 -0.29531344771385193 -0.005997280590236187 0.003058432601392269 0 0 0 0
1723325040 0.5165321230888367 -0.3704206347465515 -0.005255194380879402 0.0026981718838214874 0 0 0 0
1727047124 0.4781220853328705 -0.437227725982666 -0.004685542546212673 0.002435276284813881 0 0 0 0
1730769208 0.42702817916870117 -0.499143123626709 -0.004575340077280998 0.0021588439121842384 0 0 0 0
1734491292 0.37050217390060425 -0.5491812825202942 -0.00465890858322382 0.002084787003695965 0 0 0 0
1738213376 0.30626168847084045 -0.5922466516494751 -0.004644978791475296 0.0022334204986691475 0 0 0 0
1741935460 0.23884990811347961 -0.6216421723365784 -0.004745976068079472 0.002322179265320301 0 0 0 0
1745657544 0.16877707839012146 -0.640549898147583 -0.004912053234875202 0.002566056326031685 0 0 0 0
1749379628 0.09481646120548248 -0.648421049118042 -0.005223674699664116 0.0031275954097509384 0 0 0 0
1753101712 0.024914324283599854 -0.6458989381790161 -0.005471635609865189 0.003712497651576996 0 0 0 0
1756823796 -0.042863018810749054 -0.6320794820785522 -0.0053845541551709175 0.0045585231855511665 0 0 0 0
1760545880 -0.11261793971061707 -0.6077821850776672 -0.005185629241168499 0.005422569811344147 0 0 0 0
1764267964 -0.1723470240831375 -0.5731103420257568 -0.004926694557070732 0.006409226916730404 0 0 0 0
1767990048 -0.21927332878112793 -0.5334905982017517 -0.004519043490290642 0.00759532954543829 0 0 0 0
1771712132 -0.26626265048980713 -0.48492613434791565 -0.0034807855263352394 0.008819724433124065 0 0 0 0
1775434216 -0.30187785625457764 -0.4355582296848297 -0.0019294563680887222 0.009720530360937119 0 0 0 0
1779156300 -0.3288482427597046 -0.3810817003250122 -0.0003902195021510124 0.009715194813907146 0 0 0 0
1782878384 -0.3509242534637451 -0.32363763451576233 0.00041442830115556717 0.009409340098500252 0 0 0 0
1786600468 -0.36310049891471863 -0.2643038034439087 0.0008017038926482201 0.00976450927555561 0 0 0 0
1790322552 -0.36751309037208557 -0.20535746216773987 0.0015051141381263733 0.010714665055274963 0 0 0 0
1794044636 -0.3635949194431305 -0.14365676045417786 0.0029079392552375793 0.01193894725292921 0 0 0 0
1797766720 -0.3503398895263672 -0.08439146727323532 0.005040003918111324 0.012743249535560608 0 0 0 0
1801488804 -0.3285059928894043 -0.026570603251457214 0.007820607163012028 0.013360296376049519 0 0 0 0
1805210888 -0.2979184091091156 0.024273261427879333 0.011417904868721962 0.01321541890501976 0 0 0 0
1808932972 -0.2594650685787201 0.07219041138887405 0.015314924530684948 0.011231121607124805 0 0 0 0
1812655056 -0.21484652161598206 0.10929958522319794 0.018175646662712097 0.008286681026220322 0 0 0 0
1816377140 -0.16527068614959717 0.1414560079574585 0.02001773938536644 0.005052358843386173 0 0 0 0
1820099224 -0.11055804789066315 0.1650654375553131 0.02183462679386139 0.0012956541031599045 0 0 0 0
1823821308 -0.05181504786014557 0.17890101671218872 0.022881951183080673 -0.0029893601313233376 0 0 0 0
1827543392 0.00775495171546936 0.18121403455734253 0.022669672966003418 -0.007990582846105099 0 0 0 0
1831265476 0.06093617528676987 0.17345523834228516 0.02081393636763096 -0.012740286067128181 0 0 0 0
1834987560 0.11350428313016891 0.1573532521724701 0.01859142817556858 -0.016600150614976883 0 0 0 0
1838709644 0.1616193652153015 0.13462530076503754 0.015333017334342003 -0.020071540027856827 0 0 0 0
1842431728 0.2047342211008072 0.10432541370391846 0.011678199283778667 -0.023377258330583572 0 0 0 0
1846153812 0.24106790125370026 0.06788904964923859 0.0065959133207798 -0.025817427784204483 0 0 0 0
1849875896 0.2694820761680603 0.026734609156847 0.0012059928849339485 -0.026371432468295097 0 0 0 0
1853597980 0.28805118799209595 -0.016705315560102463 -0.0034392252564430237 -0.025371836498379707 0 0 0 0
1857320064 0.30003994703292847 -0.06027469038963318 -0.007330800406634808 -0.02417442761361599 0 0 0 0
1861042148 0.30551403760910034 -0.103131003677845 -0.010947680100798607 -0.022803669795393944 0 0 0 0
1864764232 0.30449503660202026 -0.1454331874847412 -0.014336186461150646 -0.021022969856858253 0 0 0 0
1868486316 0.29620084166526794 -0.1878836452960968 -0.017600009217858315 -0.019139576703310013 0 0 0 0
1872208400 0.2801583409309387 -0.22782011330127716 -0.021097511053085327 -0.016890930011868477 0 0 0 0
1875930484 0.25993144512176514 -0.2604444921016693 -0.02460736408829689 -0.013188028708100319 0 0 0 0
1879652568 0.23232172429561615 -0.290335476398468 -0.026886826381087303 -0.008580746129155159 0 0 0 0
1883374652 0.20269520580768585 -0.3127751648426056 -0.02808796800673008 -0.0035195881500840187 0 0 0 0
1887096736 0.1710265874862671 -0.32849133014678955 -0.028323447331786156 0.0010795490816235542 0 0 0 0
1890818820 0.13703560829162598 -0.3400290012359619 -0.0281179528683424 0.005362004041671753 0 0 0 0
1894540904 0.10233715921640396 -0.34458789229393005 -0.02820047177374363 0.009465393610298634 0 0 0 0
1898262988 0.06849348545074463 -0.344079852104187 -0.02764224074780941 0.015101941302418709 0 0 0 0
1901985072 0.03862474858760834 -0.3371437191963196 -0.025668995454907417 0.021156711503863335 0 0 0 0
1905707156 0.006971642374992371 -0.3255921006202698 -0.021561147645115852 0.02701740339398384 0 0 0 0
1909429240 -0.018296172842383385 -0.30783811211586 -0.01553265005350113 0.031903225928545 0 0 0 0
1913151324 -0.040171898901462555 -0.2869302034378052 -0.008479425683617592 0.03477370738983154 0 0 0 0
1916873408 -0.05854864418506622 -0.2620992958545685 -0.0008056433871388435 0.03555046766996384 0 0 0 0
1920595492 -0.0702454149723053 -0.23595701158046722 0.006289399228990078 0.034512873739004135 0 0 0 0
1924317576 -0.07735861837863922 -0.20796369016170502 0.012831946834921837 0.03202357143163681 0 0 0 0
1928039660 -0.07871279120445251 -0.18073636293411255 0.018262632191181183 0.02841947041451931 0 0 0 0
1931761744 -0.07575918734073639 -0.1533588320016861 0.022751087322831154 0.02414829470217228 0 0 0 0
1935483828 -0.07083027064800262 -0.12656371295452118 0.02663300931453705 0.019119875505566597 0 0 0 0
1939205912 -0.05744197964668274 -0.1030183658003807 0.02908957004547119 0.014030594378709793 0 0 0 0
1942927996 -0.04199785739183426 -0.08124615997076035 0.030655570328235626 0.008211905136704445 0 0 0 0
1946650080 -0.021300682798027992 -0.06413188576698303 0.03139999136328697 0.0029744096100330353 0 0 0 0
1950372164 0.0013457601889967918 -0.05121465027332306 0.03159363195300102 -0.0030801603570580482 0 0 0 0
1954094248 0.02440859004855156 -0.04280821606516838 0.030436372384428978 -0.009530572220683098 0 0 0 0
1957816332 0.048463426530361176 -0.039155032485723495 0.02711629495024681 -0.015118432231247425 0 0 0 0
1961538416 0.07389112561941147 -0.03867959976196289 0.023165054619312286 -0.019591540098190308 0 0 0 0
1965260500 0.09701595455408096 -0.04392826557159424 0.0187053382396698 -0.022833067923784256 0 0 0 0
1968982584 0.11930262297391891 -0.053514547646045685 0.014286965131759644 -0.02512657269835472 0 0 0 0
1972704668 0.13888384401798248 -0.0653582364320755 0.009508690796792507 -0.02712239697575569 0 0 0 0
1976426752 0.15530548989772797 -0.08149635791778564 0.0042457375675439835 -0.028138864785432816 0 0 0 0
1980148836 0.16918812692165375 -0.09878097474575043 -0.000929221510887146 -0.027743060141801834 0 0 0 0
1983870920 0.18044209480285645 -0.11856603622436523 -0.005288382992148399 -0.026661382988095284 0 0 0 0
1987593004 0.18721704185009003 -0.14288292825222015 -0.00952905137091875 -0.025214893743395805 0 0 0 0
1991315088 0.18873140215873718 -0.16724781692028046 -0.013258944265544415 -0.02345469407737255 0 0 0 0
1995037172 0.18508301675319672 -0.18991103768348694 -0.016957111656665802 -0.02141673117876053 0 0 0 0
1998759256 0.17555156350135803 -0.21157807111740112 -0.021305039525032043 -0.01897953823208809 0 0 0 0
2002481340 0.1644900143146515 -0.22783222794532776 -0.025401750579476357 -0.01492263562977314 0 0 0 0
2006203424 0.1529110074043274 -0.24318601191043854 -0.028803084045648575 -0.009317545220255852 0 0 0 0
2009925508 0.1364816427230835 -0.2571064531803131 -0.029900578781962395 -0.0026242369785904884 0 0 0 0
2013647592 0.12085108458995819 -0.2668931782245636 -0.029108215123414993 0.003551824949681759 0 0 0 0
2017369676 0.10068978369235992 -0.2746663987636566 -0.026935040950775146 0.009215419180691242 0 0 0 0
2021091760 0.08058859407901764 -0.2793986201286316 -0.02380642667412758 0.013270092196762562 0 0 0 0
2024813844 0.06144687160849571 -0.2792801558971405 -0.020983289927244186 0.016433272510766983 0 0 0 0
2028535928 0.041084058582782745 -0.27836480736732483 -0.017936641350388527 0.019455594941973686 0 0 0 0
2032258012 0.02292235568165779 -0.27373623847961426 -0.013914636336266994 0.022222189232707024 0 0 0 0
2035980096 0.006052173674106598 -0.2665644884109497 -0.01014870684593916 0.023826882243156433 0 0 0 0
2039702180 -0.013950206339359283 -0.25642305612564087 -0.005402399227023125 0.024877451360225677 0 0 0 0
2043424264 -0.03184836357831955 -0.24391041696071625 -0.0006441064178943634 0.024923155084252357 0 0 0 0
2047146348 -0.047319911420345306 -0.22788311541080475 0.0030013229697942734 0.024278132244944572 0 0 0 0
2050868432 -0.060433171689510345 -0.20875942707061768 0.006934111937880516 0.02329111285507679 0 0 0 0
2054590516 -0.06948592513799667 -0.18738484382629395 0.010306967422366142 0.02174518257379532 0 0 0 0
2058312600 -0.07593105733394623 -0.16491691768169403 0.013973991386592388 0.01939624734222889 0 0 0 0
2062034684 -0.07995060831308365 -0.14186686277389526 0.016642017289996147 0.016572903841733932 0 0 0 0
2065756768 -0.08081015199422836 -0.11621834337711334 0.018864577636122704 0.013284596614539623 0 0 0 0
2069478852 -0.07549005001783371 -0.09088636934757233 0.020502857863903046 0.009626979008316994 0 0 0 0
2073200936 -0.06760450452566147 -0.06465226411819458 0.021593548357486725 0.0061410292983055115 0 0 0 0
2076923020 -0.054497674107551575 -0.041176557540893555 0.02176171913743019 0.002197796478867531 0 0 0 0
2080645104 -0.03751140087842941 -0.019691912457346916 0.02154920995235443 -0.000710710883140564 0 0 0 0
2084367188 -0.017792334780097008 0.0001412946730852127 0.02135341987013817 -0.004150673747062683 0 0 0 0
2088089272 0.006608780473470688 0.016718164086341858 0.02084212750196457 -0.008087982423603535 0 0 0 0
2091811356 0.03372325375676155 0.02842775359749794 0.01919681578874588 -0.012144440785050392 0 0 0 0
2095533440 0.062000881880521774 0.034858785569667816 0.01650499366223812 -0.015919046476483345 0 0 0 0
2099255524 0.08999485522508621 0.03804048150777817 0.012614961713552475 -0.019055981189012527 0 0 0 0
2102977608 0.11820123344659805 0.036429598927497864 0.008062300272285938 -0.020896757021546364 0 0 0 0
2106699692 0.14718396961688995 0.03125829994678497 0.0033880621194839478 -0.021440692245960236 0 0 0 0
2110421776 0.17499080300331116 0.02071760594844818 -0.0012356042861938477 -0.020749829709529877 0 0 0 0
2114143860 0.2015710175037384 0.005498535931110382 -0.005061564035713673 -0.018754620105028152 0 0 0 0
2117865944 0.2238403856754303 -0.01340019702911377 -0.007029435597360134 -0.016685158014297485 0 0 0 0
2121588028 0.24276083707809448 -0.03497222065925598 -0.00913836807012558 -0.015376687049865723 0 0 0 0
2125310112 0.25982144474983215 -0.05848211050033569 -0.01174726989120245 -0.013991872780025005 0 0 0 0
2129032196 0.2717824876308441 -0.08445245027542114 -0.014348248019814491 -0.011746490374207497 0 0 0 0
2132754280 0.27848556637763977 -0.11432500928640366 -0.016334552317857742 -0.00817587599158287 0 0 0 0
2136476364 0.2803800404071808 -0.1446315050125122 -0.017278943210840225 -0.0044865962117910385 0 0 0 0
2140198448 0.27981436252593994 -0.17256556451320648 -0.017007984220981598 -0.0007181623950600624 0 0 0 0
2143920532 0.2728900611400604 -0.20047515630722046 -0.01568693295121193 0.0024029891937971115 0 0 0 0
2147642616 0.26134029030799866 -0.23014891147613525 -0.014228688552975655 0.004352426156401634 0 0 0 0
2151364700 0.24735331535339355 -0.2536301016807556 -0.013069229200482368 0.006421477533876896 0 0 0 0
2155086784 0.22807130217552185 -0.27608346939086914 -0.011457083746790886 0.008275129832327366 0 0 0 0
2158808868 0.20714816451072693 -0.2930225729942322 -0.009662439115345478 0.009458880871534348 0 0 0 0
2162530952 0.18359436094760895 -0.3069174885749817 -0.007792186923325062 0.010505776852369308 0 0 0 0
2166253036 0.15742076933383942 -0.3168047368526459 -0.006066297180950642 0.01096043549478054 0 0 0 0
2169975120 0.12985746562480927 -0.3246440887451172 -0.004272943362593651 0.011566009372472763 0 0 0 0
2173697204 0.10480934381484985 -0.326468288898468 -0.002383654937148094 0.011857652105391026 0 0 0 0
2177419288 0.07425989955663681 -0.3251760005950928 -0.000555800274014473 0.011812497861683369 0 0 0 0
2181141372 0.049398425966501236 -0.31848669052124023 0.0009358171373605728 0.01161259226500988 0 0 0 0
2184863456 0.020855069160461426 -0.3080533444881439 0.002955125644803047 0.011209541000425816 0 0 0 0
2188585540 -0.004678539931774139 -0.29207944869995117 0.0047454070299863815 0.010431603528559208 0 0 0 0
2192307624 -0.02324972301721573 -0.2733560800552368 0.006462596356868744 0.009352364577353 0 0 0 0
2196029708 -0.04144742339849472 -0.25111404061317444 0.008015606552362442 0.007755006663501263 0 0 0 0
2199751792 -0.05415306240320206 -0.22553879022598267 0.009057176299393177 0.005773505195975304 0 0 0 0
2203473876 -0.06438955664634705 -0.19830720126628876 0.009521129541099072 0.003689417615532875 0 0 0 0
2207195960 -0.06558649241924286 -0.17413069307804108 0.009047368541359901 0.002160763368010521 0 0 0 0
2210918044 -0.06871438026428223 -0.14588797092437744 0.008624183014035225 0.0007197326049208641 0 0 0 0
2214640128 -0.06619277596473694 -0.11982494592666626 0.008711414411664009 -0.00021843891590833664 0 0 0 0
2218362212 -0.05653664469718933 -0.09580539911985397 0.008744334802031517 -0.00201570987701416 0 0 0 0
2222084296 -0.04653966426849365 -0.07027103006839752 0.0079497080296278 -0.004139295779168606 0 0 0 0
2225806380 -0.03252774477005005 -0.04584064707159996 0.00604831799864769 -0.005928167141973972 0 0 0 0
2229528464 -0.011847147718071938 -0.025925669819116592 0.0037699146196246147 -0.006503798998892307 0 0 0 0
2233250548 0.011650762520730495 -0.008702064864337444 0.0018962947651743889 -0.006102616898715496 0 0 0 0
2236972632 0.037690337747335434 0.003818267025053501 0.0006253700703382492 -0.005407960154116154 0 0 0 0
2240694716 0.0661914050579071 0.012066100724041462 -0.0003518005833029747 -0.004548349417746067 0 0 0 0
2244416800 0.09598515927791595 0.014076132327318192 -0.0006965277716517448 -0.003768129274249077 0 0 0 0
2248138884 0.12507390975952148 0.007952839136123657 -0.0006981445476412773 -0.002918173559010029 0 0 0 0
2251860968 0.15286418795585632 -0.0015505403280258179 -0.0008172895759344101 -0.0025634095072746277 0 0 0 0
2255583052 0.17615295946598053 -0.01912017911672592 -0.0007109213620424271 -0.001840866170823574 0 0 0 0
2259305136 0.19510871171951294 -0.03799104690551758 0.0001011071726679802 -0.001653973013162613 0 0 0 0
2263027220 0.20875640213489532 -0.05796302482485771 0.0010331058874726295 -0.0021073250100016594 0 0 0 0
2266749304 0.22061662375926971 -0.07704513520002365 0.0014584409072995186 -0.003269823268055916 0 0 0 0
2270471388 0.2276933193206787 -0.10276980698108673 0.0007039522752165794 -0.004644738510251045 0 0 0 0
2274193472 0.2281210869550705 -0.1262587010860443 -0.0005759904161095619 -0.005367247387766838 0 0 0 0
2277915556 0.2290796935558319 -0.1473519206047058 -0.0019951025024056435 -0.005431680008769035 0 0 0 0
2281637640 0.2225528359413147 -0.17299991846084595 -0.0032972441986203194 -0.004874898120760918 0 0 0 0
2285359724 0.21521130204200745 -0.19244565069675446 -0.004127181135118008 -0.003987690433859825 0 0 0 0
2289081808 0.20401346683502197 -0.21027450263500214 -0.004235008731484413 -0.003068258985877037 0 0 0 0
2292803892 0.1904250681400299 -0.22740240395069122 -0.003992051817476749 -0.0027352003380656242 0 0 0 0
2296525976 0.1709955632686615 -0.2446756511926651 -0.003750484436750412 -0.0027323896065354347 0 0 0 0
2300248060 0.15458428859710693 -0.2535788118839264 -0.003942437469959259 -0.0032029449939727783 0 0 0 0
2303970144 0.13264814019203186 -0.26280903816223145 -0.0050874557346105576 -0.003833269700407982 0 0 0 0
2307692228 0.10546901822090149 -0.2643100619316101 -0.006250140257179737 -0.003717159852385521 0 0 0 0
2311414312 0.08822724223136902 -0.2609311640262604 -0.007464724592864513 -0.003054579719901085 0 0 0 0
2315136396 0.057745300233364105 -0.2575828433036804 -0.008450424298644066 -0.0019247233867645264 0 0 0 0
2318858480 0.03840883821249008 -0.24808067083358765 -0.009098815731704235 -0.001128949224948883 0 0 0 0
2322580564 0.0216009970754385 -0.23413878679275513 -0.010037003085017204 8.801370859146118e-05 0 0 0 0
2326302648 0.0005173245444893837 -0.21784935891628265 -0.010722866281867027 0.0015491535887122154 0 0 0 0
2330024732 -0.010390795767307281 -0.1983686238527298 -0.011060797609388828 0.0037573985755443573 0 0 0 0
2333746816 -0.02264224737882614 -0.17682847380638123 -0.011187689378857613 0.0058705126866698265 0 0 0 0
2337468900 -0.03164190798997879 -0.15218256413936615 -0.010235323570668697 0.008349231444299221 0 0 0 0
2341190984 -0.031054582446813583 -0.1277010589838028 -0.008587460964918137 0.010614235885441303 0 0 0 0
2344913068 -0.028567669913172722 -0.10277082771062851 -0.0061025312170386314 0.011801410466432571 0 0 0 0
2348635152 -0.025019260123372078 -0.07731671631336212 -0.0037461640313267708 0.011685160920023918 0 0 0 0
2352357236 -0.013681369833648205 -0.0534122958779335 -0.002280665561556816 0.011668802239000797 0 0 0 0
2356079320 0.0015659984201192856 -0.030299456790089607 -0.0010378072038292885 0.011696656234562397 0 0 0 0
2359801404 0.02164507657289505 -0.01047283224761486 0.0004702256992459297 0.011615408584475517 0 0 0 0
2363523488 0.04476465284824371 0.004572936333715916 0.0022491859272122383 0.011325023137032986 0 0 0 0
2367245572 0.06968440860509872 0.016317440196871758 0.0034008920192718506 0.010457692667841911 0 0 0 0
2370967656 0.09672673046588898 0.02347037009894848 0.004327402450144291 0.009594817645847797 0 0 0 0
2374689740 0.12537583708763123 0.026749473065137863 0.005071540363132954 0.009238101541996002 0 0 0 0
2378411824 0.15461428463459015 0.022664016112685204 0.0061297183856368065 0.008843396790325642 0 0 0 0
2382133908 0.18337632715702057 0.01458502933382988 0.0073920441791415215 0.008432791568338871 0 0 0 0
2385855992 0.20854628086090088 0.00048382673412561417 0.008743923157453537 0.007355258800089359 0 0 0 0
2389578076 0.2300470620393753 -0.017421334981918335 0.01003533136099577 0.005993938073515892 0 0 0 0
2393300160 0.24847450852394104 -0.03802603483200073 0.010954844765365124 0.004304154776036739 0 0 0 0
2397022244 0.2631005644798279 -0.05861732363700867 0.011608995497226715 0.002374607138335705 0 0 0 0
2400744328 0.2732110917568207 -0.08431006968021393 0.011660847812891006 0.00015400629490613937 0 0 0 0
2404466412 0.2817126214504242 -0.11147681623697281 0.011374027468264103 -0.0016178274527192116 0 0 0 0
2408188496 0.2859210968017578 -0.13561464846134186 0.010709226131439209 -0.003445045091211796 0 0 0 0
2411910580 0.2867172956466675 -0.1613316535949707 0.009929239749908447 -0.004959152080118656 0 0 0 0
2415632664 0.2820799946784973 -0.1905323565006256 0.00872272439301014 -0.006493695080280304 0 0 0 0
2419354748 0.27158915996551514 -0.2161136418581009 0.007307074032723904 -0.007361484691500664 0 0 0 0
2423076832 0.26013651490211487 -0.2402176856994629 0.006253083236515522 -0.008231021463871002 0 0 0 0
2426798916 0.24286025762557983 -0.26410597562789917 0.005034040659666061 -0.008683796040713787 0 0 0 0
2430521000 0.22352299094200134 -0.28236496448516846 0.004045662470161915 -0.009676105342805386 0 0 0 0
2434243084 0.20246779918670654 -0.29603973031044006 0.0025452272966504097 -0.010360512882471085 0 0 0 0
2437965168 0.1793595254421234 -0.3102547228336334 0.0007681334391236305 -0.010930555872619152 0 0 0 0
2441687252 0.1552562713623047 -0.31863951683044434 -0.0012460574507713318 -0.011116445064544678 0 0 0 0
2445409336 0.12454050034284592 -0.32578760385513306 -0.0031386716291308403 -0.01059550978243351 0 0 0 0
2449131420 0.09745999425649643 -0.3258052170276642 -0.004811177030205727 -0.009857458993792534 0 0 0 0
2452853504 0.06877928972244263 -0.3221327066421509 -0.006453796289861202 -0.008663272485136986 0 0 0 0
2456575588 0.04331512004137039 -0.31585726141929626 -0.007467011921107769 -0.007424048148095608 0 0 0 0
2460297672 0.017502985894680023 -0.30419641733169556 -0.008235043846070766 -0.006051531061530113 0 0 0 0
2464019756 -0.004981279373168945 -0.29065418243408203 -0.008760719560086727 -0.004736505448818207 0 0 0 0
2467741840 -0.028177477419376373 -0.27360597252845764 -0.009271801449358463 -0.003351883962750435 0 0 0 0
2471463924 -0.04832456260919571 -0.25176894664764404 -0.009366611018776894 -0.0018469728529453278 0 0 0 0
2475186008 -0.06460615992546082 -0.22679005563259125 -0.008948408998548985 -0.0008071428164839745 0 0 0 0
2478908092 -0.07598170638084412 -0.1995132863521576 -0.008626358583569527 0.00014374591410160065 0 0 0 0
2482630176 -0.08210878819227219 -0.17065562307834625 -0.008683598600327969 0.0009872186928987503 0 0 0 0
2486352260 -0.08458278328180313 -0.14236201345920563 -0.008657234720885754 0.0017973491922020912 0 0 0 0
2490074344 -0.08289166539907455 -0.11428898572921753 -0.008396581746637821 0.0029093874618411064 0 0 0 0
2493796428 -0.077094666659832 -0.08652736246585846 -0.00815012026578188 0.003984482027590275 0 0 0 0
2497518512 -0.06864926964044571 -0.059214185923337936 -0.0076006511226296425 0.0051213884726166725 0 0 0 0
2501240596 -0.05515144020318985 -0.03340005874633789 -0.006772691383957863 0.006415374577045441 0 0 0 0
2504962680 -0.0378817655146122 -0.010546926409006119 -0.005795455537736416 0.00738853495568037 0 0 0 0
2508684764 -0.016899213194847107 0.00942942127585411 -0.004488933831453323 0.008089554496109486 0 0 0 0
2512406848 0.006670510396361351 0.026582179591059685 -0.002934766001999378 0.00874802190810442 0 0 0 0
2516128932 0.031848203390836716 0.0404159277677536 -0.0014409227296710014 0.008965782821178436 0 0 0 0
2519851016 0.05977236106991768 0.05055314302444458 0.00028505828231573105 0.008893021382391453 0 0 0 0
2523573100 0.08932863920927048 0.05418703705072403 0.002140078693628311 0.008333606645464897 0 0 0 0
2527295184 0.1184171661734581 0.05378623306751251 0.0036200713366270065 0.00702325627207756 0 0 0 0
2531017268 0.1475052833557129 0.04742007702589035 0.0043730540201067924 0.005739231593906879 0 0 0 0
2534739352 0.17475104331970215 0.039149895310401917 0.004895451478660107 0.004480429925024509 0 0 0 0
2538461436 0.19980454444885254 0.024562902748584747 0.00504419207572937 0.0032339515164494514 0 0 0 0
2542183520 0.22121593356132507 0.005903363227844238 0.005176163278520107 0.0016936250030994415 0 0 0 0
2545905604 0.23847350478172302 -0.017662376165390015 0.004589634947478771 0.0005688033998012543 0 0 0 0
2549627688 0.25187554955482483 -0.03774097561836243 0.00383645948022604 2.2759661078453064e-05 0 0 0 0
2553349772 0.26282835006713867 -0.05941347777843475 0.003140580840408802 -0.00010310858488082886 0 0 0 0
2557071856 0.2714669108390808 -0.08379694819450378 0.002991355024278164 -0.00026126857846975327 0 0 0 0
2560793940 0.27224844694137573 -0.10846221446990967 0.002912239171564579 -0.0002609323710203171 0 0 0 0
2564516024 0.2715320289134979 -0.13328996300697327 0.0030480176210403442 -0.00048753153532743454 0 0 0 0
2568238108 0.26938438415527344 -0.15387490391731262 0.0029348041862249374 -0.0009196754544973373 0 0 0 0
2571960192 0.264040470123291 -0.1770109385251999 0.0027039479464292526 -0.0014860816299915314 0 0 0 0
2575682276 0.25240716338157654 -0.20010584592819214 0.0023152297362685204 -0.0018265563994646072 0 0 0 0
2579404360 0.23999789357185364 -0.21773070096969604 0.002179066650569439 -0.001823454163968563 0 0 0 0
2583126444 0.22508886456489563 -0.23343288898468018 0.002163674682378769 -0.0020950976759195328 0 0 0 0
2586848528 0.2046395242214203 -0.24882002174854279 0.002034899778664112 -0.0026272470131516457 0 0 0 0
2590570612 0.18390274047851562 -0.2588016986846924 0.001608520746231079 -0.0030245091766119003 0 0 0 0
2594292696 0.16500340402126312 -0.2650003135204315 0.0012602061033248901 -0.003506341017782688 0 0 0 0
2598014780 0.1435667723417282 -0.2700680196285248 0.000573333352804184 -0.0038049500435590744 0 0 0 0
2601736864 0.12493301928043365 -0.26923543214797974 -0.00021772272884845734 -0.003957216627895832 0 0 0 0
2605458948 0.10316099971532822 -0.26588383316993713 -0.0011123884469270706 -0.003833584487438202 0 0 0 0
2609181032 0.08546964824199677 -0.25919994711875916 -0.0022155633196234703 -0.003339586779475212 0 0 0 0
2612903116 0.07038164883852005 -0.2512878179550171 -0.002600773237645626 -0.0020598089322447777 0 0 0 0
2616625200 0.05327817052602768 -0.24211493134498596 -0.002214576117694378 -0.0010343464091420174 0 0 0 0
2620347284 0.042177461087703705 -0.23091472685337067 -0.0011814376339316368 -0.00038233213126659393 0 0 0 0
2624069368 0.028350666165351868 -0.2177264243364334 -0.00028721243143081665 -0.0005876757204532623 0 0 0 0
2627791452 0.019624263048171997 -0.20070059597492218 0.0002668481320142746 -0.0012388601899147034 0 0 0 0
2631513536 0.012493684887886047 -0.18330080807209015 0.0007346495985984802 -0.0018666591495275497 0 0 0 0
2635235620 0.010345518589019775 -0.16584718227386475 0.0010040877386927605 -0.002998099662363529 0 0 0 0
2638957704 0.013770930469036102 -0.1491914540529251 0.0006937971338629723 -0.0047494834288954735 0 0 0 0
2642679788 0.017118994146585464 -0.13373062014579773 -0.0007681222632527351 -0.005875803530216217 0 0 0 0
2646401872 0.024258971214294434 -0.11983850598335266 -0.0025477325543761253 -0.006641224958002567 0 0 0 0
2650123956 0.032859064638614655 -0.10739967226982117 -0.004961277358233929 -0.006753109395503998 0 0 0 0
2653846040 0.043591421097517014 -0.09765622019767761 -0.007399204187095165 -0.00567970983684063 0 0 0 0
2657568124 0.0561458095908165 -0.08994121104478836 -0.00931725837290287 -0.003553168848156929 0 0 0 0
2661290208 0.0698743611574173 -0.08640117198228836 -0.010311471298336983 -0.0006417697295546532 0 0 0 0
2665012292 0.08343829214572906 -0.08574728667736053 -0.010041365399956703 0.002168724313378334 0 0 0 0
2668734376 0.09446028620004654 -0.0876111090183258 -0.008889283984899521 0.004560704343020916 0 0 0 0
2672456460 0.10668420791625977 -0.0907849594950676 -0.0071016112342476845 0.006365412846207619 0 0 0 0
2676178544 0.11641918122768402 -0.09667585790157318 -0.005275559611618519 0.007418562658131123 0 0 0 0
2679900628 0.12544159591197968 -0.10558046400547028 -0.0030296044424176216 0.007893259637057781 0 0 0 0
2683622712 0.13229826092720032 -0.11492278426885605 -0.000797477550804615 0.00784269068390131 0 0 0 0
2687344796 0.13550390303134918 -0.12614774703979492 0.001088060438632965 0.00682746060192585 0 0 0 0
2691066880 0.13745632767677307 -0.13732703030109406 0.0020277556031942368 0.005200917832553387 0 0 0 0
2694788964 0.13646504282951355 -0.14822804927825928 0.0020085256546735764 0.004064884036779404 0 0 0 0
2698511048 0.132822185754776 -0.16002681851387024 0.0017732996493577957 0.0037013255059719086 0 0 0 0
2702233132 0.12739238142967224 -0.17064042389392853 0.0018584011122584343 0.0035432297736406326 0 0 0 0
2705955216 0.12113942205905914 -0.1782509982585907 0.0023085223510861397 0.003807615488767624 0 0 0 0
2709677300 0.10820848494768143 -0.18772614002227783 0.00306767039000988 0.00389070063829422 0 0 0 0
2713399384 0.09668255597352982 -0.1936461329460144 0.004149048589169979 0.0034489454701542854 0 0 0 0
2717121468 0.08458229899406433 -0.19554205238819122 0.005229948088526726 0.002410576678812504 0 0 0 0
2720843552 0.07103057950735092 -0.1974101960659027 0.005778689868748188 0.0012288205325603485 0 0 0 0
2724565636 0.054282426834106445 -0.19537068903446198 0.006007608957588673 -0.00015944615006446838 0 0 0 0
2728287720 0.043185606598854065 -0.18984632194042206 0.005904720164835453 -0.0016359221190214157 0 0 0 0
2732009804 0.02841896191239357 -0.18164779245853424 0.005445479415357113 -0.002936478704214096 0 0 0 0
2735731888 0.01959015056490898 -0.17012299597263336 0.0046943193301558495 -0.004019486717879772 0 0 0 0
2739453972 0.009996220469474792 -0.15944960713386536 0.003783714957535267 -0.004949670284986496 0 0 0 0
2743176056 0.001493997871875763 -0.14553631842136383 0.0026719355955719948 -0.005540500394999981 0 0 0 0
2746898140 -0.0048536499962210655 -0.13030306994915009 0.001673961989581585 -0.005827156826853752 0 0 0 0
2750620224 -0.007927373051643372 -0.11318933963775635 0.0006526019424200058 -0.005955461412668228 0 0 0 0
2754342308 -0.007878255099058151 -0.09606079012155533 -0.0005586268380284309 -0.006239168345928192 0 0 0 0
2758064392 -0.004984015598893166 -0.07775499671697617 -0.001857616938650608 -0.006250125356018543 0 0 0 0
2761786476 0.0021683182567358017 -0.060291774570941925 -0.0032057752832770348 -0.005658130161464214 0 0 0 0
2765508560 0.011161099188029766 -0.0447285994887352 -0.004377506673336029 -0.004588516429066658 0 0 0 0
2769230644 0.02269161120057106 -0.03020281158387661 -0.00499778613448143 -0.0030252179130911827 0 0 0 0
2772952728 0.036442775279283524 -0.016546256840229034 -0.005011920817196369 -0.0016118744388222694 0 0 0 0
2776674812 0.05299907177686691 -0.0040745120495557785 -0.004336852580308914 -0.000597883015871048 0 0 0 0
2780396896 0.07224299013614655 0.005106382071971893 -0.0037757186219096184 1.0244548320770264e-05 0 0 0 0
2784118980 0.09392034262418747 0.009346138685941696 -0.0032454421743750572 0.00013578962534666061 0 0 0 0
2787841064 0.11651331931352615 0.012774555012583733 -0.0031550778076052666 0.0003078849986195564 0 0 0 0
2791563148 0.13981497287750244 0.010645147413015366 -0.002964501269161701 0.0006071086972951889 0 0 0 0
2795285232 0.16230355203151703 0.005075767636299133 -0.0026312991976737976 0.0009282352402806282 0 0 0 0
2799007316 0.18322832882404327 -0.006073057651519775 -0.0026173675432801247 0.0009918976575136185 0 0 0 0
2802729400 0.2028362900018692 -0.019981490448117256 -0.0026567410677671432 0.0011692577973008156 0 0 0 0
2806451484 0.21901804208755493 -0.03699246048927307 -0.0027332473546266556 0.0017484938725829124 0 0 0 0
2810173568 0.23329009115695953 -0.0535612627863884 -0.0024792375043034554 0.0025318702682852745 0 0 0 0
2813895652 0.24524563550949097 -0.07524419575929642 -0.001712452620267868 0.0031466735526919365 0 0 0 0
2817617736 0.2546718120574951 -0.09798368811607361 -0.0009717270731925964 0.003403192386031151 0 0 0 0
2821339820 0.2598550319671631 -0.12220098078250885 -6.90137967467308e-05 0.0036114780232310295 0 0 0 0
2825061904 0.26255545020103455 -0.14568951725959778 0.0007401742041110992 0.003518330864608288 0 0 0 0
2828783988 0.25937846302986145 -0.17082569003105164 0.0017733816057443619 0.003445735201239586 0 0 0 0
2832506072 0.2501582205295563 -0.1972113400697708 0.002699575386941433 0.0028086649253964424 0 0 0 0
2836228156 0.24311314523220062 -0.21853071451187134 0.003214804455637932 0.0020631710067391396 0 0 0 0
2839950240 0.22923824191093445 -0.23921480774879456 0.0035715196281671524 0.001245090737938881 0 0 0 0
2843672324 0.21595486998558044 -0.25889527797698975 0.0037744753062725067 0.00031829532235860825 0 0 0 0
2847394408 0.1966547816991806 -0.27634090185165405 0.003883487544953823 -0.0005582068115472794 0 0 0 0
2851116492 0.17828583717346191 -0.29160717129707336 0.0036510247737169266 -0.001335788518190384 0 0 0 0
2854838576 0.15623830258846283 -0.3029702305793762 0.003309939056634903 -0.002118184231221676 0 0 0 0
2858560660 0.13883152604103088 -0.3119131326675415 0.002876945771276951 -0.002996770665049553 0 0 0 0
2862282744 0.109512560069561 -0.32003912329673767 0.0021281177178025246 -0.0035205641761422157 0 0 0 0
2866004828 0.08978422731161118 -0.32366812229156494 0.0016182176768779755 -0.00365255493670702 0 0 0 0
2869726912 0.06117471307516098 -0.32343679666519165 0.000995974987745285 -0.003785102628171444 0 0 0 0
2873448996 0.03652937710285187 -0.3194558620452881 0.00046501122415065765 -0.003946973942220211 0 0 0 0
2877171080 0.014327362179756165 -0.31283116340637207 -0.00025113578885793686 -0.003900703974068165 0 0 0 0
2880893164 -0.014033868908882141 -0.303909033536911 -0.0010139495134353638 -0.003914663568139076 0 0 0 0
2884615248 -0.031899645924568176 -0.2916722595691681 -0.0016836123540997505 -0.0034158043563365936 0 0 0 0
2888337332 -0.05426840856671333 -0.2753051221370697 -0.002227197401225567 -0.002917904406785965 0 0 0 0
2892059416 -0.07430995255708694 -0.25710612535476685 -0.002606593072414398 -0.0021625813096761703 0 0 0 0
2895781500 -0.08796068280935287 -0.23708228766918182 -0.002718469128012657 -0.001460033468902111 0 0 0 0
2899503584 -0.10203857719898224 -0.21325981616973877 -0.002525193616747856 -0.0008986182510852814 0 0 0 0
2903225668 -0.11287624388933182 -0.18904058635234833 -0.002510334365069866 -0.00030961446464061737 0 0 0 0
2906947752 -0.1212606355547905 -0.16321063041687012 -0.0023575453087687492 0.00014599040150642395 0 0 0 0
2910669836 -0.12449844181537628 -0.13656377792358398 -0.0019838847219944 0.0006447145715355873 0 0 0 0
2914391920 -0.12522189319133759 -0.10976193845272064 -0.0016209883615374565 0.0009141480550169945 0 0 0 0
2918114004 -0.12110872566699982 -0.08398958295583725 -0.0011673392727971077 0.001012999564409256 0 0 0 0
2921836088 -0.11498410254716873 -0.05640965327620506 -0.0009968196973204613 0.000967671163380146 0 0 0 0
2925558172 -0.1041480302810669 -0.03219252824783325 -0.0007228506729006767 0.00127515010535717 0 0 0 0
2929280256 -0.0904032438993454 -0.010519685223698616 -0.0004765493795275688 0.0014535114169120789 0 0 0 0
2933002340 -0.07450376451015472 0.010596390813589096 -0.0001114504411816597 0.001538568176329136 0 0 0 0
2936724424 -0.055981382727622986 0.03031073696911335 0.0003552231937646866 0.0017735231667757034 0 0 0 0
2940446508 -0.03569741174578667 0.046007439494132996 0.0007973695173859596 0.0015496434643864632 0 0 0 0
2944168592 -0.011487720534205437 0.05952067673206329 0.0012026643380522728 0.0013603027909994125 0 0 0 0
2947890676 0.011265557259321213 0.06911876052618027 0.0014419369399547577 0.001147594302892685 0 0 0 0
2951612760 0.036592792719602585 0.07575134932994843 0.0015041995793581009 0.0009897612035274506 0 0 0 0
2955334844 0.06189337372779846 0.07868890464305878 0.0016167834401130676 0.0008424995467066765 0 0 0 0
2959056928 0.08726752549409866 0.07888416945934296 0.001825958490371704 0.0008265646174550056 0 0 0 0
2962779012 0.11085447669029236 0.07783198356628418 0.0022698603570461273 0.0009231623262166977 0 0 0 0
2966501096 0.13649126887321472 0.07121862471103668 0.0028907759115099907 0.0006905701011419296 0 0 0 0
2970223180 0.16176992654800415 0.06403685361146927 0.003223886713385582 -0.00014310888946056366 0 0 0 0
2973945264 0.18503813445568085 0.05184223875403404 0.0033286074176430702 -0.0007326016202569008 0 0 0 0
2977667348 0.20755872130393982 0.03522263467311859 0.003316665068268776 -0.0017778165638446808 0 0 0 0
2981389432 0.22527147829532623 0.019046388566493988 0.002860107459127903 -0.002362726256251335 0 0 0 0
2985111516 0.243524968624115 -0.002110615372657776 0.0021732039749622345 -0.002912086434662342 0 0 0 0
2988833600 0.2574995756149292 -0.02601061761379242 0.001349322497844696 -0.0031572189182043076 0 0 0 0
2992555684 0.26971501111984253 -0.04869051277637482 0.0004851659759879112 -0.0032883966341614723 0 0 0 0
2996277768 0.2772848308086395 -0.07112853974103928 -0.0002450235188007355 -0.002901657484471798 0 0 0 0
2999999852 0.2811654210090637 -0.10030458867549896 -0.000894768163561821 -0.002389499917626381 0 0 0 0
