# HZ S RI R 50
1500000000 -0.10055224597454071 -0.02148916758596897 0.04270115867257118 -0.02592596411705017 0 0 0 0
1503722084 -0.08286414295434952 0.005781840533018112 0.036893799901008606 -0.03195811063051224 0 0 0 0
1507444168 -0.05773935094475746 0.028407655656337738 0.031155619770288467 -0.03641164302825928 0 0 0 0
1511166252 -0.02694917842745781 0.04558078199625015 0.02485622838139534 -0.040302030742168427 0 0 0 0
1514888336 0.004860414192080498 0.057236336171627045 0.018015630543231964 -0.04332819581031799 0 0 0 0
1518610420 0.03855573758482933 0.0644543319940567 0.010908344760537148 -0.04522692412137985 0 0 0 0
1522332504 0.07435768842697144 0.06739725917577744 0.003714130260050297 -0.04665915668010712 0 0 0 0
1526054588 0.11191192269325256 0.06572794169187546 -0.00490795262157917 -0.04689336195588112 0 0 0 0
1529776672 0.1516285091638565 0.058547649532556534 -0.013731535524129868 -0.04458516091108322 0 0 0 0
1533498756 0.1926470398902893 0.04240075498819351 -0.02157995104789734 -0.039649542421102524 0 0 0 0
1537220840 0.23037058115005493 0.01994587853550911 -0.027029503136873245 -0.033664315938949585 0 0 0 0
1540942924 0.2643325626850128 -0.010597363114356995 -0.03090043179690838 -0.026560133323073387 0 0 0 0
1544665008 0.2934468984603882 -0.04726899415254593 -0.03284791484475136 -0.020156700164079666 0 0 0 0
1548387092 0.3158337473869324 -0.0897214412689209 -0.03352389484643936 -0.013743456453084946 0 0 0 0
1552109176 0.3326060175895691 -0.13338419795036316 -0.03301622346043587 -0.008394202217459679 0 0 0 0
1555831260 0.34297817945480347 -0.17982876300811768 -0.0320042222738266 -0.003712357021868229 0 0 0 0
1559553344 0.3478103280067444 -0.2279878854751587 -0.030656415969133377 0.00018605217337608337 0 0 0 0
1563275428 0.34231749176979065 -0.279890775680542 -0.02911193110048771 0.0038885697722434998 0 0 0 0
1566997512 0.3290160298347473 -0.3316084146499634 -0.02748432569205761 0.007203344255685806 0 0 0 0
1570719596 0.31028541922569275 -0.3792301118373871 -0.025527168065309525 0.010266372933983803 0 0 0 0
1574441680 0.2785923480987549 -0.4251827597618103 -0.0233029592782259 0.01269589364528656 0 0 0 0
1578163764 0.24706463515758514 -0.46396923065185547 -0.021268144249916077 0.014805488288402557 0 0 0 0
1581885848 0.20978030562400818 -0.49839919805526733 -0.019462764263153076 0.016868960112333298 0 0 0 0
1585607932 0.16134534776210785 -0.5285477638244629 -0.017400691285729408 0.01920669712126255 0 0 0 0
1589330016 0.11031898856163025 -0.5536205172538757 -0.01471373438835144 0.021389687433838844 0 0 0 0
1593052100 0.05525903403759003 -0.5702142715454102 -0.011814543046057224 0.023259058594703674 0 0 0 0
1596774184 -0.001025879755616188 -0.5784467458724976 -0.008350531570613384 0.025060169398784637 0 0 0 0
1600496268 -0.060730062425136566 -0.5786662697792053 -0.004424525424838066 0.0261381808668375 0 0 0 0
1604218352 -0.11773379892110825 -0.5678794980049133 -0.0006700130179524422 0.02648196741938591 0 0 0 0
1607940436 -0.17430388927459717 -0.549044132232666 0.003481579013168812 0.026273149996995926 0 0 0 0
1611662520 -0.2294415980577469 -0.5236507654190063 0.007447599433362484 0.025615612044930458 0 0 0 0
1615384604 -0.27782464027404785 -0.49246734380722046 0.011220945045351982 0.024482471868395805 0 0 0 0
1619106688 -0.32808420062065125 -0.44769105315208435 0.015249005518853664 0.022473424673080444 0 0 0 0
1622828772 -0.36729755997657776 -0.40043219923973083 0.018949221819639206 0.020057450979948044 0 0 0 0
1626550856 -0.4020683765411377 -0.3458636999130249 0.022309444844722748 0.016846735030412674 0 0 0 0
1630272940 -0.4285283386707306 -0.28326931595802307 0.025055665522813797 0.012765917927026749 0 0 0 0
1633995024 -0.44713956117630005 -0.2196800410747528 0.027406372129917145 0.00833844393491745 0 0 0 0
1637717108 -0.4544837474822998 -0.15334653854370117 0.028789987787604332 0.0033070212230086327 0 0 0 0
1641439192 -0.453205943107605 -0.08556735515594482 0.029227077960968018 -0.002283847890794277 0 0 0 0
1645161276 -0.44082194566726685 -0.013427071273326874 0.028793517500162125 -0.008083730936050415 0 0 0 0
1648883360 -0.4183588922023773 0.05272093042731285 0.0265573188662529 -0.014301388524472713 0 0 0 0
1652605444 -0.3853488862514496 0.1157953068614006 0.02242712676525116 -0.019336696714162827 0 0 0 0
1656327528 -0.34242022037506104 0.17714419960975647 0.017096109688282013 -0.022731373086571693 0 0 0 0
1660049612 -0.2926231622695923 0.22991737723350525 0.012165579944849014 -0.024712858721613884 0 0 0 0
1663771696 -0.2334127575159073 0.2759286165237427 0.007269513793289661 -0.025933781638741493 0 0 0 0
1667493780 -0.16444097459316254 0.3149952292442322 0.0018901685252785683 -0.026526710018515587 0 0 0 0
1671215864 -0.09151105582714081 0.3410152494907379 -0.0035028886049985886 -0.025573696941137314 0 0 0 0
1674937948 -0.011152781546115875 0.3561648428440094 -0.008511671796441078 -0.02314956672489643 0 0 0 0
1678660032 0.0692729726433754 0.358755886554718 -0.012300204485654831 -0.019870474934577942 0 0 0 0
1682382116 0.14907807111740112 0.34883514046669006 -0.015045455656945705 -0.016061730682849884 0 0 0 0
1686104200 0.22787484526634216 0.3254442512989044 -0.01664840430021286 -0.012025890871882439 0 0 0 0
1689826284 0.2992163896560669 0.2921801805496216 -0.01691466011106968 -0.008542811498045921 0 0 0 0
1693548368 0.3686974048614502 0.243186354637146 -0.016915537416934967 -0.005256068892776966 0 0 0 0
1697270452 0.4273860454559326 0.18636967241764069 -0.016703074797987938 -0.002684934064745903 0 0 0 0
1700992536 0.4758080840110779 0.12146635353565216 -0.01637570559978485 -9.577348828315735e-05 0 0 0 0
1704714620 0.5127547383308411 0.04722185432910919 -0.01585269533097744 0.0027704117819666862 0 0 0 0
1708436704 0.5376485586166382 -0.02711983025074005 -0.014421114698052406 0.005670915357768536 0 0 0 0
1712158788 0.5507797598838806 -0.10403978824615479 -0.012175639159977436 0.008089084178209305 0 0 0 0
1715880872 0.5528078675270081 -0.18289129436016083 -0.009468680247664452 0.009437202475965023 0 0 0 0
1719602956 0.5431687235832214 -0.25675153732299805 -0.006723910570144653 0.009947322309017181 0 0 0 0
1723325040 0.5219571590423584 -0.3309835195541382 -0.00450423639267683 0.009636608883738518 0 0 0 0
1727047124 0.49039945006370544 -0.40127474069595337 -0.002663141116499901 0.009054121561348438 0 0 0 0
1730769208 0.447792649269104 -0.46256962418556213 -0.0012661311775445938 0.008025996387004852 0 0 0 0
1734491292 0.3951016962528229 -0.5203216671943665 -0.00029039010405540466 0.006969713605940342 0 0 0 0
1738213376 0.336594820022583 -0.5663667917251587 -3.3738091588020325e-05 0.006184210069477558 0 0 0 0
1741935460 0.2722272574901581 -0.6028926968574524 3.241188824176788e-05 0.005608067847788334 0 0 0 0
1745657544 0.2034652680158615 -0.6293901205062866 -0.0001355055719614029 0.0054122451692819595 0 0 0 0
1749379628 0.1321086287498474 -0.6434453725814819 -0.00012801866978406906 0.005610831081867218 0 0 0 0
1753101712 0.06434580683708191 -0.64714115858078 0.0003180047497153282 0.006155596114695072 0 0 0 0
1756823796 -0.009704068303108215 -0.6407809257507324 0.0014041345566511154 0.0064338380470871925 0 0 0 0
1760545880 -0.07648947089910507 -0.6234519481658936 0.002326248213648796 0.0061133019626140594 0 0 0 0
1764267964 -0.13921912014484406 -0.5946891903877258 0.0032002143561840057 0.005633467808365822 0 0 0 0
1767990048 -0.19995874166488647 -0.5572704076766968 0.004132616333663464 0.005025227554142475 0 0 0 0
1771712132 -0.24902403354644775 -0.5147830843925476 0.004741369746625423 0.004194115288555622 0 0 0 0
1775434216 -0.288449764251709 -0.4648418128490448 0.0050957100465893745 0.0032215341925621033 0 0 0 0
1779156300 -0.3229050934314728 -0.40901729464530945 0.005373000167310238 0.0019402457401156425 0 0 0 0
1782878384 -0.34847307205200195 -0.35087549686431885 0.004776515066623688 0.0005377093330025673 0 0 0 0
1786600468 -0.36490726470947266 -0.2912212908267975 0.0034758588299155235 -0.0001329733058810234 0 0 0 0
1790322552 -0.3734758496284485 -0.227332204580307 0.0022960761561989784 0.0002254936844110489 0 0 0 0
1794044636 -0.36976465582847595 -0.1694873571395874 0.001708080992102623 0.0009310394525527954 0 0 0 0
1797766720 -0.3592996299266815 -0.10604792833328247 0.0015457551926374435 0.0017796102911233902 0 0 0 0
1801488804 -0.34016692638397217 -0.049587346613407135 0.0016538137570023537 0.002824941650032997 0 0 0 0
1805210888 -0.31176018714904785 0.0011492222547531128 0.0024913111701607704 0.004181738011538982 0 0 0 0
1808932972 -0.27487069368362427 0.05262761563062668 0.00414284598082304 0.004920460283756256 0 0 0 0
1812655056 -0.2321445494890213 0.0918530523777008 0.0064532021060585976 0.005072419531643391 0 0 0 0
1816377140 -0.184101402759552 0.1260223686695099 0.008969176560640335 0.004276704043149948 0 0 0 0
1820099224 -0.1321563571691513 0.14938366413116455 0.011349482461810112 0.0022743716835975647 0 0 0 0
1823821308 -0.07757139950990677 0.16406144201755524 0.01267686765640974 -0.0010291272774338722 0 0 0 0
1827543392 -0.023853354156017303 0.16930198669433594 0.012163642793893814 -0.004505679942667484 0 0 0 0
1831265476 0.028541885316371918 0.1668446660041809 0.010786326602101326 -0.006827415898442268 0 0 0 0
1834987560 0.07737892866134644 0.15654636919498444 0.009402284398674965 -0.008445467799901962 0 0 0 0
1838709644 0.1236569806933403 0.13986219465732574 0.008149654604494572 -0.009713258594274521 0 0 0 0
1842431728 0.1654614955186844 0.11848278343677521 0.006955343298614025 -0.011138604953885078 0 0 0 0
1846153812 0.2034524828195572 0.09180158376693726 0.005316152237355709 -0.012372979894280434 0 0 0 0
1849875896 0.23686328530311584 0.0585164949297905 0.0036805840209126472 -0.013595703057944775 0 0 0 0
1853597980 0.2647094130516052 0.020951807498931885 0.0017272597178816795 -0.014705337584018707 0 0 0 0
1857320064 0.28488051891326904 -0.016939058899879456 -0.0006317906081676483 -0.015481187030673027 0 0 0 0
1861042148 0.29840704798698425 -0.060845747590065 -0.003137214109301567 -0.01617710292339325 0 0 0 0
1864764232 0.3037342429161072 -0.10460412502288818 -0.006480365060269833 -0.01645207218825817 0 0 0 0
1868486316 0.3014497756958008 -0.14775854349136353 -0.010072612203657627 -0.015898359939455986 0 0 0 0
1872208400 0.2931436002254486 -0.18658395111560822 -0.013691744767129421 -0.014096071943640709 0 0 0 0
1875930484 0.2776834964752197 -0.2228824943304062 -0.016168363392353058 -0.01074877381324768 0 0 0 0
1879652568 0.25771188735961914 -0.25489622354507446 -0.018045779317617416 -0.008008318953216076 0 0 0 0
1883374652 0.23492813110351562 -0.2817079424858093 -0.019764311611652374 -0.004695948213338852 0 0 0 0
1887096736 0.207006573677063 -0.3037698268890381 -0.020606277510523796 -0.0008386522531509399 0 0 0 0
1890818820 0.17696918547153473 -0.32221609354019165 -0.02020023949444294 0.0025927312672138214 0 0 0 0
1894540904 0.14708665013313293 -0.33383122086524963 -0.020035380497574806 0.005278091877698898 0 0 0 0
1898262988 0.11538596451282501 -0.3396773636341095 -0.020001932978630066 0.00857376866042614 0 0 0 0
1901985072 0.0845433920621872 -0.34130969643592834 -0.019573597237467766 0.012239163741469383 0 0 0 0
1905707156 0.05150516331195831 -0.33792585134506226 -0.017458081245422363 0.01680876687169075 0 0 0 0
1909429240 0.024674192070961 -0.32823696732521057 -0.014563226141035557 0.020683620125055313 0 0 0 0
1913151324 -0.0014059022068977356 -0.314487487077713 -0.01050611399114132 0.02386360988020897 0 0 0 0
1916873408 -0.025115832686424255 -0.29772406816482544 -0.005585247650742531 0.026131322607398033 0 0 0 0
1920595492 -0.04317834973335266 -0.2766560912132263 -0.000368666835129261 0.02716214209794998 0 0 0 0
1924317576 -0.059913456439971924 -0.2530771791934967 0.005256406031548977 0.027254173532128334 0 0 0 0
1928039660 -0.07003335654735565 -0.2275865525007248 0.010985104367136955 0.026532689109444618 0 0 0 0
1931761744 -0.07679174840450287 -0.20206966996192932 0.017682194709777832 0.023630738258361816 0 0 0 0
1935483828 -0.07782816886901855 -0.1763749122619629 0.022685235366225243 0.01876414567232132 0 0 0 0
1939205912 -0.07606256008148193 -0.1512497365474701 0.025240980088710785 0.012736166827380657 0 0 0 0
1942927996 -0.07094015926122665 -0.12493400275707245 0.02637455053627491 0.006537753157317638 0 0 0 0
1946650080 -0.06047619879245758 -0.09974133968353271 0.02606821432709694 0.0010275067761540413 0 0 0 0
1950372164 -0.044460467994213104 -0.07633824646472931 0.024514639750123024 -0.003954385407269001 0 0 0 0
1954094248 -0.0246988907456398 -0.057541586458683014 0.022402916103601456 -0.0077817970886826515 0 0 0 0
1957816332 -0.0014886995777487755 -0.04309193789958954 0.020043136551976204 -0.010797662660479546 0 0 0 0
1961538416 0.02364012971520424 -0.03301979601383209 0.01736532710492611 -0.013168055564165115 0 0 0 0
1965260500 0.05006881803274155 -0.0269188079982996 0.014952782541513443 -0.01497268583625555 0 0 0 0
1968982584 0.07721633464097977 -0.027269622310996056 0.012841621413826942 -0.016880065202713013 0 0 0 0
1972704668 0.10378526151180267 -0.03264273703098297 0.01092524640262127 -0.018879959359765053 0 0 0 0
1976426752 0.12968936562538147 -0.04188790172338486 0.007823247462511063 -0.02138012833893299 0 0 0 0
1980148836 0.15129822492599487 -0.05779092013835907 0.004258926026523113 -0.023372996598482132 0 0 0 0
1983870920 0.17088252305984497 -0.07616475224494934 -0.0005412055179476738 -0.024962173774838448 0 0 0 0
1987593004 0.18455134332180023 -0.09958875179290771 -0.0061882492154836655 -0.025054585188627243 0 0 0 0
1991315088 0.19489379227161407 -0.12211250513792038 -0.011922745034098625 -0.023381246253848076 0 0 0 0
1995037172 0.19951093196868896 -0.14786295592784882 -0.0168085228651762 -0.019872451201081276 0 0 0 0
1998759256 0.20205003023147583 -0.17227721214294434 -0.02005091682076454 -0.015867890790104866 0 0 0 0
2002481340 0.1970513015985489 -0.19832435250282288 -0.022013619542121887 -0.01150940265506506 0 0 0 0
2006203424 0.19009214639663696 -0.2207089513540268 -0.02347531169652939 -0.007288704626262188 0 0 0 0
2009925508 0.1775689423084259 -0.24388790130615234 -0.0241459421813488 -0.0029801204800605774 0 0 0 0
2013647592 0.1594877541065216 -0.2644224464893341 -0.024271350353956223 0.0013889484107494354 0 0 0 0
2017369676 0.14201341569423676 -0.27885329723358154 -0.02364477515220642 0.005353383719921112 0 0 0 0
2021091760 0.11728614568710327 -0.2931472063064575 -0.022156719118356705 0.00984172709286213 0 0 0 0
2024813844 0.09390143305063248 -0.3006291389465332 -0.0197700597345829 0.013359863311052322 0 0 0 0
2028535928 0.06628011167049408 -0.30498844385147095 -0.01738075725734234 0.0163535438477993 0 0 0 0
2032258012 0.04234008491039276 -0.30335310101509094 -0.015050800517201424 0.018472768366336823 0 0 0 0
2035980096 0.01435384526848793 -0.2974143922328949 -0.011923372745513916 0.02117234282195568 0 0 0 0
2039702180 -0.010310590267181396 -0.287723571062088 -0.008195784874260426 0.023884151130914688 0 0 0 0
2043424264 -0.03221946954727173 -0.2732483148574829 -0.0030180346220731735 0.02556578442454338 0 0 0 0
2047146348 -0.0535476878285408 -0.2553662359714508 0.0024020159617066383 0.025443611666560173 0 0 0 0
2050868432 -0.06873171031475067 -0.23542417585849762 0.007100899703800678 0.023996999487280846 0 0 0 0
2054590516 -0.08450654149055481 -0.2108662724494934 0.01140504889190197 0.021366244181990623 0 0 0 0
2058312600 -0.09458191692829132 -0.1840386539697647 0.01493341289460659 0.01820303127169609 0 0 0 0
2062034684 -0.09992554783821106 -0.15724247694015503 0.016868872568011284 0.014982961118221283 0 0 0 0
2065756768 -0.10212283581495285 -0.12843330204486847 0.018014857545495033 0.011466539464890957 0 0 0 0
2069478852 -0.09992873668670654 -0.09848038852214813 0.019245008006691933 0.008489346131682396 0 0 0 0
2073200936 -0.09294133633375168 -0.06914124637842178 0.020146748051047325 0.005328520201146603 0 0 0 0
2076923020 -0.0817987397313118 -0.03876145929098129 0.020675966516137123 0.0017642639577388763 0 0 0 0
2080645104 -0.06492960453033447 -0.011057606898248196 0.020532114431262016 -0.0018543684855103493 0 0 0 0
2084367188 -0.0434163473546505 0.013669939711689949 0.0197502002120018 -0.0051787057891488075 0 0 0 0
2088089272 -0.016383826732635498 0.035686641931533813 0.018484702333807945 -0.008376168087124825 0 0 0 0
2091811356 0.014021738432347775 0.05305840075016022 0.016486283391714096 -0.011306424625217915 0 0 0 0
2095533440 0.04806644469499588 0.06448709964752197 0.013930480927228928 -0.014060679823160172 0 0 0 0
2099255524 0.08456186950206757 0.06961940973997116 0.010666889138519764 -0.016049571335315704 0 0 0 0
2102977608 0.12076374888420105 0.068326935172081 0.0073121823370456696 -0.01706010475754738 0 0 0 0
2106699692 0.15680791437625885 0.06147359311580658 0.004785097204148769 -0.01766830123960972 0 0 0 0
2110421776 0.19108028709888458 0.04723573476076126 0.0017488691955804825 -0.01812811754643917 0 0 0 0
2114143860 0.2220117300748825 0.027363814413547516 -0.001555965282022953 -0.01832643151283264 0 0 0 0
2117865944 0.24793292582035065 0.0020898692309856415 -0.004820231348276138 -0.017779354006052017 0 0 0 0
2121588028 0.2679067850112915 -0.02489735186100006 -0.008072929456830025 -0.016268964856863022 0 0 0 0
2125310112 0.28521987795829773 -0.05382958799600601 -0.010422984138131142 -0.014284455217421055 0 0 0 0
2129032196 0.2964758574962616 -0.0862685814499855 -0.012923171743750572 -0.012081291526556015 0 0 0 0
2132754280 0.30268287658691406 -0.11915022134780884 -0.015135969035327435 -0.009675650857388973 0 0 0 0
2136476364 0.30367258191108704 -0.1521824300289154 -0.016999367624521255 -0.006367075257003307 0 0 0 0
2140198448 0.2982293367385864 -0.1867559850215912 -0.01767820678651333 -0.0018247216939926147 0 0 0 0
2143920532 0.2907339334487915 -0.21586020290851593 -0.016390936449170113 0.0022814199328422546 0 0 0 0
2147642616 0.2767983078956604 -0.24504873156547546 -0.014029605314135551 0.004985579289495945 0 0 0 0
2151364700 0.25632259249687195 -0.2739682197570801 -0.011865033768117428 0.0064012836664915085 0 0 0 0
2155086784 0.2358960509300232 -0.2950540781021118 -0.009976187720894814 0.007118581794202328 0 0 0 0
2158808868 0.20855431258678436 -0.3124394416809082 -0.008385686203837395 0.007566608488559723 0 0 0 0
2162530952 0.18308529257774353 -0.32641488313674927 -0.007790609262883663 0.007868004962801933 0 0 0 0
2166253036 0.15475156903266907 -0.3341798782348633 -0.007081222720444202 0.008752669207751751 0 0 0 0
2169975120 0.1247885674238205 -0.3401777744293213 -0.006042933091521263 0.010055347345769405 0 0 0 0
2173697204 0.09455970674753189 -0.3407316505908966 -0.003960194066166878 0.010898500680923462 0 0 0 0
2177419288 0.06291060149669647 -0.3376927375793457 -0.0021718041971325874 0.011041992343962193 0 0 0 0
2181141372 0.03613068908452988 -0.3272955119609833 -0.0007553594186902046 0.01093737967312336 0 0 0 0
2184863456 0.008121252059936523 -0.31548401713371277 0.000620158389210701 0.010824466124176979 0 0 0 0
2188585540 -0.01320028305053711 -0.2993583679199219 0.0018724817782640457 0.010802761651575565 0 0 0 0
2192307624 -0.03660881519317627 -0.279360294342041 0.003535134717822075 0.010824820026755333 0 0 0 0
2196029708 -0.05309504270553589 -0.2568442225456238 0.005566218867897987 0.010683154687285423 0 0 0 0
2199751792 -0.06898180395364761 -0.2301047444343567 0.007999669760465622 0.009364300407469273 0 0 0 0
2203473876 -0.08174238353967667 -0.20070430636405945 0.010084733366966248 0.006975275464355946 0 0 0 0
2207195960 -0.08568475395441055 -0.17127493023872375 0.01062881387770176 0.0045598894357681274 0 0 0 0
2210918044 -0.08694301545619965 -0.13852480053901672 0.010648703202605247 0.002104845829308033 0 0 0 0
2214640128 -0.08039543777704239 -0.10851651430130005 0.01023208349943161 0.0003544166684150696 0 0 0 0
2218362212 -0.07085315883159637 -0.0779978409409523 0.009769672527909279 -0.0013234885409474373 0 0 0 0
2222084296 -0.05482003837823868 -0.050896503031253815 0.008835464715957642 -0.0033055543899536133 0 0 0 0
2225806380 -0.03480161353945732 -0.026000602170825005 0.007158228196203709 -0.004806688986718655 0 0 0 0
2229528464 -0.009621593169867992 -0.006236986257135868 0.005347571335732937 -0.005690352059900761 0 0 0 0
2233250548 0.01805083453655243 0.0076698604971170425 0.0035819197073578835 -0.005662249401211739 0 0 0 0
2236972632 0.04641750454902649 0.016445394605398178 0.002300778403878212 -0.0049229832366108894 0 0 0 0
2240694716 0.07482542842626572 0.020426053553819656 0.0015877056866884232 -0.00401022844016552 0 0 0 0
2244416800 0.10322680324316025 0.019731096923351288 0.0018333140760660172 -0.0032223528251051903 0 0 0 0
2248138884 0.1315266638994217 0.017546385526657104 0.0023848582059144974 -0.003276054747402668 0 0 0 0
2251860968 0.1590448021888733 0.008106514811515808 0.0027013039216399193 -0.003922909498214722 0 0 0 0
2255583052 0.1851598173379898 -0.007366277277469635 0.0025039706379175186 -0.0047532739117741585 0 0 0 0
2259305136 0.20750871300697327 -0.027981705963611603 0.0019208826124668121 -0.005665330216288567 0 0 0 0
2263027220 0.22471946477890015 -0.051902398467063904 0.0013899505138397217 -0.0063854241743683815 0 0 0 0
2266749304 0.23824498057365417 -0.07535485178232193 0.00041387323290109634 -0.0071403393521904945 0 0 0 0
2270471388 0.24693460762500763 -0.10167467594146729 -0.0007569016888737679 -0.007649000734090805 0 0 0 0
2274193472 0.2467767596244812 -0.13415199518203735 -0.0021503660827875137 -0.007735017687082291 0 0 0 0
2277915556 0.24471333622932434 -0.15856942534446716 -0.0034102825447916985 -0.007550301030278206 0 0 0 0
2281637640 0.23599475622177124 -0.184579536318779 -0.004796351306140423 -0.007398014888167381 0 0 0 0
2285359724 0.22138051688671112 -0.20720413327217102 -0.005897252820432186 -0.0069334739819169044 0 0 0 0
2289081808 0.20869901776313782 -0.22450610995292664 -0.007389454171061516 -0.006342940963804722 0 0 0 0
2292803892 0.18756693601608276 -0.24247169494628906 -0.008543172851204872 -0.00551131647080183 0 0 0 0
2296525976 0.16744408011436462 -0.25309666991233826 -0.009777337312698364 -0.004343937151134014 0 0 0 0
2300248060 0.15006518363952637 -0.2601258158683777 -0.010928037576377392 -0.0030305879190564156 0 0 0 0
2303970144 0.12838569283485413 -0.2691895663738251 -0.011701656505465508 -0.0012143505737185478 0 0 0 0
2307692228 0.10574258118867874 -0.2682262659072876 -0.012002645060420036 0.0009359885007143021 0 0 0 0
2311414312 0.08318690210580826 -0.2672799229621887 -0.011632859706878662 0.00299201812595129 0 0 0 0
2315136396 0.05468006804585457 -0.26230284571647644 -0.010666863061487675 0.004973561502993107 0 0 0 0
2318858480 0.032404690980911255 -0.2536541819572449 -0.009667407721281052 0.006272880360484123 0 0 0 0
2322580564 0.0162806436419487 -0.23797732591629028 -0.008735580369830132 0.007227259688079357 0 0 0 0
2326302648 -0.008080810308456421 -0.21945133805274963 -0.007707591168582439 0.008176195435225964 0 0 0 0
2330024732 -0.019993580877780914 -0.19890031218528748 -0.006543421186506748 0.008942605927586555 0 0 0 0
2333746816 -0.02804909646511078 -0.17606040835380554 -0.005666153505444527 0.009459428489208221 0 0 0 0
2337468900 -0.03662491217255592 -0.15027543902397156 -0.004789696075022221 0.010082961060106754 0 0 0 0
2341190984 -0.039455920457839966 -0.12360120564699173 -0.003584137186408043 0.011004487052559853 0 0 0 0
2344913068 -0.036267347633838654 -0.09689129889011383 -0.0019698813557624817 0.011765386909246445 0 0 0 0
2348635152 -0.02969825081527233 -0.07027401775121689 -0.00013916660100221634 0.011853859759867191 0 0 0 0
2352357236 -0.01710629276931286 -0.045915715396404266 0.0015609264373779297 0.011681160889565945 0 0 0 0
2356079320 -0.000620218925178051 -0.023011881858110428 0.003440968692302704 0.0110973184928298 0 0 0 0
2359801404 0.019786639139056206 -0.003599582239985466 0.004865813069045544 0.010556229390203953 0 0 0 0
2363523488 0.04342569783329964 0.012363112531602383 0.006514973938465118 0.009553428739309311 0 0 0 0
2367245572 0.06949077546596527 0.024523716419935226 0.007846148684620857 0.00827346183359623 0 0 0 0
2370967656 0.09712423384189606 0.03362368792295456 0.008985692635178566 0.006867297925055027 0 0 0 0
2374689740 0.1274329423904419 0.036139730364084244 0.009868312627077103 0.004622112028300762 0 0 0 0
2378411824 0.15830276906490326 0.0347355455160141 0.009969789534807205 0.0025242483243346214 0 0 0 0
2382133908 0.19017748534679413 0.027262739837169647 0.009245507419109344 0.0006959009915590286 0 0 0 0
2385855992 0.21974095702171326 0.009966671466827393 0.008520296774804592 -0.0009830845519900322 0 0 0 0
2389578076 0.24446594715118408 -0.007644489407539368 0.007629287429153919 -0.0017676111310720444 0 0 0 0
2393300160 0.26710259914398193 -0.033265121281147 0.006480427458882332 -0.002356363460421562 0 0 0 0
2397022244 0.2816271185874939 -0.06180986762046814 0.005939316935837269 -0.0025523072108626366 0 0 0 0
2400744328 0.29378384351730347 -0.09280601143836975 0.005743216723203659 -0.0030127987265586853 0 0 0 0
2404466412 0.29894760251045227 -0.12169479578733444 0.005616961047053337 -0.003919318318367004 0 0 0 0
2408188496 0.2979920506477356 -0.15234005451202393 0.004839807748794556 -0.00487866997718811 0 0 0 0
2411910580 0.29517272114753723 -0.1825011521577835 0.0039597805589437485 -0.005634947679936886 0 0 0 0
2415632664 0.2826264798641205 -0.20903685688972473 0.003001010976731777 -0.006169602274894714 0 0 0 0
2419354748 0.2694876194000244 -0.2342720478773117 0.0016044043004512787 -0.0066860634833574295 0 0 0 0
2423076832 0.2543864846229553 -0.2574462592601776 6.444007158279419e-05 -0.006887952797114849 0 0 0 0
2426798916 0.23564770817756653 -0.27608102560043335 -0.0012982385233044624 -0.006438296288251877 0 0 0 0
2430521000 0.21774333715438843 -0.2922656834125519 -0.0024193720892071724 -0.0056283362209796906 0 0 0 0
2434243084 0.19290034472942352 -0.30978989601135254 -0.0031641582027077675 -0.004733702167868614 0 0 0 0
2437965168 0.16777531802654266 -0.3207606375217438 -0.003678683191537857 -0.0038041146472096443 0 0 0 0
2441687252 0.14155802130699158 -0.3288148045539856 -0.003956694155931473 -0.002702586352825165 0 0 0 0
2445409336 0.11012083292007446 -0.3333529531955719 -0.0036598173901438713 -0.0016206856817007065 0 0 0 0
2449131420 0.07971007376909256 -0.3317866325378418 -0.0029920311644673347 -0.0011107809841632843 0 0 0 0
2452853504 0.05112725496292114 -0.32588133215904236 -0.0024975482374429703 -0.0008040592074394226 0 0 0 0
2456575588 0.023095697164535522 -0.31577223539352417 -0.0022477349266409874 -0.0010371040552854538 0 0 0 0
2460297672 -0.005703061819076538 -0.300455242395401 -0.001979157328605652 -0.00103694386780262 0 0 0 0
2464019756 -0.029093176126480103 -0.2793116271495819 -0.0018418887630105019 -0.0013277996331453323 0 0 0 0
2467741840 -0.04952223598957062 -0.2554224133491516 -0.001859080046415329 -0.0015991786494851112 0 0 0 0
2471463924 -0.06453743577003479 -0.22925302386283875 -0.0020597800612449646 -0.001962536945939064 0 0 0 0
2475186008 -0.07354386895895004 -0.20240294933319092 -0.002386992797255516 -0.0019438909366726875 0 0 0 0
2478908092 -0.07939416170120239 -0.17305907607078552 -0.0029389802366495132 -0.0020861895754933357 0 0 0 0
2482630176 -0.08082196861505508 -0.1444660723209381 -0.0035744793713092804 -0.001977444626390934 0 0 0 0
2486352260 -0.07828177511692047 -0.11678959429264069 -0.0039505185559391975 -0.0016723554581403732 0 0 0 0
2490074344 -0.07225717604160309 -0.09013430029153824 -0.004349799826741219 -0.0012460099533200264 0 0 0 0
2493796428 -0.06268499046564102 -0.06556262820959091 -0.0045633865520358086 -0.0008896868675947189 0 0 0 0
2497518512 -0.05062152445316315 -0.041594941169023514 -0.004874101839959621 -0.0005133701488375664 0 0 0 0
2501240596 -0.03533472865819931 -0.020560743287205696 -0.004951332695782185 -1.5245750546455383e-06 0 0 0 0
2504962680 -0.016787240281701088 -0.00074775330722332 -0.005209421738982201 0.00021235737949609756 0 0 0 0
2508684764 0.005525321699678898 0.016853997483849525 -0.0055714817717671394 0.0006721299141645432 0 0 0 0
2512406848 0.030183354392647743 0.03062913566827774 -0.006005287170410156 0.0013825511559844017 0 0 0 0
2516128932 0.056687913835048676 0.04009827971458435 -0.006635366939008236 0.0021842634305357933 0 0 0 0
2519851016 0.08466760814189911 0.04550737515091896 -0.006983553059399128 0.0035316338762640953 0 0 0 0
2523573100 0.11312981694936752 0.044740378856658936 -0.006693826988339424 0.005432663485407829 0 0 0 0
2527295184 0.1407776027917862 0.038802728056907654 -0.005532300099730492 0.006745815277099609 0 0 0 0
2531017268 0.1649961918592453 0.028826028108596802 -0.00433243066072464 0.007668538950383663 0 0 0 0
2534739352 0.1868644803762436 0.015489839017391205 -0.0030886363238096237 0.008442076854407787 0 0 0 0
2538461436 0.20582014322280884 -0.0007342575117945671 -0.0015720557421445847 0.00910700298845768 0 0 0 0
2542183520 0.2220245599746704 -0.016251761466264725 0.00013461336493492126 0.009072305634617805 0 0 0 0
2545905604 0.2357625961303711 -0.03541097044944763 0.0018195873126387596 0.008670738898217678 0 0 0 0
2549627688 0.24581806361675262 -0.05841971933841705 0.003035246394574642 0.008144439198076725 0 0 0 0
2553349772 0.25340014696121216 -0.0798225924372673 0.0040555549785494804 0.007625195197761059 0 0 0 0
2557071856 0.2568766474723816 -0.10159570723772049 0.005125335417687893 0.007048199884593487 0 0 0 0
2560793940 0.2571119964122772 -0.11894598603248596 0.006026524119079113 0.006134398281574249 0 0 0 0
2564516024 0.25444620847702026 -0.140119731426239 0.006951233372092247 0.005248979665338993 0 0 0 0
2568238108 0.24938954412937164 -0.16083742678165436 0.007938658818602562 0.004479202441871166 0 0 0 0
2571960192 0.24413442611694336 -0.17693890631198883 0.008702431805431843 0.0032632537186145782 0 0 0 0
2575682276 0.2363462746143341 -0.19408100843429565 0.009557440876960754 0.0020808447152376175 0 0 0 0
2579404360 0.2246299684047699 -0.21083220839500427 0.010309770703315735 0.00046071503311395645 0 0 0 0
2583126444 0.2110539823770523 -0.22546666860580444 0.010847846046090126 -0.0017638308927416801 0 0 0 0
2586848528 0.19156405329704285 -0.23830346763134003 0.01060569565743208 -0.004001440480351448 0 0 0 0
2590570612 0.17693540453910828 -0.24583767354488373 0.00995633378624916 -0.006212572567164898 0 0 0 0
2594292696 0.15928062796592712 -0.25207337737083435 0.008797082118690014 -0.008306782692670822 0 0 0 0
2598014780 0.1425616443157196 -0.25578516721725464 0.007153778336942196 -0.010185097344219685 0 0 0 0
2601736864 0.1270219385623932 -0.25325214862823486 0.00498915184289217 -0.011385342106223106 0 0 0 0
2605458948 0.1088244765996933 -0.2531501054763794 0.002497582696378231 -0.012127255089581013 0 0 0 0
2609181032 0.0932576060295105 -0.25001639127731323 0.00023897644132375717 -0.012115218676626682 0 0 0 0
2612903116 0.07762012630701065 -0.24454252421855927 -0.00206608884036541 -0.011903718113899231 0 0 0 0
2616625200 0.06526454538106918 -0.23579294979572296 -0.003929673694074154 -0.011018422432243824 0 0 0 0
2620347284 0.05236791446805 -0.22638648748397827 -0.005542999133467674 -0.009705730713903904 0 0 0 0
2624069368 0.039678387343883514 -0.21623221039772034 -0.006350528448820114 -0.008616065606474876 0 0 0 0
2627791452 0.03353476524353027 -0.2023758888244629 -0.0069563379511237144 -0.007562143728137016 0 0 0 0
2631513536 0.02692793682217598 -0.1883494108915329 -0.0075864028185606 -0.0067628733813762665 0 0 0 0
2635235620 0.022044211626052856 -0.1732064038515091 -0.008482782170176506 -0.006081287749111652 0 0 0 0
2638957704 0.02017982304096222 -0.15871796011924744 -0.009308287873864174 -0.005309974774718285 0 0 0 0
2642679788 0.022001687437295914 -0.14477308094501495 -0.010739115998148918 -0.004304990172386169 0 0 0 0
2646401872 0.02512962371110916 -0.1318013072013855 -0.011682292446494102 -0.0023899981752038 0 0 0 0
2650123956 0.02973814122378826 -0.1192636787891388 -0.012209550477564335 -0.0002552522346377373 0 0 0 0
2653846040 0.03685514256358147 -0.10853642970323563 -0.01219024509191513 0.001711178570985794 0 0 0 0
2657568124 0.04661436751484871 -0.0988718569278717 -0.011987010017037392 0.003937671892344952 0 0 0 0
2661290208 0.05866538733243942 -0.09199639409780502 -0.011268998496234417 0.006280979141592979 0 0 0 0
2665012292 0.07050513476133347 -0.08852352946996689 -0.00970586109906435 0.008280357345938683 0 0 0 0
2668734376 0.08292562514543533 -0.08584059774875641 -0.007775674574077129 0.009884200058877468 0 0 0 0
2672456460 0.09497997164726257 -0.08668366819620132 -0.0055492836982011795 0.011116307228803635 0 0 0 0
2676178544 0.10601582378149033 -0.09038315713405609 -0.003225766122341156 0.011456414125859737 0 0 0 0
2679900628 0.11753510683774948 -0.09493885934352875 -0.0008314559236168861 0.011369645595550537 0 0 0 0
2683622712 0.12728068232536316 -0.10247037559747696 0.0013050679117441177 0.010882356204092503 0 0 0 0
2687344796 0.13431666791439056 -0.11217151582241058 0.0032116295769810677 0.010007382370531559 0 0 0 0
2691066880 0.1391466110944748 -0.12474258244037628 0.004853346385061741 0.00891602598130703 0 0 0 0
2694788964 0.1413814276456833 -0.13719801604747772 0.006123960018157959 0.007651171647012234 0 0 0 0
2698511048 0.13936582207679749 -0.15032444894313812 0.007232998497784138 0.00611267052590847 0 0 0 0
2702233132 0.13542568683624268 -0.1639837920665741 0.008033538237214088 0.004529797472059727 0 0 0 0
2705955216 0.12896129488945007 -0.1742958277463913 0.008418877609074116 0.0029709618538618088 0 0 0 0
2709677300 0.1165233850479126 -0.1865062117576599 0.008615119382739067 0.0012431824579834938 0 0 0 0
2713399384 0.1061709076166153 -0.19279421865940094 0.008566100150346756 -2.8302893042564392e-05 0 0 0 0
2717121468 0.09257005900144577 -0.1969386339187622 0.008530355989933014 -0.0014612982049584389 0 0 0 0
2720843552 0.0793638527393341 -0.1995389759540558 0.008180543780326843 -0.003284522332251072 0 0 0 0
2724565636 0.0618305504322052 -0.20001649856567383 0.007387335412204266 -0.005042559467256069 0 0 0 0
2728287720 0.04781656712293625 -0.19510510563850403 0.006073850207030773 -0.006254685111343861 0 0 0 0
2732009804 0.03338628262281418 -0.18855616450309753 0.004540495574474335 -0.00712325144559145 0 0 0 0
2735731888 0.01949453353881836 -0.17848888039588928 0.0032234014943242073 -0.007644594646990299 0 0 0 0
2739453972 0.010953070595860481 -0.1656876504421234 0.0020889006555080414 -0.00796964019536972 0 0 0 0
2743176056 0.0007662102580070496 -0.15170879662036896 0.0008503822609782219 -0.008382163010537624 0 0 0 0
2746898140 -0.006257440894842148 -0.13614106178283691 -0.0005635777488350868 -0.008862476795911789 0 0 0 0
2750620224 -0.011060960590839386 -0.11921566724777222 -0.002447952516376972 -0.009226785972714424 0 0 0 0
2754342308 -0.0118197500705719 -0.1009688451886177 -0.004758430644869804 -0.008683045394718647 0 0 0 0
2758064392 -0.010442834347486496 -0.08169026672840118 -0.006490929983556271 -0.007393848150968552 0 0 0 0
2761786476 -0.003810698166489601 -0.06299446523189545 -0.008100945502519608 -0.005614686757326126 0 0 0 0
2765508560 0.004669309593737125 -0.04524846374988556 -0.008992657996714115 -0.0035315994173288345 0 0 0 0
2769230644 0.016116390004754066 -0.02874559909105301 -0.009389491751790047 -0.0013728570193052292 0 0 0 0
2772952728 0.030861714854836464 -0.0140535281971097 -0.009163662791252136 0.0007231440395116806 0 0 0 0
2776674812 0.047402940690517426 -0.0014622248709201813 -0.008584133349359035 0.0027889180928468704 0 0 0 0
2780396896 0.06662645190954208 0.00886601209640503 -0.007425869815051556 0.0046357763931155205 0 0 0 0
2784118980 0.08863840252161026 0.017103226855397224 -0.005919492803514004 0.006055418401956558 0 0 0 0
2787841064 0.11270696669816971 0.020092230290174484 -0.004034273326396942 0.007132996805012226 0 0 0 0
2791563148 0.13833265006542206 0.01978185400366783 -0.00198410265147686 0.007532545365393162 0 0 0 0
2795285232 0.16262415051460266 0.014984462410211563 1.4407560229301453e-05 0.007394279353320599 0 0 0 0
2799007316 0.18753571808338165 0.004324743524193764 0.0019169524312019348 0.006773116998374462 0 0 0 0
2802729400 0.2091880440711975 -0.010713029652833939 0.0033299997448921204 0.005598761141300201 0 0 0 0
2806451484 0.22819474339485168 -0.029130760580301285 0.004163390025496483 0.004102596081793308 0 0 0 0
2810173568 0.2433888167142868 -0.04753262177109718 0.004362966865301132 0.0030280444771051407 0 0 0 0
2813895652 0.2582714259624481 -0.07162771373987198 0.0046852147206664085 0.0021885009482502937 0 0 0 0
2817617736 0.26701799035072327 -0.09609932452440262 0.004954383708536625 0.0012037726119160652 0 0 0 0
2821339820 0.2729185223579407 -0.12278919667005539 0.005079671740531921 7.892120629549026e-05 0 0 0 0
2825061904 0.2739497423171997 -0.15133574604988098 0.004804826341569424 -0.0009517902508378029 0 0 0 0
2828783988 0.2721596360206604 -0.17775315046310425 0.004384947940707207 -0.0017229625955224037 0 0 0 0
2832506072 0.26697415113449097 -0.20412203669548035 0.003985496237874031 -0.0022296207025647163 0 0 0 0
2836228156 0.25324222445487976 -0.23195958137512207 0.003610474057495594 -0.0028026532381772995 0 0 0 0
2839950240 0.23691408336162567 -0.2588803172111511 0.0031773122027516365 -0.0031910398975014687 0 0 0 0
2843672324 0.21780747175216675 -0.27674442529678345 0.00296703539788723 -0.003546229563653469 0 0 0 0
2847394408 0.19712550938129425 -0.2927171587944031 0.002592627890408039 -0.004266481846570969 0 0 0 0
2851116492 0.1729160100221634 -0.3084627389907837 0.0018551088869571686 -0.004949626512825489 0 0 0 0
2854838576 0.14979693293571472 -0.31852179765701294 0.0009459629654884338 -0.005330150946974754 0 0 0 0
2858560660 0.1258040964603424 -0.32645368576049805 0.0002435576170682907 -0.005950349383056164 0 0 0 0
2862282744 0.09423737227916718 -0.33307769894599915 -0.0009578140452504158 -0.005837436765432358 0 0 0 0
2866004828 0.07212582230567932 -0.33032476902008057 -0.0018662894144654274 -0.00556783564388752 0 0 0 0
2869726912 0.046534255146980286 -0.3287801146507263 -0.0027306796982884407 -0.0051171742379665375 0 0 0 0
2873448996 0.019934318959712982 -0.3219221234321594 -0.003307802602648735 -0.0045314449816942215 0 0 0 0
2877171080 -0.009722596034407616 -0.3137722909450531 -0.00400693342089653 -0.0038831597194075584 0 0 0 0
2880893164 -0.030607402324676514 -0.3021542727947235 -0.004600530490279198 -0.0030901767313480377 0 0 0 0
2884615248 -0.05049259215593338 -0.28664451837539673 -0.004887871444225311 -0.0024503981694579124 0 0 0 0
2888337332 -0.07345376908779144 -0.2672111392021179 -0.005357666872441769 -0.0014214487746357918 0 0 0 0
2892059416 -0.09139090776443481 -0.245430126786232 -0.005394794046878815 -0.0003226418048143387 0 0 0 0
2895781500 -0.10580480098724365 -0.22074250876903534 -0.005196956917643547 0.0008389418944716454 0 0 0 0
2899503584 -0.11373870819807053 -0.19546186923980713 -0.004769883118569851 0.0016177156940102577 0 0 0 0
2903225668 -0.12372133880853653 -0.16692936420440674 -0.004258307628333569 0.0025881510227918625 0 0 0 0
2906947752 -0.1272972673177719 -0.1382744312286377 -0.0037917178124189377 0.003470483236014843 0 0 0 0
2910669836 -0.12440364062786102 -0.11151166260242462 -0.002688329666852951 0.004328293725848198 0 0 0 0
2914391920 -0.11905371397733688 -0.08395891636610031 -0.0015002423897385597 0.0047841621562838554 0 0 0 0
2918114004 -0.10990402102470398 -0.06063520163297653 -0.00023542065173387527 0.004948290064930916 0 0 0 0
2921836088 -0.09834181517362595 -0.03898685798048973 0.0009121010079979897 0.004468816332519054 0 0 0 0
2925558172 -0.08525188267230988 -0.018082233145833015 0.0017961608245968819 0.0038608508184552193 0 0 0 0
2929280256 -0.06977398693561554 0.001190129667520523 0.002118205651640892 0.0032707247883081436 0 0 0 0
2933002340 -0.05269133672118187 0.017268642783164978 0.0024834442883729935 0.002883818931877613 0 0 0 0
2936724424 -0.033181674778461456 0.031996212899684906 0.002961895428597927 0.0025435471907258034 0 0 0 0
2940446508 -0.01312353927642107 0.04293452203273773 0.003323170356452465 0.0020491918548941612 0 0 0 0
2944168592 0.007770054042339325 0.051852717995643616 0.00354979932308197 0.0014343997463583946 0 0 0 0
2947890676 0.029502609744668007 0.05836358666419983 0.003726063296198845 0.0010318253189325333 0 0 0 0
2951612760 0.05164121463894844 0.06336155533790588 0.0037374747917056084 0.0008181994780898094 0 0 0 0
2955334844 0.07395726442337036 0.0649099349975586 0.004236272536218166 0.00046279747039079666 0 0 0 0
2959056928 0.09712828695774078 0.06465759128332138 0.0045826127752661705 -4.7225505113601685e-05 0 0 0 0
2962779012 0.11971382796764374 0.06031772121787071 0.0048742108047008514 -0.0007802760228514671 0 0 0 0
2966501096 0.14215461909770966 0.052958279848098755 0.005197232589125633 -0.001958216540515423 0 0 0 0
2970223180 0.16259567439556122 0.0464932918548584 0.004968360997736454 -0.0032245302572846413 0 0 0 0
2973945264 0.18247905373573303 0.0314614474773407 0.004087654873728752 -0.004338238388299942 0 0 0 0
2977667348 0.2005431354045868 0.018604613840579987 0.003119821660220623 -0.005113087594509125 0 0 0 0
2981389432 0.2159019112586975 0.0021423520520329475 0.0019066762179136276 -0.005615198984742165 0 0 0 0
2985111516 0.23017415404319763 -0.014743760228157043 0.00045030005276203156 -0.005743520334362984 0 0 0 0
2988833600 0.24031662940979004 -0.037172917276620865 -0.0008246777579188347 -0.005313263274729252 0 0 0 0
2992555684 0.2488328218460083 -0.05761398747563362 -0.0018316367641091347 -0.0046602943912148476 0 0 0 0
2996277768 0.2544141411781311 -0.07761736959218979 -0.0025657955557107925 -0.00391550175845623 0 0 0 0
2999999852 0.2574286460876465 -0.10112912952899933 -0.0031399372965097427 -0.0028328625485301018 0 0 0 0
