# HZ S RI R 50
1500000000 -0.08830836415290833 -0.07313476502895355 0.03472236916422844 -0.025439709424972534 0 0 0 0
1503722084 -0.08450116217136383 -0.05079684406518936 0.03039761260151863 -0.029528070241212845 0 0 0 0
1507444168 -0.07480178773403168 -0.026217371225357056 0.026339668780565262 -0.033642809838056564 0 0 0 0
1511166252 -0.0590641126036644 -0.0015360955148935318 0.021006911993026733 -0.03824128583073616 0 0 0 0
1514888336 -0.036720335483551025 0.021937238052487373 0.014046717435121536 -0.04234831780195236 0 0 0 0
1518610420 -0.007828161120414734 0.041885945945978165 0.005796611309051514 -0.04466291517019272 0 0 0 0
1522332504 0.02653716690838337 0.05666632950305939 -0.0035722050815820694 -0.04445985332131386 0 0 0 0
1526054588 0.06505384296178818 0.06576965749263763 -0.01255081221461296 -0.04138457402586937 0 0 0 0
1529776672 0.10736174136400223 0.0678493082523346 -0.019550051540136337 -0.03585871681571007 0 0 0 0
1533498756 0.15287116169929504 0.06033392250537872 -0.02427777647972107 -0.029231689870357513 0 0 0 0
1537220840 0.19724048674106598 0.04434964805841446 -0.026607174426317215 -0.022917011752724648 0 0 0 0
1540942924 0.239399254322052 0.01909591257572174 -0.027490997686982155 -0.01736958883702755 0 0 0 0
1544665008 0.27580761909484863 -0.014576643705368042 -0.027396705001592636 -0.012600911781191826 0 0 0 0
1548387092 0.30636492371559143 -0.05539260804653168 -0.027047567069530487 -0.008644277229905128 0 0 0 0
1552109176 0.33027178049087524 -0.09939240664243698 -0.02622769959270954 -0.005257986485958099 0 0 0 0
1555831260 0.3471851348876953 -0.14773178100585938 -0.025874439626932144 -0.0023658620193600655 0 0 0 0
1559553344 0.3543689548969269 -0.20205214619636536 -0.025729991495609283 0.0007437523454427719 0 0 0 0
1563275428 0.3552151322364807 -0.25333940982818604 -0.0252525694668293 0.004231109283864498 0 0 0 0
1566997512 0.34331876039505005 -0.30912715196609497 -0.023561712354421616 0.008312685415148735 0 0 0 0
1570719596 0.3258897066116333 -0.3596571683883667 -0.021009016782045364 0.011207034811377525 0 0 0 0
1574441680 0.29932767152786255 -0.4084918797016144 -0.018073176965117455 0.013417119160294533 0 0 0 0
1578163764 0.2688722014427185 -0.449942409992218 -0.015253812074661255 0.014635102823376656 0 0 0 0
1581885848 0.22682902216911316 -0.4899052083492279 -0.01287812553346157 0.015480512753129005 0 0 0 0
1585607932 0.187167227268219 -0.5210795402526855 -0.010824614204466343 0.016193047165870667 0 0 0 0
1589330016 0.13524532318115234 -0.5501828193664551 -0.008667840622365475 0.01685512438416481 0 0 0 0
1593052100 0.08108040690422058 -0.5707690715789795 -0.006473205052316189 0.01728733256459236 0 0 0 0
1596774184 0.021824508905410767 -0.584419310092926 -0.004703654907643795 0.01769132912158966 0 0 0 0
1600496268 -0.03713080286979675 -0.5876741409301758 -0.002919204533100128 0.018208757042884827 0 0 0 0
1604218352 -0.09289480745792389 -0.5841234922409058 -0.000685875304043293 0.018799960613250732 0 0 0 0
1607940436 -0.1556389182806015 -0.5693297982215881 0.0020440174266695976 0.018962260335683823 0 0 0 0
1611662520 -0.21489034593105316 -0.5480581521987915 0.004887769930064678 0.018782949075102806 0 0 0 0
1615384604 -0.27048519253730774 -0.5164062976837158 0.0076607754454016685 0.01782873086631298 0 0 0 0
1619106688 -0.3237314820289612 -0.47443893551826477 0.010502718389034271 0.01680510677397251 0 0 0 0
1622828772 -0.3707554042339325 -0.42575007677078247 0.013308391906321049 0.014899144880473614 0 0 0 0
1626550856 -0.4073978662490845 -0.3715031147003174 0.015684708952903748 0.012463279999792576 0 0 0 0
1630272940 -0.4389371871948242 -0.30563920736312866 0.01752106286585331 0.009640960022807121 0 0 0 0
1633995024 -0.46017491817474365 -0.2401624321937561 0.018768874928355217 0.0063774846494197845 0 0 0 0
1637717108 -0.4738021492958069 -0.1677648276090622 0.01927774026989937 0.0032335566356778145 0 0 0 0
1641439192 -0.4736708402633667 -0.09583531320095062 0.019481007009744644 0.00029800180345773697 0 0 0 0
1645161276 -0.4627610445022583 -0.020575448870658875 0.01941748335957527 -0.002913808450102806 0 0 0 0
1648883360 -0.4397313594818115 0.053192779421806335 0.018584782257676125 -0.006270758807659149 0 0 0 0
1652605444 -0.40478265285491943 0.1225772351026535 0.017442593351006508 -0.00920429639518261 0 0 0 0
1656327528 -0.36143556237220764 0.18358387053012848 0.015646861866116524 -0.01225512009114027 0 0 0 0
1660049612 -0.30544447898864746 0.24174268543720245 0.013283374719321728 -0.015001501888036728 0 0 0 0
1663771696 -0.2448350191116333 0.28828859329223633 0.010287422686815262 -0.017270365729928017 0 0 0 0
1667493780 -0.17150987684726715 0.32859551906585693 0.006357734091579914 -0.01897568255662918 0 0 0 0
1671215864 -0.09455636143684387 0.3549526631832123 0.002136331982910633 -0.019526924937963486 0 0 0 0
1674937948 -0.012598484754562378 0.36925968527793884 -0.0019028009846806526 -0.01892159879207611 0 0 0 0
1678660032 0.07090508937835693 0.369445264339447 -0.00562120508402586 -0.0170601736754179 0 0 0 0
1682382116 0.1505221575498581 0.3567849099636078 -0.008084568195044994 -0.01467911433428526 0 0 0 0
1686104200 0.22886109352111816 0.332672655582428 -0.00970228761434555 -0.012214689515531063 0 0 0 0
1689826284 0.30248722434043884 0.29566690325737 -0.010799679905176163 -0.010143633931875229 0 0 0 0
1693548368 0.36879345774650574 0.24980038404464722 -0.01189633458852768 -0.00785800814628601 0 0 0 0
1697270452 0.42689087986946106 0.19601410627365112 -0.012582821771502495 -0.005506327375769615 0 0 0 0
1700992536 0.478299617767334 0.1280602514743805 -0.01258170884102583 -0.002937708981335163 0 0 0 0
1704714620 0.5167638063430786 0.057454973459243774 -0.011960313655436039 -0.0005918126553297043 0 0 0 0
1708436704 0.543635904788971 -0.018507525324821472 -0.010673515498638153 0.0013160184025764465 0 0 0 0
1712158788 0.5580039024353027 -0.0975295901298523 -0.009266193956136703 0.0023668361827731133 0 0 0 0
1715880872 0.5614127516746521 -0.17631295323371887 -0.007979444228112698 0.0028013624250888824 0 0 0 0
1719602956 0.5486782789230347 -0.25545114278793335 -0.007161634974181652 0.003120308741927147 0 0 0 0
1723325040 0.5285333395004272 -0.32939136028289795 -0.006678415462374687 0.0033672256395220757 0 0 0 0
1727047124 0.4989071190357208 -0.39559587836265564 -0.00629808846861124 0.003827120177447796 0 0 0 0
1730769208 0.4558444321155548 -0.4627799093723297 -0.0056990087032318115 0.004320050589740276 0 0 0 0
1734491292 0.40420687198638916 -0.5200176239013672 -0.0050904229283332825 0.004827458411455154 0 0 0 0
1738213376 0.34773221611976624 -0.5671255588531494 -0.004434818401932716 0.005119917914271355 0 0 0 0
1741935460 0.27970802783966064 -0.6064326167106628 -0.003606898710131645 0.005266481079161167 0 0 0 0
1745657544 0.2133145034313202 -0.633013904094696 -0.0030963243916630745 0.005192991346120834 0 0 0 0
1749379628 0.1438187211751938 -0.6495545506477356 -0.0028536859899759293 0.005088613368570805 0 0 0 0
1753101712 0.06842628121376038 -0.6566481590270996 -0.0027727698907256126 0.005287734791636467 0 0 0 0
1756823796 -0.0019026696681976318 -0.6513503193855286 -0.00271480530500412 0.005724596790969372 0 0 0 0
1760545880 -0.07228332757949829 -0.6347638368606567 -0.002437511458992958 0.006388846784830093 0 0 0 0
1764267964 -0.13923220336437225 -0.6062536239624023 -0.0017779981717467308 0.007137404754757881 0 0 0 0
1767990048 -0.19636446237564087 -0.5736390948295593 -0.0009800828993320465 0.00797548983246088 0 0 0 0
1771712132 -0.2477470487356186 -0.5288856625556946 0.000386715866625309 0.008435074239969254 0 0 0 0
1775434216 -0.2948766350746155 -0.47715386748313904 0.0017343536019325256 0.008449127897620201 0 0 0 0
1779156300 -0.3296314775943756 -0.4222610592842102 0.0030067861080169678 0.00814443826675415 0 0 0 0
1782878384 -0.3583913743495941 -0.36292916536331177 0.004132257774472237 0.007453679107129574 0 0 0 0
1786600468 -0.3777138292789459 -0.29975685477256775 0.004859880544245243 0.006670019589364529 0 0 0 0
1790322552 -0.3863123655319214 -0.23685432970523834 0.005146170035004616 0.0063012633472681046 0 0 0 0
1794044636 -0.3869211673736572 -0.1696714609861374 0.0056930119171738625 0.005820084363222122 0 0 0 0
1797766720 -0.3753894865512848 -0.10895673930644989 0.00606908556073904 0.005516118369996548 0 0 0 0
1801488804 -0.3557126522064209 -0.046585410833358765 0.006513846106827259 0.005808471702039242 0 0 0 0
1805210888 -0.3259970247745514 0.008177675306797028 0.007914661429822445 0.006122054532170296 0 0 0 0
1808932972 -0.28974536061286926 0.060511790215969086 0.010342618450522423 0.005897854454815388 0 0 0 0
1812655056 -0.24569573998451233 0.10202634334564209 0.013109296560287476 0.00420411117374897 0 0 0 0
1816377140 -0.1963726431131363 0.13931748270988464 0.01526058092713356 0.0016772421076893806 0 0 0 0
1820099224 -0.14119113981723785 0.16690681874752045 0.016777610406279564 -0.0018026363104581833 0 0 0 0
1823821308 -0.08362453430891037 0.18404649198055267 0.017059531062841415 -0.005603869445621967 0 0 0 0
1827543392 -0.023991048336029053 0.19188594818115234 0.015605383552610874 -0.009395413100719452 0 0 0 0
1831265476 0.03246826305985451 0.1896844506263733 0.014006417244672775 -0.011789469979703426 0 0 0 0
1834987560 0.0880148783326149 0.1778067797422409 0.012272220104932785 -0.014415239915251732 0 0 0 0
1838709644 0.13835600018501282 0.1590273678302765 0.00931718572974205 -0.017307475209236145 0 0 0 0
1842431728 0.18606682121753693 0.13309910893440247 0.0053780823945999146 -0.019085315987467766 0 0 0 0
1846153812 0.22739861905574799 0.10083875060081482 0.001680329442024231 -0.01902623102068901 0 0 0 0
1849875896 0.26243025064468384 0.061674099415540695 -0.0009899437427520752 -0.01894254982471466 0 0 0 0
1853597980 0.2899276614189148 0.016448844224214554 -0.003538680262863636 -0.019024422392249107 0 0 0 0
1857320064 0.3081015646457672 -0.027673915028572083 -0.006802358664572239 -0.018856344744563103 0 0 0 0
1861042148 0.31783419847488403 -0.07416616380214691 -0.009960688650608063 -0.018102439120411873 0 0 0 0
1864764232 0.31998610496520996 -0.12139473110437393 -0.013141147792339325 -0.016798008233308792 0 0 0 0
1868486316 0.3128497302532196 -0.1676112711429596 -0.01642393320798874 -0.014938531443476677 0 0 0 0
1872208400 0.30071473121643066 -0.20782460272312164 -0.01969197392463684 -0.012287167832255363 0 0 0 0
1875930484 0.27988940477371216 -0.24755573272705078 -0.022577092051506042 -0.007995939813554287 0 0 0 0
1879652568 0.25447022914886475 -0.27966874837875366 -0.024043086916208267 -0.003605850972235203 0 0 0 0
1883374652 0.22383849322795868 -0.3061670958995819 -0.024584922939538956 0.0010264934971928596 0 0 0 0
1887096736 0.19235779345035553 -0.3252059817314148 -0.023903585970401764 0.005735826678574085 0 0 0 0
1890818820 0.15874436497688293 -0.3379009962081909 -0.02222365513443947 0.009848683141171932 0 0 0 0
1894540904 0.12626224756240845 -0.343946248292923 -0.020381702110171318 0.013270793482661247 0 0 0 0
1898262988 0.09376253187656403 -0.34595081210136414 -0.018267367035150528 0.01636728085577488 0 0 0 0
1901985072 0.05976216495037079 -0.3422466516494751 -0.01560671254992485 0.01958221197128296 0 0 0 0
1905707156 0.0313207283616066 -0.33444732427597046 -0.012119807302951813 0.02251977100968361 0 0 0 0
1909429240 0.0024847686290740967 -0.3203868567943573 -0.00829912070184946 0.02465989626944065 0 0 0 0
1913151324 -0.020503491163253784 -0.3036039471626282 -0.0041276030242443085 0.026318134739995003 0 0 0 0
1916873408 -0.042396094650030136 -0.28261446952819824 0.0008093882352113724 0.02718166448175907 0 0 0 0
1920595492 -0.0586654394865036 -0.2575424909591675 0.00541438814252615 0.027317559346556664 0 0 0 0
1924317576 -0.07007631659507751 -0.2306918203830719 0.010914865881204605 0.027109507471323013 0 0 0 0
1928039660 -0.07717981934547424 -0.20185591280460358 0.017393961548805237 0.025256125256419182 0 0 0 0
1931761744 -0.07662620395421982 -0.17514336109161377 0.02362111210823059 0.02101793885231018 0 0 0 0
1935483828 -0.07085005939006805 -0.14811255037784576 0.02813643403351307 0.014453546144068241 0 0 0 0
1939205912 -0.06145021319389343 -0.1255083531141281 0.03003760054707527 0.006990042515099049 0 0 0 0
1942927996 -0.04954172670841217 -0.10481084138154984 0.02966286614537239 -0.0002109091728925705 0 0 0 0
1946650080 -0.03487385809421539 -0.08770418912172318 0.027348598465323448 -0.006145333871245384 0 0 0 0
1950372164 -0.018711313605308533 -0.07205502688884735 0.02405981905758381 -0.011013331823050976 0 0 0 0
1954094248 -7.78883695602417e-05 -0.05872143432497978 0.020837698131799698 -0.014324129559099674 0 0 0 0
1957816332 0.02156754955649376 -0.04910384491086006 0.017180155962705612 -0.017205368727445602 0 0 0 0
1961538416 0.04411604255437851 -0.042944006621837616 0.01312417071312666 -0.018657274544239044 0 0 0 0
1965260500 0.06733060628175735 -0.041347142308950424 0.008978260681033134 -0.019229227676987648 0 0 0 0
1968982584 0.09158782660961151 -0.043994612991809845 0.005833824165165424 -0.018749432638287544 0 0 0 0
1972704668 0.11379028856754303 -0.05126526951789856 0.0039024632424116135 -0.017977086827158928 0 0 0 0
1976426752 0.13350071012973785 -0.06452625244855881 0.0026329616084694862 -0.018283000215888023 0 0 0 0
1980148836 0.15302957594394684 -0.07832860946655273 0.0006665363907814026 -0.01907695084810257 0 0 0 0
1983870920 0.16700951755046844 -0.09859494864940643 -0.002672778442502022 -0.020339101552963257 0 0 0 0
1987593004 0.17775051295757294 -0.11885048449039459 -0.005511632189154625 -0.021207589656114578 0 0 0 0
1991315088 0.18462339043617249 -0.13913311064243317 -0.009916639886796474 -0.021000772714614868 0 0 0 0
1995037172 0.18649831414222717 -0.16117092967033386 -0.01454034075140953 -0.01903771609067917 0 0 0 0
1998759256 0.18378956615924835 -0.18345846235752106 -0.019029291346669197 -0.01601567491889 0 0 0 0
2002481340 0.18086226284503937 -0.20397472381591797 -0.02205595374107361 -0.011696148663759232 0 0 0 0
2006203424 0.17387303709983826 -0.22378820180892944 -0.02416752651333809 -0.0069876546040177345 0 0 0 0
2009925508 0.16056540608406067 -0.24536070227622986 -0.024841511622071266 -0.0020308326929807663 0 0 0 0
2013647592 0.1467108279466629 -0.26175153255462646 -0.02478020265698433 0.0024868370965123177 0 0 0 0
2017369676 0.12662214040756226 -0.2746254801750183 -0.023936383426189423 0.006398861296474934 0 0 0 0
2021091760 0.10477671772241592 -0.2842027544975281 -0.022894125431776047 0.010198844596743584 0 0 0 0
2024813844 0.0848141759634018 -0.28904423117637634 -0.020875275135040283 0.01359568815678358 0 0 0 0
2028535928 0.059421055018901825 -0.2907024919986725 -0.017627401277422905 0.01688760705292225 0 0 0 0
2032258012 0.03966880589723587 -0.2895173132419586 -0.014250395819544792 0.019770938903093338 0 0 0 0
2035980096 0.016219154000282288 -0.28351402282714844 -0.010381090454757214 0.021685022860765457 0 0 0 0
2039702180 -0.00630539283156395 -0.2748751938343048 -0.006075829267501831 0.023456448689103127 0 0 0 0
2043424264 -0.025670401751995087 -0.263639360666275 -0.0017387466505169868 0.024002734571695328 0 0 0 0
2047146348 -0.04791492223739624 -0.24853387475013733 0.002638372592628002 0.02367599681019783 0 0 0 0
2050868432 -0.06554726511240005 -0.22875149548053741 0.006083725020289421 0.02210896462202072 0 0 0 0
2054590516 -0.08021143078804016 -0.205057293176651 0.008830207400023937 0.020152036100625992 0 0 0 0
2058312600 -0.08967122435569763 -0.18000030517578125 0.011904162354767323 0.018626896664500237 0 0 0 0
2062034684 -0.09458217024803162 -0.1527232527732849 0.014784915372729301 0.016787059605121613 0 0 0 0
2065756768 -0.09622972458600998 -0.1252226084470749 0.017653444781899452 0.014277271926403046 0 0 0 0
2069478852 -0.09210693836212158 -0.09823531657457352 0.01996641233563423 0.011221563443541527 0 0 0 0
2073200936 -0.08629679679870605 -0.06927255541086197 0.02177235670387745 0.00747611653059721 0 0 0 0
2076923020 -0.07460539042949677 -0.04163933917880058 0.022947244346141815 0.0036578141152858734 0 0 0 0
2080645104 -0.05889233946800232 -0.015309040434658527 0.02247859165072441 -0.0005013300105929375 0 0 0 0
2084367188 -0.03901374712586403 0.008973643183708191 0.02156011387705803 -0.0039050327613949776 0 0 0 0
2088089272 -0.013584408909082413 0.029498517513275146 0.020079854875802994 -0.006995455361902714 0 0 0 0
2091811356 0.015332969836890697 0.04601825028657913 0.018953846767544746 -0.009778721258044243 0 0 0 0
2095533440 0.04655227065086365 0.058344531804323196 0.017721643671393394 -0.013099216856062412 0 0 0 0
2099255524 0.080708347260952 0.06513996422290802 0.015332179144024849 -0.01632540673017502 0 0 0 0
2102977608 0.11716248095035553 0.06664296984672546 0.01252687256783247 -0.019185572862625122 0 0 0 0
2106699692 0.15389691293239594 0.06095391511917114 0.009155984967947006 -0.021496174857020378 0 0 0 0
2110421776 0.1891222596168518 0.04895907640457153 0.005207107402384281 -0.02349371276795864 0 0 0 0
2114143860 0.22166575491428375 0.028370048850774765 0.0001238510012626648 -0.02466541901230812 0 0 0 0
2117865944 0.24897179007530212 0.004975669085979462 -0.00506611168384552 -0.024284344166517258 0 0 0 0
2121588028 0.27123868465423584 -0.023694969713687897 -0.010225142352283001 -0.02278018370270729 0 0 0 0
2125310112 0.2871098220348358 -0.054949596524238586 -0.01475064642727375 -0.020012151449918747 0 0 0 0
2129032196 0.2980090379714966 -0.08803645521402359 -0.018461929634213448 -0.016161765903234482 0 0 0 0
2132754280 0.3036903142929077 -0.11997980624437332 -0.02096233330667019 -0.01172141544520855 0 0 0 0
2136476364 0.3036735951900482 -0.1544945389032364 -0.022593321278691292 -0.00675245001912117 0 0 0 0
2140198448 0.29979658126831055 -0.18621139228343964 -0.022663291543722153 -0.0014046551659703255 0 0 0 0
2143920532 0.2918117344379425 -0.21749015152454376 -0.020985383540391922 0.0032373210415244102 0 0 0 0
2147642616 0.27731066942214966 -0.24841661751270294 -0.018605466932058334 0.006339928135275841 0 0 0 0
2151364700 0.2592107951641083 -0.275930792093277 -0.016533978283405304 0.008632793091237545 0 0 0 0
2155086784 0.2342207282781601 -0.29813438653945923 -0.01429932564496994 0.010475896298885345 0 0 0 0
2158808868 0.20993104577064514 -0.3159049451351166 -0.012409898452460766 0.011838575825095177 0 0 0 0
2162530952 0.1846565157175064 -0.3286804258823395 -0.0106725562363863 0.0131600983440876 0 0 0 0
2166253036 0.15283288061618805 -0.33964839577674866 -0.00833878107368946 0.014727340079843998 0 0 0 0
2169975120 0.1226879209280014 -0.3449283838272095 -0.005334469489753246 0.01594192162156105 0 0 0 0
2173697204 0.09235202521085739 -0.3461008667945862 -0.002288270741701126 0.016072191298007965 0 0 0 0
2177419288 0.05973045900464058 -0.3423813283443451 0.0003080805763602257 0.01528576947748661 0 0 0 0
2181141372 0.030836373567581177 -0.3328969180583954 0.002159346826374531 0.014118162915110588 0 0 0 0
2184863456 0.0037620365619659424 -0.318435400724411 0.0037834690883755684 0.013356385752558708 0 0 0 0
2188585540 -0.020584508776664734 -0.30029818415641785 0.005365007556974888 0.012409543618559837 0 0 0 0
2192307624 -0.04395141452550888 -0.278753399848938 0.007103892043232918 0.011301710270345211 0 0 0 0
2196029708 -0.06207307428121567 -0.25407710671424866 0.00828648079186678 0.010106761008501053 0 0 0 0
2199751792 -0.07650244235992432 -0.22724305093288422 0.00962110236287117 0.009157824330031872 0 0 0 0
2203473876 -0.08841504156589508 -0.19674310088157654 0.011353672482073307 0.00785098783671856 0 0 0 0
2207195960 -0.08892615884542465 -0.16919296979904175 0.012711253017187119 0.006090883165597916 0 0 0 0
2210918044 -0.09098564088344574 -0.1371314823627472 0.013789590448141098 0.0036099757999181747 0 0 0 0
2214640128 -0.08959903568029404 -0.10358448326587677 0.014372695237398148 0.0010801376774907112 0 0 0 0
2218362212 -0.07833007723093033 -0.07414062321186066 0.014342932030558586 -0.0016899732872843742 0 0 0 0
2222084296 -0.06385543197393417 -0.04284320026636124 0.013519956730306149 -0.004873031750321388 0 0 0 0
2225806380 -0.04290817305445671 -0.013994392938911915 0.011965075507760048 -0.0074754031375050545 0 0 0 0
2229528464 -0.015415106900036335 0.010135962627828121 0.00971914641559124 -0.009280990809202194 0 0 0 0
2233250548 0.01694871485233307 0.026535462588071823 0.007356205023825169 -0.010474116541445255 0 0 0 0
2236972632 0.050537772476673126 0.03662610054016113 0.0054317982867360115 -0.011141392402350903 0 0 0 0
2240694716 0.08518525958061218 0.04103405773639679 0.0032071182504296303 -0.011311039328575134 0 0 0 0
2244416800 0.1204080730676651 0.03578699380159378 0.0015041893348097801 -0.011120419949293137 0 0 0 0
2248138884 0.15269118547439575 0.025120839476585388 -9.50666144490242e-05 -0.011060400865972042 0 0 0 0
2251860968 0.18102872371673584 0.01334681361913681 -0.001643819734454155 -0.010567949153482914 0 0 0 0
2255583052 0.20667807757854462 -0.00859755091369152 -0.0034866323694586754 -0.009932983666658401 0 0 0 0
2259305136 0.22853980958461761 -0.02861197292804718 -0.004681823775172234 -0.008786906488239765 0 0 0 0
2263027220 0.2431657612323761 -0.059961020946502686 -0.005786312744021416 -0.007630651816725731 0 0 0 0
2266749304 0.25480523705482483 -0.08521296083927155 -0.006349221803247929 -0.006739974021911621 0 0 0 0
2270471388 0.2594505548477173 -0.11578783392906189 -0.006908349692821503 -0.005778034217655659 0 0 0 0
2274193472 0.25491201877593994 -0.14764684438705444 -0.007404028438031673 -0.0048365164548158646 0 0 0 0
2277915556 0.2530040442943573 -0.1722329556941986 -0.007675431668758392 -0.004324134439229965 0 0 0 0
2281637640 0.24063074588775635 -0.20114749670028687 -0.00840243324637413 -0.0038758590817451477 0 0 0 0
2285359724 0.22447483241558075 -0.22529761493206024 -0.009165274910628796 -0.0029134564101696014 0 0 0 0
2289081808 0.20704349875450134 -0.2434607744216919 -0.009770835749804974 -0.001850736327469349 0 0 0 0
2292803892 0.1865067481994629 -0.25966936349868774 -0.010387187823653221 -0.0006885575130581856 0 0 0 0
2296525976 0.16000506281852722 -0.27258002758026123 -0.010988185182213783 0.0006642993539571762 0 0 0 0
2300248060 0.138778954744339 -0.27790242433547974 -0.011172090657055378 0.002597494050860405 0 0 0 0
2303970144 0.11623046547174454 -0.2847827672958374 -0.010572405532002449 0.00494769774377346 0 0 0 0
2307692228 0.08569987118244171 -0.28274738788604736 -0.009349348023533821 0.006829367019236088 0 0 0 0
2311414312 0.06059785187244415 -0.2780475616455078 -0.007868697866797447 0.007818232290446758 0 0 0 0
2315136396 0.0334327295422554 -0.2679329812526703 -0.006241156719624996 0.008532078936696053 0 0 0 0
2318858480 0.008766509592533112 -0.2554578185081482 -0.004727190360426903 0.008806747384369373 0 0 0 0
2322580564 -0.008325554430484772 -0.23628881573677063 -0.0035719191655516624 0.008645114488899708 0 0 0 0
2326302648 -0.0309218168258667 -0.211919903755188 -0.0025689443573355675 0.008598407730460167 0 0 0 0
2330024732 -0.039410434663295746 -0.18839770555496216 -0.0018951036036014557 0.008559570647776127 0 0 0 0
2333746816 -0.047919049859046936 -0.16074487566947937 -0.0011774534359574318 0.008711527101695538 0 0 0 0
2337468900 -0.05213429406285286 -0.13064487278461456 -7.926393300294876e-05 0.009046346880495548 0 0 0 0
2341190984 -0.04864027351140976 -0.1023600772023201 0.0014777155593037605 0.008824732154607773 0 0 0 0
2344913068 -0.04283882677555084 -0.0727163627743721 0.002839251421391964 0.00812010932713747 0 0 0 0
2348635152 -0.029934635385870934 -0.045564547181129456 0.003769190050661564 0.006944830529391766 0 0 0 0
2352357236 -0.011913368478417397 -0.021402262151241302 0.004320165142416954 0.005998721346259117 0 0 0 0
2356079320 0.010325384326279163 -6.622821092605591e-05 0.004663323983550072 0.005248465575277805 0 0 0 0
2359801404 0.03508865833282471 0.01606006547808647 0.005192587152123451 0.004300273023545742 0 0 0 0
2363523488 0.062301382422447205 0.02646232768893242 0.005599579773843288 0.002956145443022251 0 0 0 0
2367245572 0.0894349217414856 0.033839985728263855 0.005472283810377121 0.0014099422842264175 0 0 0 0
2370967656 0.11814835667610168 0.036645159125328064 0.004488270729780197 0.00021424051374197006 0 0 0 0
2374689740 0.14702685177326202 0.036006588488817215 0.0033929580822587013 -0.00043036695569753647 0 0 0 0
2378411824 0.17614789307117462 0.03054047003388405 0.002198818139731884 -0.0002861199900507927 0 0 0 0
2382133908 0.20559659600257874 0.01983679085969925 0.0015136552974581718 0.00038156285881996155 0 0 0 0
2385855992 0.23382015526294708 0.0043529123067855835 0.0013470612466335297 0.001054094173014164 0 0 0 0
2389578076 0.2577904760837555 -0.01935967057943344 0.0016535921022295952 0.0016483785584568977 0 0 0 0
2393300160 0.27664345502853394 -0.045820385217666626 0.002162192016839981 0.00187675841152668 0 0 0 0
2397022244 0.29152920842170715 -0.07120037078857422 0.0028763143345713615 0.0016075540333986282 0 0 0 0
2400744328 0.30073797702789307 -0.10383320599794388 0.003335726447403431 0.0010135946795344353 0 0 0 0
2404466412 0.30251795053482056 -0.13453400135040283 0.003655940294265747 0.0003943471238017082 0 0 0 0
2408188496 0.30212992429733276 -0.1656181365251541 0.003613877110183239 -0.0001326063647866249 0 0 0 0
2411910580 0.2971731722354889 -0.1959020495414734 0.003491835668683052 -0.0009188111871480942 0 0 0 0
2415632664 0.28311818838119507 -0.22381125390529633 0.0031619062647223473 -0.0016119405627250671 0 0 0 0
2419354748 0.2675743103027344 -0.2477252036333084 0.0026022372767329216 -0.0020635928958654404 0 0 0 0
2423076832 0.24955731630325317 -0.2692374885082245 0.0021484289318323135 -0.0020806780084967613 0 0 0 0
2426798916 0.2286127209663391 -0.2877964377403259 0.001589486375451088 -0.002011938951909542 0 0 0 0
2430521000 0.20253939926624298 -0.30409494042396545 0.001506793312728405 -0.001957903616130352 0 0 0 0
2434243084 0.1779676079750061 -0.3156002163887024 0.0015535615384578705 -0.0017407704144716263 0 0 0 0
2437965168 0.1542566418647766 -0.32212314009666443 0.001588643528521061 -0.0020571909844875336 0 0 0 0
2441687252 0.1274299919605255 -0.3281101584434509 0.002413521520793438 -0.00209683645516634 0 0 0 0
2445409336 0.09828049689531326 -0.33087772130966187 0.002430071122944355 -0.003479892387986183 0 0 0 0
2449131420 0.07017158716917038 -0.32803553342819214 0.002229860983788967 -0.0040983399376273155 0 0 0 0
2452853504 0.044013530015945435 -0.3215939700603485 0.0016128364950418472 -0.004989152774214745 0 0 0 0
2456575588 0.012709274888038635 -0.3109745681285858 0.0007358575239777565 -0.005509108304977417 0 0 0 0
2460297672 -0.010509088635444641 -0.2947854995727539 -0.00014708749949932098 -0.005714860744774342 0 0 0 0
2464019756 -0.03266465291380882 -0.27513039112091064 -0.0011481260880827904 -0.0057633183896541595 0 0 0 0
2467741840 -0.05430217087268829 -0.25209885835647583 -0.001969636417925358 -0.005797125399112701 0 0 0 0
2471463924 -0.0710788294672966 -0.2249399721622467 -0.002855425700545311 -0.0056197261437773705 0 0 0 0
2475186008 -0.0820084661245346 -0.19541822373867035 -0.003586576320230961 -0.005499113351106644 0 0 0 0
2478908092 -0.0881464034318924 -0.1649584025144577 -0.004412343725562096 -0.005610608495771885 0 0 0 0
2482630176 -0.08829975873231888 -0.13356471061706543 -0.005446102470159531 -0.0050021205097436905 0 0 0 0
2486352260 -0.0834835022687912 -0.10377775132656097 -0.006593436002731323 -0.004053892567753792 0 0 0 0
2490074344 -0.07527057826519012 -0.07360973954200745 -0.007237028330564499 -0.002770482562482357 0 0 0 0
2493796428 -0.06080455332994461 -0.04864557087421417 -0.007514261640608311 -0.0019458280876278877 0 0 0 0
2497518512 -0.045150335878133774 -0.025660619139671326 -0.007760687731206417 -0.0011018048971891403 0 0 0 0
2501240596 -0.02630477212369442 -0.0048591261729598045 -0.007890948094427586 -0.0002029789611697197 0 0 0 0
2504962680 -0.004046562127768993 0.01301590632647276 -0.007762967608869076 0.0007917117327451706 0 0 0 0
2508684764 0.020570268854498863 0.02713877707719803 -0.007717992179095745 0.0017412854358553886 0 0 0 0
2512406848 0.04689209535717964 0.037271205335855484 -0.007491345517337322 0.0028772633522748947 0 0 0 0
2516128932 0.07446980476379395 0.04320858046412468 -0.007452329620718956 0.00402453076094389 0 0 0 0
2519851016 0.10258204489946365 0.04547226428985596 -0.007164770737290382 0.00513716135174036 0 0 0 0
2523573100 0.13045597076416016 0.04264286905527115 -0.006444310769438744 0.005974799394607544 0 0 0 0
2527295184 0.15811243653297424 0.03515266254544258 -0.005319058895111084 0.006608230993151665 0 0 0 0
2531017268 0.18351328372955322 0.02218427136540413 -0.004730772227048874 0.006892211735248566 0 0 0 0
2534739352 0.20539799332618713 0.0056730397045612335 -0.0039023393765091896 0.007516991347074509 0 0 0 0
2538461436 0.2236229032278061 -0.014661658555269241 -0.002858356572687626 0.008061987347900867 0 0 0 0
2542183520 0.2373143881559372 -0.03553329408168793 -0.001695919781923294 0.008626312017440796 0 0 0 0
2545905604 0.24725793302059174 -0.0593920536339283 -0.0006177471950650215 0.008809116668999195 0 0 0 0
2549627688 0.2529497742652893 -0.08334039896726608 0.0005826177075505257 0.009273500181734562 0 0 0 0
2553349772 0.25529617071151733 -0.10559695959091187 0.0017560077831149101 0.009316892363131046 0 0 0 0
2557071856 0.2516550123691559 -0.128643199801445 0.00348488986492157 0.009396376088261604 0 0 0 0
2560793940 0.24743850529193878 -0.14927759766578674 0.00502394326031208 0.00910604652017355 0 0 0 0
2564516024 0.23926040530204773 -0.16654112935066223 0.0067408764734864235 0.008661619387567043 0 0 0 0
2568238108 0.2282920777797699 -0.1826547533273697 0.0085561852902174 0.007661825977265835 0 0 0 0
2571960192 0.21810322999954224 -0.1942557841539383 0.010239092633128166 0.006205383688211441 0 0 0 0
2575682276 0.20352709293365479 -0.20735152065753937 0.011754298582673073 0.004007231444120407 0 0 0 0
2579404360 0.18982890248298645 -0.2165297567844391 0.012781042605638504 0.0017584003508090973 0 0 0 0
2583126444 0.1785411685705185 -0.22017811238765717 0.013193178921937943 -0.0009716358035802841 0 0 0 0
2586848528 0.16404882073402405 -0.22832469642162323 0.013003086671233177 -0.0036732004955410957 0 0 0 0
2590570612 0.14987444877624512 -0.23120877146720886 0.01207625214010477 -0.006494415923953056 0 0 0 0
2594292696 0.13610723614692688 -0.23324336111545563 0.010367686860263348 -0.00898305419832468 0 0 0 0
2598014780 0.1240801066160202 -0.2320493459701538 0.008285794407129288 -0.010811195708811283 0 0 0 0
2601736864 0.10867424309253693 -0.23117941617965698 0.005747999995946884 -0.012161819264292717 0 0 0 0
2605458948 0.09688165783882141 -0.22550129890441895 0.0033330554142594337 -0.012759117409586906 0 0 0 0
2609181032 0.0858791396021843 -0.2205919623374939 0.0008308906108140945 -0.012851583771407604 0 0 0 0
2612903116 0.07687470316886902 -0.21334722638130188 -0.001237737014889717 -0.012422126717865467 0 0 0 0
2616625200 0.06764878332614899 -0.2054205685853958 -0.0029288018122315407 -0.011788339354097843 0 0 0 0
2620347284 0.06123502179980278 -0.1974082589149475 -0.004576035775244236 -0.011013863608241081 0 0 0 0
2624069368 0.05650975927710533 -0.18816429376602173 -0.005934105254709721 -0.010112468153238297 0 0 0 0
2627791452 0.053245797753334045 -0.17810934782028198 -0.0071838488802313805 -0.00930539146065712 0 0 0 0
2631513536 0.04913491755723953 -0.16959863901138306 -0.008166045881807804 -0.00836092233657837 0 0 0 0
2635235620 0.04912513867020607 -0.1593009978532791 -0.009227518923580647 -0.007479256950318813 0 0 0 0
2638957704 0.0512486957013607 -0.14928683638572693 -0.010410165414214134 -0.006348639726638794 0 0 0 0
2642679788 0.05232594907283783 -0.14101925492286682 -0.011649574153125286 -0.004720625467598438 0 0 0 0
2646401872 0.0576215498149395 -0.13389691710472107 -0.01212591864168644 -0.003078918904066086 0 0 0 0
2650123956 0.06275306642055511 -0.127916157245636 -0.012777338735759258 -0.0014385189861059189 0 0 0 0
2653846040 0.06856351345777512 -0.123501256108284 -0.013331597670912743 0.0005115699023008347 0 0 0 0
2657568124 0.07571159303188324 -0.12063519656658173 -0.013606952503323555 0.003087282180786133 0 0 0 0
2661290208 0.08239380270242691 -0.12039157003164291 -0.012935666367411613 0.005785784684121609 0 0 0 0
2665012292 0.08905337005853653 -0.12118012458086014 -0.011614377610385418 0.00825100764632225 0 0 0 0
2668734376 0.09222327917814255 -0.12292201817035675 -0.00976458191871643 0.010154807940125465 0 0 0 0
2672456460 0.09695694595575333 -0.12445966899394989 -0.007541981525719166 0.01177247054874897 0 0 0 0
2676178544 0.09950476139783859 -0.1274813413619995 -0.0052236635237932205 0.012745451182126999 0 0 0 0
2679900628 0.10315974801778793 -0.1295834481716156 -0.0026751598343253136 0.013349540531635284 0 0 0 0
2683622712 0.10556702315807343 -0.132317453622818 3.2391399145126343e-06 0.013519048690795898 0 0 0 0
2687344796 0.10616062581539154 -0.13808676600456238 0.0029929960146546364 0.012995254248380661 0 0 0 0
2691066880 0.1077733039855957 -0.14254766702651978 0.005582851357758045 0.011706960387527943 0 0 0 0
2694788964 0.10728515684604645 -0.14751029014587402 0.00753596518188715 0.010066211223602295 0 0 0 0
2698511048 0.10596788674592972 -0.1535777896642685 0.008925994858145714 0.007896779105067253 0 0 0 0
2702233132 0.10388193279504776 -0.15932080149650574 0.009883658960461617 0.005893277004361153 0 0 0 0
2705955216 0.0992548018693924 -0.16555380821228027 0.01055295392870903 0.0036649471148848534 0 0 0 0
2709677300 0.09331566840410233 -0.1709001213312149 0.010761120356619358 0.0016474109143018723 0 0 0 0
2713399384 0.08384168893098831 -0.17542889714241028 0.010467260144650936 -0.00032903626561164856 0 0 0 0
2717121468 0.07211830466985703 -0.17737875878810883 0.01018268521875143 -0.0022170450538396835 0 0 0 0
2720843552 0.0606379434466362 -0.17650802433490753 0.009658778086304665 -0.004062018357217312 0 0 0 0
2724565636 0.05256855487823486 -0.1731468141078949 0.008923685178160667 -0.0057356590405106544 0 0 0 0
2728287720 0.042073119431734085 -0.16812904179096222 0.007484673522412777 -0.007514220662415028 0 0 0 0
2732009804 0.03435992822051048 -0.16143792867660522 0.005936361849308014 -0.008689277805387974 0 0 0 0
2735731888 0.024416998028755188 -0.15357442200183868 0.004135048948228359 -0.009751216508448124 0 0 0 0
2739453972 0.017049100250005722 -0.14252570271492004 0.0021985946223139763 -0.010573075152933598 0 0 0 0
2743176056 0.012162655591964722 -0.1289723664522171 -7.021427154541016e-05 -0.010652977973222733 0 0 0 0
2746898140 0.007366925477981567 -0.11516174674034119 -0.0021775467321276665 -0.010496178641915321 0 0 0 0
2750620224 0.007952768355607986 -0.10047412663698196 -0.004210946150124073 -0.01004862878471613 0 0 0 0
2754342308 0.010454418137669563 -0.08519531041383743 -0.006351009011268616 -0.008984187617897987 0 0 0 0
2758064392 0.014881080016493797 -0.07046088576316833 -0.00813235528767109 -0.007374545559287071 0 0 0 0
2761786476 0.02338492125272751 -0.05709834024310112 -0.009450113400816917 -0.0051064807921648026 0 0 0 0
2765508560 0.0332341231405735 -0.04468328505754471 -0.010084128007292747 -0.002839665859937668 0 0 0 0
2769230644 0.04346322640776634 -0.03447156399488449 -0.010228785686194897 -0.00039026420563459396 0 0 0 0
2772952728 0.0575297549366951 -0.024542387574911118 -0.009565843269228935 0.0017925156280398369 0 0 0 0
2776674812 0.07214716821908951 -0.01773042231798172 -0.008436965756118298 0.0035536838695406914 0 0 0 0
2780396896 0.08832746744155884 -0.012233544141054153 -0.007229164242744446 0.004850395023822784 0 0 0 0
2784118980 0.104836605489254 -0.010220123454928398 -0.00594718474894762 0.0060349926352500916 0 0 0 0
2787841064 0.12175355851650238 -0.009518161416053772 -0.004295678809285164 0.007108957506716251 0 0 0 0
2791563148 0.1399785280227661 -0.011782191693782806 -0.0024189455434679985 0.0076650772243738174 0 0 0 0
2795285232 0.1585037112236023 -0.016511209309101105 -0.0003324011340737343 0.007546650245785713 0 0 0 0
2799007316 0.17556895315647125 -0.022449515759944916 0.001394103281199932 0.006834637373685837 0 0 0 0
2802729400 0.19260266423225403 -0.036306433379650116 0.0026699472218751907 0.0058060092851519585 0 0 0 0
2806451484 0.2080388218164444 -0.04853039234876633 0.0035553565248847008 0.004850640892982483 0 0 0 0
2810173568 0.22063204646110535 -0.06528761982917786 0.00414924044162035 0.004164460115134716 0 0 0 0
2813895652 0.2309732437133789 -0.08084574341773987 0.004825797863304615 0.003235829994082451 0 0 0 0
2817617736 0.24019989371299744 -0.09839385747909546 0.005503653548657894 0.002067488618195057 0 0 0 0
2821339820 0.24280215799808502 -0.12280189245939255 0.005717081017792225 0.0006961924955248833 0 0 0 0
2825061904 0.24692337214946747 -0.1423235982656479 0.005445214919745922 -0.00038103386759757996 0 0 0 0
2828783988 0.24665595591068268 -0.16390572488307953 0.005350728519260883 -0.0013247868046164513 0 0 0 0
2832506072 0.24401181936264038 -0.1844334751367569 0.004924355074763298 -0.002278292551636696 0 0 0 0
2836228156 0.23720991611480713 -0.20679119229316711 0.004216386936604977 -0.003063368611037731 0 0 0 0
2839950240 0.2269744575023651 -0.22891846299171448 0.0035344017669558525 -0.003695082850754261 0 0 0 0
2843672324 0.21809355914592743 -0.2474779188632965 0.0028890352696180344 -0.003912703134119511 0 0 0 0
2847394408 0.20037689805030823 -0.26648110151290894 0.0024911994114518166 -0.0041570523753762245 0 0 0 0
2851116492 0.1804257035255432 -0.2857922613620758 0.002127336338162422 -0.004639899358153343 0 0 0 0
2854838576 0.1597130000591278 -0.29779887199401855 0.0015680743381381035 -0.005215052515268326 0 0 0 0
2858560660 0.14462584257125854 -0.30641666054725647 0.0009383931756019592 -0.005983972921967506 0 0 0 0
2862282744 0.11168812960386276 -0.3177969753742218 -0.00041168462485074997 -0.0062962863594293594 0 0 0 0
2866004828 0.09307178109884262 -0.32082313299179077 -0.0016023963689804077 -0.006080992519855499 0 0 0 0
2869726912 0.06907431781291962 -0.3213375508785248 -0.002739964984357357 -0.005535968579351902 0 0 0 0
2873448996 0.04251493513584137 -0.31942540407180786 -0.0037495028227567673 -0.004849878139793873 0 0 0 0
2877171080 0.015903860330581665 -0.3148205578327179 -0.004680916666984558 -0.0037819035351276398 0 0 0 0
2880893164 -0.0034942571073770523 -0.3079456686973572 -0.005102639086544514 -0.0024551432579755783 0 0 0 0
2884615248 -0.032514214515686035 -0.2965081036090851 -0.005119265057146549 -0.0010121706873178482 0 0 0 0
2888337332 -0.049264103174209595 -0.2833576798439026 -0.004829546436667442 7.904134690761566e-05 0 0 0 0
2892059416 -0.0745205283164978 -0.26537010073661804 -0.004300645552575588 0.0009408090263605118 0 0 0 0
2895781500 -0.09359872341156006 -0.2445913553237915 -0.003736354410648346 0.001730211079120636 0 0 0 0
2899503584 -0.10883446037769318 -0.22163087129592896 -0.0032622525468468666 0.002286192961037159 0 0 0 0
2903225668 -0.12304631620645523 -0.19529376924037933 -0.0024624988436698914 0.0028028497472405434 0 0 0 0
2906947752 -0.1337779313325882 -0.16589389741420746 -0.001661502756178379 0.003361588343977928 0 0 0 0
2910669836 -0.1371466964483261 -0.13707000017166138 -0.0007306663319468498 0.0035762712359428406 0 0 0 0
2914391920 -0.13719645142555237 -0.10880105197429657 0.00020909402519464493 0.0034668203443288803 0 0 0 0
2918114004 -0.13272571563720703 -0.07909076660871506 0.0010318169370293617 0.0031445249915122986 0 0 0 0
2921836088 -0.12524625658988953 -0.05049500614404678 0.0016080169007182121 0.002711208537220955 0 0 0 0
2925558172 -0.11387776583433151 -0.024152757599949837 0.002027822658419609 0.0021393820643424988 0 0 0 0
2929280256 -0.098451629281044 0.00071663036942482 0.00230463407933712 0.00160894263535738 0 0 0 0
2933002340 -0.0800740197300911 0.024307643994688988 0.0024178074672818184 0.0011173756793141365 0 0 0 0
2936724424 -0.0581289567053318 0.04374964162707329 0.0024948418140411377 0.0007257135584950447 0 0 0 0
2940446508 -0.03414679691195488 0.05989798903465271 0.002525137737393379 0.00026738550513982773 0 0 0 0
2944168592 -0.009007214568555355 0.07254794985055923 0.002392260357737541 -5.3513795137405396e-05 0 0 0 0
2947890676 0.018802590668201447 0.08266191184520721 0.0023820679634809494 -0.0002633826807141304 0 0 0 0
2951612760 0.04708061367273331 0.08834844082593918 0.002475341781973839 -0.00033446773886680603 0 0 0 0
2955334844 0.07429677248001099 0.09016219526529312 0.002658783458173275 -0.0005707433447241783 0 0 0 0
2959056928 0.10155469179153442 0.08888577669858932 0.003080078400671482 -0.001001022756099701 0 0 0 0
2962779012 0.1301071047782898 0.08298087120056152 0.003259892575442791 -0.0015148129314184189 0 0 0 0
2966501096 0.1566612273454666 0.07189138233661652 0.003391863778233528 -0.002556278370320797 0 0 0 0
2970223180 0.18074339628219604 0.05836104229092598 0.003190855495631695 -0.003482378087937832 0 0 0 0
2973945264 0.2020045816898346 0.04119252413511276 0.002360801212489605 -0.004165168851613998 0 0 0 0
2977667348 0.2211778610944748 0.022658906877040863 0.0016513075679540634 -0.0045812102034688 0 0 0 0
2981389432 0.23754386603832245 -0.00044245272874832153 0.0008649835363030434 -0.004846301861107349 0 0 0 0
2985111516 0.2496737539768219 -0.02013546973466873 6.849691271781921e-05 -0.004836725071072578 0 0 0 0
2988833600 0.25781509280204773 -0.04627058655023575 -0.0010030679404735565 -0.0045648496598005295 0 0 0 0
2992555684 0.26331138610839844 -0.06975004822015762 -0.0017857206985354424 -0.004414896480739117 0 0 0 0
2996277768 0.26568061113357544 -0.09144891798496246 -0.0026206690818071365 -0.00389704667031765 0 0 0 0
2999999852 0.26682308316230774 -0.11283689737319946 -0.0035360530018806458 -0.0031883781775832176 0 0 0 0
