# HZ S RI R 50
1500000000 -0.08370199054479599 -0.07697303593158722 0.03787836804986 -0.028037559241056442 0 0 0 0
1503722084 -0.08201979100704193 -0.05438815802335739 0.032128166407346725 -0.03284076973795891 0 0 0 0
1507444168 -0.07351554930210114 -0.02928471937775612 0.026769667863845825 -0.03706967458128929 0 0 0 0
1511166252 -0.05787273868918419 -0.00430547259747982 0.020685549825429916 -0.04126422479748726 0 0 0 0
1514888336 -0.03581100329756737 0.019009403884410858 0.012864608317613602 -0.044844817370176315 0 0 0 0
1518610420 -0.007561745122075081 0.03847268223762512 0.0039601875469088554 -0.046400465071201324 0 0 0 0
1522332504 0.0264593418687582 0.053528085350990295 -0.005692780017852783 -0.04534352943301201 0 0 0 0
1526054588 0.0651182308793068 0.06179496645927429 -0.014408287592232227 -0.04165557399392128 0 0 0 0
1529776672 0.10635311901569366 0.0640246719121933 -0.021154696121811867 -0.03581783175468445 0 0 0 0
1533498756 0.149408757686615 0.05714317411184311 -0.025508910417556763 -0.02902001328766346 0 0 0 0
1537220840 0.19347068667411804 0.04054772108793259 -0.027792366221547127 -0.02253275364637375 0 0 0 0
1540942924 0.23359616100788116 0.015614554286003113 -0.028738882392644882 -0.016753079369664192 0 0 0 0
1544665008 0.26945772767066956 -0.013624817132949829 -0.02876141667366028 -0.011854249984025955 0 0 0 0
1548387092 0.3001755475997925 -0.053366854786872864 -0.0281504038721323 -0.006826451979577541 0 0 0 0
1552109176 0.3262404501438141 -0.09468621015548706 -0.026597078889608383 -0.003333919681608677 0 0 0 0
1555831260 0.34436023235321045 -0.14248597621917725 -0.02528434619307518 -0.0006078416481614113 0 0 0 0
1559553344 0.35308775305747986 -0.19643518328666687 -0.02479897066950798 0.0018407832831144333 0 0 0 0
1563275428 0.3549934923648834 -0.24893173575401306 -0.02412741631269455 0.005171699449419975 0 0 0 0
1566997512 0.3447095453739166 -0.3025672137737274 -0.022358497604727745 0.008594470098614693 0 0 0 0
1570719596 0.33047300577163696 -0.3536089062690735 -0.01980668678879738 0.011281200684607029 0 0 0 0
1574441680 0.3044753074645996 -0.40498948097229004 -0.016875585541129112 0.013135751709342003 0 0 0 0
1578163764 0.2706608474254608 -0.44947192072868347 -0.014242232777178288 0.014085303992033005 0 0 0 0
1581885848 0.23381365835666656 -0.48929187655448914 -0.01216943934559822 0.014671473763883114 0 0 0 0
1585607932 0.18953250348567963 -0.5244991779327393 -0.010333970189094543 0.015287592075765133 0 0 0 0
1589330016 0.13893628120422363 -0.5525403022766113 -0.008355515077710152 0.015913940966129303 0 0 0 0
1593052100 0.08435633778572083 -0.5734608173370361 -0.006704850122332573 0.01633164845407009 0 0 0 0
1596774184 0.02166152000427246 -0.5867356061935425 -0.004835432395339012 0.016823388636112213 0 0 0 0
1600496268 -0.03543312847614288 -0.5900565981864929 -0.0033931368961930275 0.01735367253422737 0 0 0 0
1604218352 -0.09777408838272095 -0.585468053817749 -0.0013773413375020027 0.018079029396176338 0 0 0 0
1607940436 -0.15689235925674438 -0.5720227956771851 0.0011018617078661919 0.018512019887566566 0 0 0 0
1611662520 -0.21418547630310059 -0.5517480969429016 0.0038497671484947205 0.018638158217072487 0 0 0 0
1615384604 -0.27378106117248535 -0.5188754796981812 0.0068673426285386086 0.018165601417422295 0 0 0 0
1619106688 -0.3264177739620209 -0.4769093990325928 0.009865297935903072 0.017211640253663063 0 0 0 0
1622828772 -0.3730618357658386 -0.42698079347610474 0.012891207821667194 0.015460554510354996 0 0 0 0
1626550856 -0.41363975405693054 -0.36955156922340393 0.015338660217821598 0.013108938001096249 0 0 0 0
1630272940 -0.4422479271888733 -0.30583104491233826 0.017225034534931183 0.01035118568688631 0 0 0 0
1633995024 -0.46336138248443604 -0.23796789348125458 0.018625184893608093 0.0073010558262467384 0 0 0 0
1637717108 -0.47498565912246704 -0.16453534364700317 0.019550450146198273 0.0040288809686899185 0 0 0 0
1641439192 -0.47532564401626587 -0.0918186753988266 0.019925357773900032 0.0009972089901566505 0 0 0 0
1645161276 -0.4636693596839905 -0.016137439757585526 0.020060498267412186 -0.0023307930678129196 0 0 0 0
1648883360 -0.4396417438983917 0.054489634931087494 0.0196261964738369 -0.005799924023449421 0 0 0 0
1652605444 -0.4043346047401428 0.12410148978233337 0.01831272430717945 -0.009299859404563904 0 0 0 0
1656327528 -0.36007174849510193 0.18568189442157745 0.016476387158036232 -0.012736830860376358 0 0 0 0
1660049612 -0.30414941906929016 0.2416929304599762 0.013683482073247433 -0.015688203275203705 0 0 0 0
1663771696 -0.24118059873580933 0.28900355100631714 0.010153304785490036 -0.017962269484996796 0 0 0 0
1667493780 -0.1702612340450287 0.3277524411678314 0.006084219552576542 -0.01928352192044258 0 0 0 0
1671215864 -0.09355871379375458 0.3537517488002777 0.0019096126779913902 -0.01956804096698761 0 0 0 0
1674937948 -0.011375024914741516 0.3683236241340637 -0.002096656709909439 -0.018642742186784744 0 0 0 0
1678660032 0.06963271647691727 0.36934855580329895 -0.005444018170237541 -0.016684820875525475 0 0 0 0
1682382116 0.14878547191619873 0.3585224151611328 -0.007802554406225681 -0.014416541904211044 0 0 0 0
1686104200 0.22925975918769836 0.3340843915939331 -0.009316837415099144 -0.01208049338310957 0 0 0 0
1689826284 0.30420762300491333 0.2961418032646179 -0.010513991117477417 -0.009924151934683323 0 0 0 0
1693548368 0.3702353835105896 0.25085675716400146 -0.01140312384814024 -0.007683787494897842 0 0 0 0
1697270452 0.42898237705230713 0.19406525790691376 -0.011880635283887386 -0.005395395681262016 0 0 0 0
1700992536 0.4786531329154968 0.1316351294517517 -0.011866707354784012 -0.002999669872224331 0 0 0 0
1704714620 0.5178130865097046 0.056228749454021454 -0.011369038373231888 -0.0008456651121377945 0 0 0 0
1708436704 0.5437874794006348 -0.0190354585647583 -0.010315638035535812 0.0008771903812885284 0 0 0 0
1712158788 0.5587694048881531 -0.09455342590808868 -0.008887956850230694 0.0019968682900071144 0 0 0 0
1715880872 0.5595663785934448 -0.17878521978855133 -0.007710964418947697 0.0026086270809173584 0 0 0 0
1719602956 0.549298882484436 -0.25623559951782227 -0.006938064470887184 0.00280617643147707 0 0 0 0
1723325040 0.5279213190078735 -0.3294886350631714 -0.0062667932361364365 0.0030121151357889175 0 0 0 0
1727047124 0.4973077178001404 -0.3992908298969269 -0.005932865664362907 0.003342879004776478 0 0 0 0
1730769208 0.4544418156147003 -0.4623550474643707 -0.005455889739096165 0.0037878798320889473 0 0 0 0
1734491292 0.4051058292388916 -0.5192804932594299 -0.004913445562124252 0.004148728214204311 0 0 0 0
1738213376 0.34452182054519653 -0.5681427121162415 -0.004375479184091091 0.004373577423393726 0 0 0 0
1741935460 0.28356388211250305 -0.6050232648849487 -0.0036853235214948654 0.004310506395995617 0 0 0 0
1745657544 0.214627206325531 -0.6338448524475098 -0.0035325391218066216 0.004185846075415611 0 0 0 0
1749379628 0.13726899027824402 -0.6505404114723206 -0.0036837495863437653 0.004094603471457958 0 0 0 0
1753101712 0.06838933378458023 -0.6559479236602783 -0.003985315561294556 0.00445249117910862 0 0 0 0
1756823796 -0.00023600459098815918 -0.6496474742889404 -0.004273924045264721 0.005286375992000103 0 0 0 0
1760545880 -0.07059582322835922 -0.6348000764846802 -0.004057217389345169 0.00644860602915287 0 0 0 0
1764267964 -0.13711383938789368 -0.6084604859352112 -0.003380431793630123 0.007647239603102207 0 0 0 0
1767990048 -0.20015545189380646 -0.5714523792266846 -0.0021890848875045776 0.008928769268095493 0 0 0 0
1771712132 -0.2479620724916458 -0.5284069776535034 -0.0006889691576361656 0.009692058898508549 0 0 0 0
1775434216 -0.29489865899086 -0.4791105389595032 0.0010556112974882126 0.009822973050177097 0 0 0 0
1779156300 -0.33185818791389465 -0.4215192496776581 0.0027536489069461823 0.00965192448347807 0 0 0 0
1782878384 -0.35866209864616394 -0.3637445271015167 0.004041292704641819 0.009112555533647537 0 0 0 0
1786600468 -0.3781101703643799 -0.300442099571228 0.005119746550917625 0.008455155417323112 0 0 0 0
1790322552 -0.3869439661502838 -0.2358999252319336 0.006070827133953571 0.007946981117129326 0 0 0 0
1794044636 -0.38631153106689453 -0.17107409238815308 0.007091996259987354 0.00751087162643671 0 0 0 0
1797766720 -0.37533220648765564 -0.10607336461544037 0.008040513843297958 0.006697364151477814 0 0 0 0
1801488804 -0.354772686958313 -0.046421512961387634 0.008811501786112785 0.006535261869430542 0 0 0 0
1805210888 -0.32698333263397217 0.007826045155525208 0.010468948632478714 0.006483426317572594 0 0 0 0
1808932972 -0.2902736961841583 0.060298096388578415 0.012786896899342537 0.005571198649704456 0 0 0 0
1812655056 -0.2462000548839569 0.10493560135364532 0.015300163067877293 0.0033951299265027046 0 0 0 0
1816377140 -0.1973184496164322 0.13829222321510315 0.016926487907767296 0.0006460752338171005 0 0 0 0
1820099224 -0.1425570845603943 0.16704382002353668 0.017919978126883507 -0.00318899005651474 0 0 0 0
1823821308 -0.08411702513694763 0.18428316712379456 0.017744263634085655 -0.0074167400598526 0 0 0 0
1827543392 -0.02612527459859848 0.191683828830719 0.01601344905793667 -0.011107217520475388 0 0 0 0
1831265476 0.03232958912849426 0.1894991546869278 0.013769909739494324 -0.014041416347026825 0 0 0 0
1834987560 0.08629938960075378 0.17902931571006775 0.011407336220145226 -0.016813019290566444 0 0 0 0
1838709644 0.138104647397995 0.1602080762386322 0.007435009814798832 -0.019617388024926186 0 0 0 0
1842431728 0.1849876046180725 0.1357783079147339 0.002986564300954342 -0.020364299416542053 0 0 0 0
1846153812 0.2272019386291504 0.102505162358284 -0.0009713126346468925 -0.01919480785727501 0 0 0 0
1849875896 0.2620404362678528 0.06346513330936432 -0.003012310713529587 -0.018242113292217255 0 0 0 0
1853597980 0.29018619656562805 0.01895899325609207 -0.004966976121068001 -0.01810636557638645 0 0 0 0
1857320064 0.3082205057144165 -0.025611817836761475 -0.007781911641359329 -0.018019601702690125 0 0 0 0
1861042148 0.3186376094818115 -0.0752316564321518 -0.011127706617116928 -0.017229290679097176 0 0 0 0
1864764232 0.3209483027458191 -0.12177110463380814 -0.014306040480732918 -0.015915822237730026 0 0 0 0
1868486316 0.313933789730072 -0.16726142168045044 -0.01769709773361683 -0.013585066422820091 0 0 0 0
1872208400 0.3000504970550537 -0.20984606444835663 -0.020559795200824738 -0.010128272697329521 0 0 0 0
1875930484 0.28250521421432495 -0.24557796120643616 -0.022793307900428772 -0.00584047194570303 0 0 0 0
1879652568 0.25474613904953003 -0.27996283769607544 -0.023607375100255013 -0.0013447385281324387 0 0 0 0
1883374652 0.22488394379615784 -0.30634331703186035 -0.023666538298130035 0.0030269986018538475 0 0 0 0
1887096736 0.1939314752817154 -0.3244686722755432 -0.022713553160429 0.0072068460285663605 0 0 0 0
1890818820 0.16045212745666504 -0.3373752236366272 -0.02095045894384384 0.01093712542206049 0 0 0 0
1894540904 0.1246345192193985 -0.34559810161590576 -0.018981507048010826 0.014059167355298996 0 0 0 0
1898262988 0.09495995938777924 -0.3473028242588043 -0.01679147221148014 0.017178673297166824 0 0 0 0
1901985072 0.06139581277966499 -0.34394025802612305 -0.013804084621369839 0.020344072952866554 0 0 0 0
1905707156 0.030561009421944618 -0.33492863178253174 -0.010241998359560966 0.022664863616228104 0 0 0 0
1909429240 0.0015492215752601624 -0.322232723236084 -0.005960785783827305 0.024342002347111702 0 0 0 0
1913151324 -0.023348450660705566 -0.3040376305580139 -0.0019741272553801537 0.025235556066036224 0 0 0 0
1916873408 -0.043088749051094055 -0.2827189564704895 0.0026937006041407585 0.02551906555891037 0 0 0 0
1920595492 -0.06061956286430359 -0.2579292953014374 0.0072290366515517235 0.025009768083691597 0 0 0 0
1924317576 -0.07162393629550934 -0.2308523803949356 0.011472235433757305 0.024402298033237457 0 0 0 0
1928039660 -0.07690651714801788 -0.202703595161438 0.01707288809120655 0.022604836151003838 0 0 0 0
1931761744 -0.07736298441886902 -0.17513316869735718 0.022434037178754807 0.0186033695936203 0 0 0 0
1935483828 -0.07154785841703415 -0.14834335446357727 0.026321537792682648 0.012680310755968094 0 0 0 0
1939205912 -0.06195632740855217 -0.12534266710281372 0.027591921389102936 0.006104315631091595 0 0 0 0
1942927996 -0.04924662783741951 -0.1048227921128273 0.02718648873269558 8.336640894412994e-05 0 0 0 0
1946650080 -0.03575514256954193 -0.08640722930431366 0.02528982423245907 -0.0053498344495892525 0 0 0 0
1950372164 -0.018670786172151566 -0.07112236320972443 0.02258133888244629 -0.009285150095820427 0 0 0 0
1954094248 0.00026802532374858856 -0.05789155140519142 0.019578486680984497 -0.012630019336938858 0 0 0 0
1957816332 0.02208101563155651 -0.04789174348115921 0.016383176669478416 -0.01549483835697174 0 0 0 0
1961538416 0.044724732637405396 -0.04246127977967262 0.012688811868429184 -0.017583124339580536 0 0 0 0
1965260500 0.06911063939332962 -0.04043445736169815 0.008781529031693935 -0.017924780026078224 0 0 0 0
1968982584 0.09341277182102203 -0.04416000097990036 0.006133857183158398 -0.01774832233786583 0 0 0 0
1972704668 0.11578980833292007 -0.05252522975206375 0.003976132720708847 -0.017546340823173523 0 0 0 0
1976426752 0.13580544292926788 -0.06523795425891876 0.002293745055794716 -0.01817309856414795 0 0 0 0
1980148836 0.15378864109516144 -0.08032052218914032 0.0002099713310599327 -0.019033361226320267 0 0 0 0
1983870920 0.16777709126472473 -0.09917198121547699 -0.0031622666865587234 -0.0196969173848629 0 0 0 0
1987593004 0.17777231335639954 -0.11900530755519867 -0.006521671079099178 -0.0192292220890522 0 0 0 0
1991315088 0.18428534269332886 -0.1399325579404831 -0.009974587708711624 -0.01835167221724987 0 0 0 0
1995037172 0.18784953653812408 -0.16136674582958221 -0.013105802237987518 -0.01688595861196518 0 0 0 0
1998759256 0.18507054448127747 -0.18431705236434937 -0.016551263630390167 -0.01489840354770422 0 0 0 0
2002481340 0.18166005611419678 -0.20500069856643677 -0.01948368176817894 -0.012431098148226738 0 0 0 0
2006203424 0.1716988980770111 -0.22703561186790466 -0.022017868235707283 -0.00822385959327221 0 0 0 0
2009925508 0.15897299349308014 -0.24612247943878174 -0.02361871860921383 -0.00382137019187212 0 0 0 0
2013647592 0.1442294865846634 -0.2610650658607483 -0.023992743343114853 0.000622972846031189 0 0 0 0
2017369676 0.1231987252831459 -0.2755333483219147 -0.023464996367692947 0.004812371917068958 0 0 0 0
2021091760 0.10181253403425217 -0.2855086922645569 -0.022395899519324303 0.009092532098293304 0 0 0 0
2024813844 0.08189167827367783 -0.2900350093841553 -0.020427875220775604 0.012751303613185883 0 0 0 0
2028535928 0.05770965665578842 -0.28939199447631836 -0.017963381484150887 0.01596919074654579 0 0 0 0
2032258012 0.03467659652233124 -0.2879470884799957 -0.015035425312817097 0.018935266882181168 0 0 0 0
2035980096 0.012610524892807007 -0.28141310811042786 -0.01116969808936119 0.021349385380744934 0 0 0 0
2039702180 -0.006170481443405151 -0.27330344915390015 -0.007288701832294464 0.02286296710371971 0 0 0 0
2043424264 -0.02712133526802063 -0.261336088180542 -0.0027327006682753563 0.023454034700989723 0 0 0 0
2047146348 -0.046569932252168655 -0.24644659459590912 0.0008792206645011902 0.023179639130830765 0 0 0 0
2050868432 -0.06471362709999084 -0.22765132784843445 0.004528973251581192 0.022185346111655235 0 0 0 0
2054590516 -0.07880452275276184 -0.20447123050689697 0.007279828190803528 0.021179478615522385 0 0 0 0
2058312600 -0.0869334265589714 -0.1786482334136963 0.01045212708413601 0.020301375538110733 0 0 0 0
2062034684 -0.09403510391712189 -0.1515689194202423 0.014009581878781319 0.018619954586029053 0 0 0 0
2065756768 -0.09371669590473175 -0.12474450469017029 0.017223844304680824 0.016174176707863808 0 0 0 0
2069478852 -0.09238698333501816 -0.09655208885669708 0.020407594740390778 0.012410704977810383 0 0 0 0
2073200936 -0.08525557816028595 -0.06926232576370239 0.022145777940750122 0.008606990799307823 0 0 0 0
2076923020 -0.0735628679394722 -0.04204387962818146 0.022914167493581772 0.00399391632527113 0 0 0 0
2080645104 -0.0574127733707428 -0.017052778974175453 0.022444594651460648 -8.687097579240799e-05 0 0 0 0
2084367188 -0.03783448785543442 0.0070360926911234856 0.02147878147661686 -0.0032424721866846085 0 0 0 0
2088089272 -0.013380310498178005 0.02833099290728569 0.02058611437678337 -0.006208665668964386 0 0 0 0
2091811356 0.015002013184130192 0.04540136829018593 0.020070744678378105 -0.008704583160579205 0 0 0 0
2095533440 0.04676979407668114 0.05765978991985321 0.019188661128282547 -0.01231422834098339 0 0 0 0
2099255524 0.08046089857816696 0.06564465165138245 0.017058739438652992 -0.016106881201267242 0 0 0 0
2102977608 0.11707404255867004 0.06689813733100891 0.014235308393836021 -0.01919911429286003 0 0 0 0
2106699692 0.15332049131393433 0.06043887138366699 0.010535173118114471 -0.022205404937267303 0 0 0 0
2110421776 0.18786528706550598 0.04860175400972366 0.006270617246627808 -0.02472078427672386 0 0 0 0
2114143860 0.22047995030879974 0.03035026788711548 0.0011419067159295082 -0.026271522045135498 0 0 0 0
2117865944 0.2479833960533142 0.004200898110866547 -0.005170845426619053 -0.026176653802394867 0 0 0 0
2121588028 0.27033093571662903 -0.022756442427635193 -0.010910924524068832 -0.024206694215536118 0 0 0 0
2125310112 0.2873384356498718 -0.05325821787118912 -0.01559997908771038 -0.021094365045428276 0 0 0 0
2129032196 0.298586368560791 -0.08734825998544693 -0.019399520009756088 -0.016834231093525887 0 0 0 0
2132754280 0.305483877658844 -0.1179150864481926 -0.022124864161014557 -0.01204700581729412 0 0 0 0
2136476364 0.3058370053768158 -0.1546325981616974 -0.02351587824523449 -0.006576458923518658 0 0 0 0
2140198448 0.3020463287830353 -0.1860228180885315 -0.02324790321290493 -0.0012165280058979988 0 0 0 0
2143920532 0.2938517928123474 -0.2181670069694519 -0.021724369376897812 0.0030982624739408493 0 0 0 0
2147642616 0.2778763771057129 -0.25011181831359863 -0.019435863941907883 0.006591367535293102 0 0 0 0
2151364700 0.26017650961875916 -0.27530986070632935 -0.017392463982105255 0.0089320819824934 0 0 0 0
2155086784 0.23533916473388672 -0.3000887632369995 -0.015188154764473438 0.011215528473258018 0 0 0 0
2158808868 0.20743459463119507 -0.3185098469257355 -0.013048706576228142 0.01288946159183979 0 0 0 0
2162530952 0.1837262213230133 -0.32993704080581665 -0.01109039131551981 0.014501110650599003 0 0 0 0
2166253036 0.15157252550125122 -0.34037870168685913 -0.008271691389381886 0.016276169568300247 0 0 0 0
2169975120 0.12071327120065689 -0.3459368050098419 -0.0050940075889229774 0.01721581630408764 0 0 0 0
2173697204 0.09047974646091461 -0.3467073440551758 -0.0015563275665044785 0.017123814672231674 0 0 0 0
2177419288 0.05920446664094925 -0.3418242335319519 0.0010672835633158684 0.016045954078435898 0 0 0 0
2181141372 0.030163615942001343 -0.3319891393184662 0.0031532850116491318 0.014954853802919388 0 0 0 0
2184863456 0.0029359161853790283 -0.3177127540111542 0.004977197386324406 0.014005184173583984 0 0 0 0
2188585540 -0.019923314452171326 -0.2998742163181305 0.007006434723734856 0.013017237186431885 0 0 0 0
2192307624 -0.04521343857049942 -0.2789868116378784 0.009084504097700119 0.011618913151323795 0 0 0 0
2196029708 -0.06280864775180817 -0.25403305888175964 0.010599417611956596 0.009971565566956997 0 0 0 0
2199751792 -0.07687799632549286 -0.22728762030601501 0.012126661837100983 0.008216176182031631 0 0 0 0
2203473876 -0.08767438679933548 -0.19571194052696228 0.013359222561120987 0.0058440472930669785 0 0 0 0
2207195960 -0.0907474011182785 -0.16720636188983917 0.013711713254451752 0.003231472335755825 0 0 0 0
2210918044 -0.09030434489250183 -0.13655595481395721 0.013587938621640205 0.0005492130294442177 0 0 0 0
2214640128 -0.08853033185005188 -0.10292483866214752 0.013047595508396626 -0.0016669277101755142 0 0 0 0
2218362212 -0.07688091695308685 -0.07423613965511322 0.012539539486169815 -0.0037813400849699974 0 0 0 0
2222084296 -0.06302308291196823 -0.04250777140259743 0.01146676391363144 -0.005747768096625805 0 0 0 0
2225806380 -0.04144631326198578 -0.015019894577562809 0.009770834818482399 -0.00750854704529047 0 0 0 0
2229528464 -0.014733504503965378 0.007931885309517384 0.0078100357204675674 -0.009004408493638039 0 0 0 0
2233250548 0.0166542436927557 0.02496897429227829 0.005736233666539192 -0.010165538638830185 0 0 0 0
2236972632 0.050103068351745605 0.035024359822273254 0.0035288846120238304 -0.01081019639968872 0 0 0 0
2240694716 0.08415253460407257 0.03975149616599083 0.0015655523166060448 -0.01082176435738802 0 0 0 0
2244416800 0.11855274438858032 0.03644741699099541 0.00010517332702875137 -0.010342983528971672 0 0 0 0
2248138884 0.150726318359375 0.023405782878398895 -0.0018646502867341042 -0.009996054694056511 0 0 0 0
2251860968 0.17973878979682922 0.009137362241744995 -0.0038201594725251198 -0.009878362528979778 0 0 0 0
2255583052 0.20548413693904877 -0.005266740918159485 -0.005200105719268322 -0.008667484857141972 0 0 0 0
2259305136 0.22699324786663055 -0.030947323888540268 -0.005813919007778168 -0.007011762820184231 0 0 0 0
2263027220 0.24308286607265472 -0.058812666684389114 -0.006313776597380638 -0.005607473663985729 0 0 0 0
2266749304 0.25358790159225464 -0.08525599539279938 -0.006326890550553799 -0.004707564599812031 0 0 0 0
2270471388 0.257162868976593 -0.11867504566907883 -0.0062813665717840195 -0.0036419788375496864 0 0 0 0
2274193472 0.25947603583335876 -0.14336830377578735 -0.0060766516253352165 -0.0029818220064044 0 0 0 0
2277915556 0.252189576625824 -0.17109493911266327 -0.00562211312353611 -0.0029530003666877747 0 0 0 0
2281637640 0.24138931930065155 -0.1991661787033081 -0.0058861393481493 -0.0033555366098880768 0 0 0 0
2285359724 0.2282620519399643 -0.22167937457561493 -0.006802546791732311 -0.003163921646773815 0 0 0 0
2289081808 0.20520184934139252 -0.2477080523967743 -0.007686088792979717 -0.0028125829994678497 0 0 0 0
2292803892 0.18493802845478058 -0.2626402974128723 -0.008598508313298225 -0.0022303108125925064 0 0 0 0
2296525976 0.16286739706993103 -0.2729845643043518 -0.009869610890746117 -0.0012642210349440575 0 0 0 0
2300248060 0.133524551987648 -0.2809673249721527 -0.01063989382237196 0.0006203865632414818 0 0 0 0
2303970144 0.11933956295251846 -0.2845489978790283 -0.010458209551870823 0.0029710233211517334 0 0 0 0
2307692228 0.09011352062225342 -0.2815853953361511 -0.009662482887506485 0.0047324346378445625 0 0 0 0
2311414312 0.05879645794630051 -0.27863818407058716 -0.008401472121477127 0.005992047488689423 0 0 0 0
2315136396 0.0315682515501976 -0.26928767561912537 -0.006960795260965824 0.006809205748140812 0 0 0 0
2318858480 0.013429433107376099 -0.2558058500289917 -0.005834114737808704 0.007101584225893021 0 0 0 0
2322580564 -0.014743559062480927 -0.23631659150123596 -0.004958070814609528 0.007449747063219547 0 0 0 0
2326302648 -0.02755087986588478 -0.21353021264076233 -0.004320998676121235 0.007696617394685745 0 0 0 0
2330024732 -0.03861469030380249 -0.18834222853183746 -0.0036720838397741318 0.00826406292617321 0 0 0 0
2333746816 -0.049018047749996185 -0.16097703576087952 -0.002488546073436737 0.008757630363106728 0 0 0 0
2337468900 -0.04913836717605591 -0.1334095299243927 -0.0011176606640219688 0.009097926318645477 0 0 0 0
2341190984 -0.05070843547582626 -0.10251811146736145 0.0005140760913491249 0.00872347317636013 0 0 0 0
2344913068 -0.04393027350306511 -0.07399094104766846 0.0016215471550822258 0.008143138140439987 0 0 0 0
2348635152 -0.031656257808208466 -0.04638674855232239 0.0025503626093268394 0.0074035851284861565 0 0 0 0
2352357236 -0.013927015475928783 -0.021123094484210014 0.003160526044666767 0.006567123346030712 0 0 0 0
2356079320 0.0084014181047678 0.0006411755457520485 0.003910929895937443 0.005998813547194004 0 0 0 0
2359801404 0.03392203524708748 0.016973882913589478 0.004795129410922527 0.0050728656351566315 0 0 0 0
2363523488 0.06135986000299454 0.027768246829509735 0.005309641361236572 0.0035083964467048645 0 0 0 0
2367245572 0.0895637720823288 0.03522240370512009 0.005051471292972565 0.0022635189816355705 0 0 0 0
2370967656 0.11795792728662491 0.03836354985833168 0.004307706840336323 0.0009448742493987083 0 0 0 0
2374689740 0.14803190529346466 0.03648490458726883 0.003286902792751789 0.00047889072448015213 0 0 0 0
2378411824 0.17774587869644165 0.030651867389678955 0.0024879584088921547 0.000524548813700676 0 0 0 0
2382133908 0.20707044005393982 0.020691698417067528 0.0020763175562024117 0.0008959444239735603 0 0 0 0
2385855992 0.23343977332115173 0.0015251785516738892 0.0020123980939388275 0.0010973792523145676 0 0 0 0
2389578076 0.2576258182525635 -0.019895188510417938 0.002302197739481926 0.0013726437464356422 0 0 0 0
2393300160 0.27615177631378174 -0.044942550361156464 0.002636801451444626 0.0012983595952391624 0 0 0 0
2397022244 0.2907090187072754 -0.07326613366603851 0.003057376481592655 0.0010032691061496735 0 0 0 0
2400744328 0.29950541257858276 -0.1063414141535759 0.003447944298386574 0.0004134140908718109 0 0 0 0
2404466412 0.3019111156463623 -0.1350913643836975 0.0036412766203284264 -0.0005149710923433304 0 0 0 0
2408188496 0.30149152874946594 -0.16652871668338776 0.0034767920151352882 -0.0010703541338443756 0 0 0 0
2411910580 0.2944861352443695 -0.19380402565002441 0.0030189864337444305 -0.002101433463394642 0 0 0 0
2415632664 0.28365594148635864 -0.2219887375831604 0.0023983363062143326 -0.0027101989835500717 0 0 0 0
2419354748 0.26606476306915283 -0.24919864535331726 0.0015021730214357376 -0.003011230379343033 0 0 0 0
2423076832 0.2490820586681366 -0.27049490809440613 0.0007073245942592621 -0.002891065552830696 0 0 0 0
2426798916 0.22547806799411774 -0.2890280485153198 -0.0001239422708749771 -0.002853555604815483 0 0 0 0
2430521000 0.2039462924003601 -0.303133487701416 -0.0006242655217647552 -0.0022256234660744667 0 0 0 0
2434243084 0.17748653888702393 -0.3144737184047699 -0.0008789459243416786 -0.0015364065766334534 0 0 0 0
2437965168 0.15254193544387817 -0.32294729351997375 -0.0005269106477499008 -0.0010032141581177711 0 0 0 0
2441687252 0.1261061131954193 -0.32799217104911804 0.00016746949404478073 -0.0008301762863993645 0 0 0 0
2445409336 0.09896756708621979 -0.33058345317840576 0.0008038012310862541 -0.0010617049410939217 0 0 0 0
2449131420 0.07143308222293854 -0.32755985856056213 0.001140671782195568 -0.0018420163542032242 0 0 0 0
2452853504 0.043810904026031494 -0.3214731812477112 0.0008307835087180138 -0.0025880541652441025 0 0 0 0
2456575588 0.01640181615948677 -0.3096599578857422 0.000581882894039154 -0.003170117735862732 0 0 0 0
2460297672 -0.008973043411970139 -0.2942519187927246 -0.00011296290904283524 -0.003604508936405182 0 0 0 0
2464019756 -0.03437843918800354 -0.27541011571884155 -0.0007117446511983871 -0.0038532912731170654 0 0 0 0
2467741840 -0.05451701581478119 -0.2522449791431427 -0.0011382903903722763 -0.0040646083652973175 0 0 0 0
2471463924 -0.070677250623703 -0.2257770299911499 -0.0016851602122187614 -0.004296686500310898 0 0 0 0
2475186008 -0.08136242628097534 -0.19686181843280792 -0.002543235197663307 -0.00458863377571106 0 0 0 0
2478908092 -0.08700871467590332 -0.1669275015592575 -0.0034757545217871666 -0.004803821444511414 0 0 0 0
2482630176 -0.08805146813392639 -0.13434191048145294 -0.004707697778940201 -0.004670795053243637 0 0 0 0
2486352260 -0.08477241545915604 -0.10380968451499939 -0.005654260516166687 -0.00399106927216053 0 0 0 0
2490074344 -0.07476845383644104 -0.07550960779190063 -0.0064344750717282295 -0.00325800571590662 0 0 0 0
2493796428 -0.06166001409292221 -0.04929359629750252 -0.007134770043194294 -0.002576759085059166 0 0 0 0
2497518512 -0.045547276735305786 -0.02609007991850376 -0.007807943969964981 -0.0019044587388634682 0 0 0 0
2501240596 -0.026944588869810104 -0.004381587728857994 -0.008343357592821121 -0.0008911686018109322 0 0 0 0
2504962680 -0.0047934409230947495 0.013815685175359249 -0.008967820554971695 0.00031573884189128876 0 0 0 0
2508684764 0.020089082419872284 0.02825617976486683 -0.009262589737772942 0.0015538288280367851 0 0 0 0
2512406848 0.04710729792714119 0.038710229098796844 -0.009109463542699814 0.0031106136739253998 0 0 0 0
2516128932 0.07531114667654037 0.04398808255791664 -0.009088059887290001 0.004533318802714348 0 0 0 0
2519851016 0.10342644900083542 0.04598064720630646 -0.008510240353643894 0.006326480768620968 0 0 0 0
2523573100 0.1308870017528534 0.04218260571360588 -0.0074836211279034615 0.007598315365612507 0 0 0 0
2527295184 0.1582161784172058 0.033642034977674484 -0.006004631519317627 0.008550658822059631 0 0 0 0
2531017268 0.18370011448860168 0.022115446627140045 -0.0049634817987680435 0.009283767081797123 0 0 0 0
2534739352 0.20519275963306427 0.004978440701961517 -0.0036126263439655304 0.00999358482658863 0 0 0 0
2538461436 0.223002091050148 -0.015414617955684662 -0.002047654241323471 0.010534905828535557 0 0 0 0
2542183520 0.23710352182388306 -0.0348668098449707 -0.00053362175822258 0.01054838765412569 0 0 0 0
2545905604 0.24666407704353333 -0.056782424449920654 0.000878114253282547 0.010423654690384865 0 0 0 0
2549627688 0.2535191774368286 -0.08274634182453156 0.0023451698943972588 0.010372078977525234 0 0 0 0
2553349772 0.2557887136936188 -0.1046653613448143 0.0037357211112976074 0.01014685444533825 0 0 0 0
2557071856 0.25234612822532654 -0.12885314226150513 0.005412367172539234 0.009387106634676456 0 0 0 0
2560793940 0.24913780391216278 -0.1471092700958252 0.006699535995721817 0.008836260996758938 0 0 0 0
2564516024 0.24041979014873505 -0.16607820987701416 0.008167315274477005 0.007987996563315392 0 0 0 0
2568238108 0.2279011756181717 -0.1843602955341339 0.009780135937035084 0.006763916462659836 0 0 0 0
2571960192 0.21561934053897858 -0.19753962755203247 0.011339478194713593 0.005173793062567711 0 0 0 0
2575682276 0.20289801061153412 -0.20812533795833588 0.01254185475409031 0.003147585317492485 0 0 0 0
2579404360 0.18961867690086365 -0.2155812531709671 0.013353393413126469 0.0004434902220964432 0 0 0 0
2583126444 0.17682220041751862 -0.2231161892414093 0.013088926672935486 -0.00235939584672451 0 0 0 0
2586848528 0.16459345817565918 -0.2265983670949936 0.012547839432954788 -0.004950869828462601 0 0 0 0
2590570612 0.15100648999214172 -0.23064708709716797 0.011426042765378952 -0.007393320091068745 0 0 0 0
2594292696 0.1367766410112381 -0.2322298288345337 0.009679448790848255 -0.009436546824872494 0 0 0 0
2598014780 0.1222042590379715 -0.23246988654136658 0.007415748201310635 -0.011221782304346561 0 0 0 0
2601736864 0.11044230312108994 -0.22962269186973572 0.005138896405696869 -0.012322536669671535 0 0 0 0
2605458948 0.09721621125936508 -0.22601649165153503 0.00266338512301445 -0.012524859048426151 0 0 0 0
2609181032 0.08804818987846375 -0.21968597173690796 0.0008637215942144394 -0.012331513687968254 0 0 0 0
2612903116 0.07592906802892685 -0.21400180459022522 -0.0010962383821606636 -0.012186864390969276 0 0 0 0
2616625200 0.06943663954734802 -0.20620869100093842 -0.002730223350226879 -0.011527400463819504 0 0 0 0
2620347284 0.062157344073057175 -0.19750559329986572 -0.004396716132760048 -0.010850222781300545 0 0 0 0
2624069368 0.05576188489794731 -0.1888578087091446 -0.00574091449379921 -0.010107791051268578 0 0 0 0
2627791452 0.05404163897037506 -0.17932772636413574 -0.006151726469397545 -0.008726241067051888 0 0 0 0
2631513536 0.050790317356586456 -0.17066967487335205 -0.007088644430041313 -0.007863305509090424 0 0 0 0
2635235620 0.04911690950393677 -0.1605577915906906 -0.008077460341155529 -0.007228526286780834 0 0 0 0
2638957704 0.04871872812509537 -0.1528240591287613 -0.00917881354689598 -0.006387081928551197 0 0 0 0
2642679788 0.05153118446469307 -0.14184096455574036 -0.010303836315870285 -0.005232500843703747 0 0 0 0
2646401872 0.05652177333831787 -0.13491298258304596 -0.011285373009741306 -0.003824588842689991 0 0 0 0
2650123956 0.06282481551170349 -0.12745735049247742 -0.011943249963223934 -0.0022489745169878006 0 0 0 0
2653846040 0.06861093640327454 -0.12348323315382004 -0.012698940932750702 -0.00046503543853759766 0 0 0 0
2657568124 0.07432728260755539 -0.12079451233148575 -0.013065624982118607 0.0018921680748462677 0 0 0 0
2661290208 0.08240142464637756 -0.11883816123008728 -0.0128707280382514 0.004179636016488075 0 0 0 0
2665012292 0.08755096793174744 -0.11993389576673508 -0.01220670435577631 0.006599755957722664 0 0 0 0
2668734376 0.09175549447536469 -0.12249583005905151 -0.0109767597168684 0.009037823416292667 0 0 0 0
2672456460 0.09687680006027222 -0.12348870187997818 -0.009084253571927547 0.01106263604015112 0 0 0 0
2676178544 0.09817292541265488 -0.12689894437789917 -0.006589251570403576 0.012567153200507164 0 0 0 0
2679900628 0.10242260247468948 -0.1283678561449051 -0.003960330970585346 0.013789499178528786 0 0 0 0
2683622712 0.10488905757665634 -0.13156798481941223 -0.0009956145659089088 0.014156261458992958 0 0 0 0
2687344796 0.10606294870376587 -0.1367901712656021 0.002328251488506794 0.013903442770242691 0 0 0 0
2691066880 0.10889650136232376 -0.14142797887325287 0.005119439214468002 0.012776831164956093 0 0 0 0
2694788964 0.10784700512886047 -0.14733782410621643 0.007613618858158588 0.010936709120869637 0 0 0 0
2698511048 0.10653918981552124 -0.15339484810829163 0.009499602019786835 0.008498495444655418 0 0 0 0
2702233132 0.10595671832561493 -0.1586846262216568 0.010348872281610966 0.00614079087972641 0 0 0 0
2705955216 0.10021163523197174 -0.1662009060382843 0.01080418936908245 0.0036301035434007645 0 0 0 0
2709677300 0.09307621419429779 -0.17250339686870575 0.010681413114070892 0.001503092236816883 0 0 0 0
2713399384 0.08394670486450195 -0.17622427642345428 0.010467823594808578 -0.0002256082370877266 0 0 0 0
2717121468 0.07399333268404007 -0.178314670920372 0.01007839385420084 -0.00200725719332695 0 0 0 0
2720843552 0.0628126859664917 -0.1771979033946991 0.009740502573549747 -0.003791438415646553 0 0 0 0
2724565636 0.05285853520035744 -0.17474274337291718 0.008792544715106487 -0.005758076906204224 0 0 0 0
2728287720 0.042344830930233 -0.16947148740291595 0.007499232888221741 -0.007450432516634464 0 0 0 0
2732009804 0.03340963274240494 -0.1627257764339447 0.0058647384867072105 -0.00858326442539692 0 0 0 0
2735731888 0.023866068571805954 -0.1536501795053482 0.004128366708755493 -0.009492821991443634 0 0 0 0
2739453972 0.01623919978737831 -0.14241547882556915 0.0022311313077807426 -0.010019160807132721 0 0 0 0
2743176056 0.012565568089485168 -0.12866342067718506 0.0004724562168121338 -0.010402717627584934 0 0 0 0
2746898140 0.007747732102870941 -0.11475349217653275 -0.0014847591519355774 -0.01052512601017952 0 0 0 0
2750620224 0.008365615271031857 -0.09986541420221329 -0.0038639428094029427 -0.010077783837914467 0 0 0 0
2754342308 0.011124388314783573 -0.0852997824549675 -0.00614339392632246 -0.009115603752434254 0 0 0 0
2758064392 0.014984484761953354 -0.0710737556219101 -0.008024632930755615 -0.0072324443608522415 0 0 0 0
2761786476 0.023551996797323227 -0.057581789791584015 -0.009061493910849094 -0.005082787945866585 0 0 0 0
2765508560 0.032756976783275604 -0.04578029364347458 -0.009579475969076157 -0.0029378971084952354 0 0 0 0
2769230644 0.043027959764003754 -0.03493918105959892 -0.00967183243483305 -0.000669354572892189 0 0 0 0
2772952728 0.05677400901913643 -0.02434038743376732 -0.009182734414935112 0.0013420693576335907 0 0 0 0
2776674812 0.07185486704111099 -0.01728556491434574 -0.008083476684987545 0.002907954156398773 0 0 0 0
2780396896 0.08776257932186127 -0.012549985200166702 -0.00696840975433588 0.0042028892785310745 0 0 0 0
2784118980 0.10444870591163635 -0.010016240179538727 -0.0058777350932359695 0.005306782200932503 0 0 0 0
2787841064 0.12181222438812256 -0.008916657418012619 -0.004381981678307056 0.006405336782336235 0 0 0 0
2791563148 0.14012247323989868 -0.010878339409828186 -0.0028595635667443275 0.007064943201839924 0 0 0 0
2795285232 0.15730884671211243 -0.014233214780688286 -0.0010743644088506699 0.007104037329554558 0 0 0 0
2799007316 0.17582939565181732 -0.0239503663033247 0.0008167792111635208 0.006597836501896381 0 0 0 0
2802729400 0.1914110630750656 -0.033863842487335205 0.002075755037367344 0.005710430443286896 0 0 0 0
2806451484 0.2071564942598343 -0.04938719421625137 0.0028417520225048065 0.004801061935722828 0 0 0 0
2810173568 0.22024239599704742 -0.06303524971008301 0.003347235731780529 0.003985868766903877 0 0 0 0
2813895652 0.23123106360435486 -0.07924498617649078 0.004128019325435162 0.0034139491617679596 0 0 0 0
2817617736 0.23958498239517212 -0.10118016600608826 0.004776514135301113 0.0023801568895578384 0 0 0 0
2821339820 0.24345406889915466 -0.12109946459531784 0.004940691404044628 0.0012695984914898872 0 0 0 0
2825061904 0.24605318903923035 -0.1410437822341919 0.004864362068474293 0.00025803782045841217 0 0 0 0
2828783988 0.2475799322128296 -0.1623189002275467 0.0048450324684381485 -0.00033846497535705566 0 0 0 0
2832506072 0.2437330037355423 -0.18466751277446747 0.004701884463429451 -0.0013634143397212029 0 0 0 0
2836228156 0.23780277371406555 -0.20674601197242737 0.004572592675685883 -0.002179287374019623 0 0 0 0
2839950240 0.2258826196193695 -0.23232190310955048 0.003842907026410103 -0.0029676519334316254 0 0 0 0
2843672324 0.2161414474248886 -0.24881350994110107 0.00332462415099144 -0.00335489958524704 0 0 0 0
2847394408 0.20100341737270355 -0.26949235796928406 0.0029174983501434326 -0.0038467785343527794 0 0 0 0
2851116492 0.17973172664642334 -0.28575393557548523 0.0024311961606144905 -0.004278369247913361 0 0 0 0
2854838576 0.1621870994567871 -0.29622897505760193 0.0019802115857601166 -0.0048476820811629295 0 0 0 0
2858560660 0.14382147789001465 -0.30666524171829224 0.0012173885479569435 -0.005740741267800331 0 0 0 0
2862282744 0.11201660335063934 -0.3179473876953125 -1.963134855031967e-05 -0.006090167909860611 0 0 0 0
2866004828 0.09414306282997131 -0.3217550218105316 -0.0010286085307598114 -0.006007692776620388 0 0 0 0
2869726912 0.06878217309713364 -0.32239803671836853 -0.0021217428147792816 -0.005608897656202316 0 0 0 0
2873448996 0.04127051681280136 -0.32079094648361206 -0.003243890590965748 -0.005122357048094273 0 0 0 0
2877171080 0.014885257929563522 -0.3155629634857178 -0.004081539809703827 -0.004285641945898533 0 0 0 0
2880893164 -0.007755391299724579 -0.3079565465450287 -0.0046521760523319244 -0.003196283243596554 0 0 0 0
2884615248 -0.033201999962329865 -0.2966937720775604 -0.004922360181808472 -0.0022086314857006073 0 0 0 0
2888337332 -0.05219743400812149 -0.2819538414478302 -0.004992969334125519 -0.00111369788646698 0 0 0 0
2892059416 -0.07589048147201538 -0.2635346055030823 -0.004776680842041969 -0.00016953516751527786 0 0 0 0
2895781500 -0.09287632256746292 -0.24292652308940887 -0.004648122005164623 0.0006609484553337097 0 0 0 0
2899503584 -0.10913611203432083 -0.21975462138652802 -0.004334193654358387 0.0014142384752631187 0 0 0 0
2903225668 -0.12053920328617096 -0.19411636888980865 -0.0037687458097934723 0.002318049781024456 0 0 0 0
2906947752 -0.1296807825565338 -0.16696226596832275 -0.003169974312186241 0.0029874080792069435 0 0 0 0
2910669836 -0.13397392630577087 -0.13920971751213074 -0.002204209566116333 0.0035521062090992928 0 0 0 0
2914391920 -0.13479551672935486 -0.10912863910198212 -0.0014052269980311394 0.0038078632205724716 0 0 0 0
2918114004 -0.13098575174808502 -0.0791405439376831 -0.00029417313635349274 0.0038070054724812508 0 0 0 0
2921836088 -0.12265990674495697 -0.05193104222416878 0.00032368022948503494 0.0036385077983140945 0 0 0 0
2925558172 -0.11220844089984894 -0.02461669221520424 0.001016177237033844 0.0034346533939242363 0 0 0 0
2929280256 -0.09741683304309845 0.000331132672727108 0.0014537181705236435 0.003153976984322071 0 0 0 0
2933002340 -0.07865605503320694 0.021931415423750877 0.001873992383480072 0.003027261234819889 0 0 0 0
2936724424 -0.05779028311371803 0.042371802031993866 0.0025777695700526237 0.002864966168999672 0 0 0 0
2940446508 -0.03380715101957321 0.05853861942887306 0.0029820306226611137 0.002658388577401638 0 0 0 0
2944168592 -0.008948279544711113 0.07102590799331665 0.0035955719649791718 0.0021630069240927696 0 0 0 0
2947890676 0.017840377986431122 0.08096722513437271 0.004070811904966831 0.0017743641510605812 0 0 0 0
2951612760 0.04506973922252655 0.08704302459955215 0.004721537232398987 0.0012748325243592262 0 0 0 0
2955334844 0.07168056070804596 0.09017995744943619 0.0052350834012031555 0.0005397014319896698 0 0 0 0
2959056928 0.10150009393692017 0.08677864074707031 0.00569653045386076 -0.0005941828712821007 0 0 0 0
2962779012 0.12964753806591034 0.0810435563325882 0.005942578427493572 -0.0017408384010195732 0 0 0 0
2966501096 0.15494206547737122 0.07182580977678299 0.005666928365826607 -0.0033537056297063828 0 0 0 0
2970223180 0.17895720899105072 0.05823373794555664 0.004884851165115833 -0.0046948399394750595 0 0 0 0
2973945264 0.20010195672512054 0.04276132583618164 0.0036268262192606926 -0.005806545726954937 0 0 0 0
2977667348 0.21940059959888458 0.02288179099559784 0.002179582603275776 -0.006362609565258026 0 0 0 0
2981389432 0.23466593027114868 0.003148496150970459 0.0007530255243182182 -0.006406127475202084 0 0 0 0
2985111516 0.2479928731918335 -0.021002082154154778 -0.0006213374435901642 -0.0063612619414925575 0 0 0 0
2988833600 0.2569279074668884 -0.041710905730724335 -0.0018981313332915306 -0.005856893956661224 0 0 0 0
2992555684 0.26280564069747925 -0.0673835426568985 -0.0032245106995105743 -0.005043944343924522 0 0 0 0
2996277768 0.2665790021419525 -0.08959744870662689 -0.0040245093405246735 -0.0037206383422017097 0 0 0 0
2999999852 0.2669394910335541 -0.1118171215057373 -0.004705103114247322 -0.0025178492069244385 0 0 0 0
