# HZ S RI R 50
1500000000 -0.10125715285539627 -0.01628129929304123 0.043717849999666214 -0.02635025978088379 0 0 0 0
1503722084 -0.08260823041200638 0.009742114692926407 0.03778425604104996 -0.03190513700246811 0 0 0 0
1507444168 -0.057622455060482025 0.03220793232321739 0.03215501829981804 -0.03627251833677292 0 0 0 0
1511166252 -0.027115149423480034 0.04990215599536896 0.026207424700260162 -0.04042286053299904 0 0 0 0
1514888336 0.005321428179740906 0.06173913553357124 0.019780170172452927 -0.04359174519777298 0 0 0 0
1518610420 0.04032371938228607 0.06899593025445938 0.012416170910000801 -0.04613060504198074 0 0 0 0
1522332504 0.07723699510097504 0.07235235720872879 0.005336318165063858 -0.04805470630526543 0 0 0 0
1526054588 0.1159105896949768 0.0693608820438385 -0.004018695093691349 -0.04884609207510948 0 0 0 0
1529776672 0.15585008263587952 0.06078730896115303 -0.0135298827663064 -0.04627591371536255 0 0 0 0
1533498756 0.19644996523857117 0.044078484177589417 -0.02151353657245636 -0.04099171981215477 0 0 0 0
1537220840 0.2337380051612854 0.01975236088037491 -0.02711600996553898 -0.034805044531822205 0 0 0 0
1540942924 0.2672390043735504 -0.011946707963943481 -0.031134016811847687 -0.027961529791355133 0 0 0 0
1544665008 0.2969420552253723 -0.04553970694541931 -0.033251646906137466 -0.021643275395035744 0 0 0 0
1548387092 0.3203452527523041 -0.08828847110271454 -0.03436863794922829 -0.015337941236793995 0 0 0 0
1552109176 0.337573766708374 -0.13380298018455505 -0.034171681851148605 -0.009438673965632915 0 0 0 0
1555831260 0.3469359874725342 -0.18049481511116028 -0.033222366124391556 -0.0044843219220638275 0 0 0 0
1559553344 0.3500196635723114 -0.2314291149377823 -0.031793318688869476 -0.0001849159598350525 0 0 0 0
1563275428 0.34522438049316406 -0.2819030284881592 -0.030524009838700294 0.0036241095513105392 0 0 0 0
1566997512 0.33416813611984253 -0.33132317662239075 -0.02884524315595627 0.007311079651117325 0 0 0 0
1570719596 0.31084057688713074 -0.3831239938735962 -0.026627324521541595 0.010904120281338692 0 0 0 0
1574441680 0.28096550703048706 -0.427785187959671 -0.023980621248483658 0.013460630550980568 0 0 0 0
1578163764 0.2473757266998291 -0.46734511852264404 -0.021513044834136963 0.015552062541246414 0 0 0 0
1581885848 0.2095511257648468 -0.5027562379837036 -0.019492315128445625 0.017199909314513206 0 0 0 0
1585607932 0.16274493932724 -0.532184362411499 -0.017228076234459877 0.019346795976161957 0 0 0 0
1589330016 0.10995973646640778 -0.5578883290290833 -0.01483282633125782 0.021397005766630173 0 0 0 0
1593052100 0.054973408579826355 -0.5741928815841675 -0.01212763786315918 0.023272428661584854 0 0 0 0
1596774184 -0.003733038902282715 -0.5829050540924072 -0.00865591038018465 0.025048015639185905 0 0 0 0
1600496268 -0.0655042752623558 -0.5808354020118713 -0.004720922559499741 0.026113541796803474 0 0 0 0
1604218352 -0.1199285238981247 -0.5717443227767944 -0.0010092277079820633 0.02667253278195858 0 0 0 0
1607940436 -0.17838002741336823 -0.5521197319030762 0.00278678722679615 0.026444535702466965 0 0 0 0
1611662520 -0.23413223028182983 -0.5253991484642029 0.006913898512721062 0.02574045956134796 0 0 0 0
1615384604 -0.2876114547252655 -0.49029481410980225 0.010948987677693367 0.02455366775393486 0 0 0 0
1619106688 -0.3331524431705475 -0.45014411211013794 0.014728146605193615 0.022756339982151985 0 0 0 0
1622828772 -0.37221479415893555 -0.40057215094566345 0.018256302922964096 0.020084671676158905 0 0 0 0
1626550856 -0.4069402515888214 -0.3435860872268677 0.021377965807914734 0.016881350427865982 0 0 0 0
1630272940 -0.4323708713054657 -0.2815769612789154 0.02377362549304962 0.013255328871309757 0 0 0 0
1633995024 -0.4501919150352478 -0.21586181223392487 0.02602904476225376 0.009260597638785839 0 0 0 0
1637717108 -0.457306832075119 -0.14819134771823883 0.027691662311553955 0.004640069790184498 0 0 0 0
1641439192 -0.4550281763076782 -0.07965943217277527 0.02846185676753521 -0.00025023333728313446 0 0 0 0
1645161276 -0.4409279227256775 -0.009741216897964478 0.02846236526966095 -0.005845615640282631 0 0 0 0
1648883360 -0.4173160791397095 0.05713467299938202 0.027094580233097076 -0.011815677396953106 0 0 0 0
1652605444 -0.38397109508514404 0.12001214176416397 0.023541202768683434 -0.017159979790449142 0 0 0 0
1656327528 -0.3429461121559143 0.17802894115447998 0.018968850374221802 -0.020625995472073555 0 0 0 0
1660049612 -0.28993719816207886 0.2343757152557373 0.014529218897223473 -0.023206651210784912 0 0 0 0
1663771696 -0.22907984256744385 0.28064924478530884 0.009932322427630424 -0.025249294936656952 0 0 0 0
1667493780 -0.16058525443077087 0.317721962928772 0.004550064913928509 -0.026429850608110428 0 0 0 0
1671215864 -0.08757272362709045 0.3435957431793213 -0.0010416358709335327 -0.026301758363842964 0 0 0 0
1674937948 -0.007593385875225067 0.35825634002685547 -0.006465991958975792 -0.024343518540263176 0 0 0 0
1678660032 0.0739164650440216 0.3595779538154602 -0.010969482362270355 -0.020957326516509056 0 0 0 0
1682382116 0.15295565128326416 0.34839534759521484 -0.013640647754073143 -0.01724846661090851 0 0 0 0
1686104200 0.2315242439508438 0.3256879150867462 -0.015249296091496944 -0.013397963717579842 0 0 0 0
1689826284 0.30634960532188416 0.2881467640399933 -0.015857432037591934 -0.0098988376557827 0 0 0 0
1693548368 0.3730335831642151 0.241071417927742 -0.01596020720899105 -0.007150555960834026 0 0 0 0
1697270452 0.42894840240478516 0.1858537495136261 -0.016064370051026344 -0.0047512296587228775 0 0 0 0
1700992536 0.4783511161804199 0.1194005161523819 -0.016214370727539062 -0.002084345556795597 0 0 0 0
1704714620 0.5150795578956604 0.04663923382759094 -0.015944194048643112 0.0009215008467435837 0 0 0 0
1708436704 0.5396570563316345 -0.02974407561123371 -0.014600908383727074 0.003898749127984047 0 0 0 0
1712158788 0.5534063577651978 -0.10814245045185089 -0.012479636818170547 0.006135717034339905 0 0 0 0
1715880872 0.5547143220901489 -0.18329468369483948 -0.010029547847807407 0.0074210399761796 0 0 0 0
1719602956 0.5435295104980469 -0.26100724935531616 -0.007677649147808552 0.00770292803645134 0 0 0 0
1723325040 0.5232115983963013 -0.33533206582069397 -0.005905631929636002 0.007401116192340851 0 0 0 0
1727047124 0.4888697564601898 -0.40608397126197815 -0.0047793155536055565 0.007086112163960934 0 0 0 0
1730769208 0.4417323172092438 -0.47028374671936035 -0.003744548186659813 0.006708052940666676 0 0 0 0
1734491292 0.39159977436065674 -0.5246700644493103 -0.0031979111954569817 0.006287627853453159 0 0 0 0
1738213376 0.33059412240982056 -0.570106565952301 -0.002868722192943096 0.006034450605511665 0 0 0 0
1741935460 0.26870182156562805 -0.605688750743866 -0.0027638347819447517 0.005914590321481228 0 0 0 0
1745657544 0.19977331161499023 -0.629982590675354 -0.002715170383453369 0.006165718659758568 0 0 0 0
1749379628 0.1305384337902069 -0.6441699266433716 -0.002536616288125515 0.00669612642377615 0 0 0 0
1753101712 0.05616055428981781 -0.6471985578536987 -0.002052217721939087 0.007480679079890251 0 0 0 0
1756823796 -0.013961332850158215 -0.640802264213562 -0.0010637668892741203 0.008127231150865555 0 0 0 0
1760545880 -0.08127999305725098 -0.621739387512207 -1.8376857042312622e-05 0.008548866957426071 0 0 0 0
1764267964 -0.14479093253612518 -0.5918999910354614 0.0012508612126111984 0.008924133144319057 0 0 0 0
1767990048 -0.20176944136619568 -0.5560802817344666 0.002957915887236595 0.00908471830189228 0 0 0 0
1771712132 -0.2478257119655609 -0.512148380279541 0.00480499304831028 0.008360086940228939 0 0 0 0
1775434216 -0.29212862253189087 -0.46003323793411255 0.00632600300014019 0.007177758030593395 0 0 0 0
1779156300 -0.32304346561431885 -0.40522781014442444 0.00732438825070858 0.005519011057913303 0 0 0 0
1782878384 -0.3488774001598358 -0.3465949594974518 0.00745745375752449 0.0036503570154309273 0 0 0 0
1786600468 -0.3644363284111023 -0.2881506383419037 0.006804761476814747 0.0021616118028759956 0 0 0 0
1790322552 -0.3711159825325012 -0.22664585709571838 0.006109821610152721 0.0016052639111876488 0 0 0 0
1794044636 -0.3705097436904907 -0.16265982389450073 0.005649476312100887 0.0012592626735568047 0 0 0 0
1797766720 -0.35844746232032776 -0.1020483523607254 0.0051533132791519165 0.0010053198784589767 0 0 0 0
1801488804 -0.3373413681983948 -0.04693825542926788 0.004507887177169323 0.0013480260968208313 0 0 0 0
1805210888 -0.30926936864852905 0.00503176636993885 0.004556756466627121 0.0022298796102404594 0 0 0 0
1808932972 -0.2729994058609009 0.052436426281929016 0.005508911795914173 0.003206116147339344 0 0 0 0
1812655056 -0.23023252189159393 0.09428659826517105 0.007387775927782059 0.003562099300324917 0 0 0 0
1816377140 -0.18230213224887848 0.1263301968574524 0.009486563503742218 0.0029382845386862755 0 0 0 0
1820099224 -0.1297348588705063 0.15121310949325562 0.011738736182451248 0.00112083088606596 0 0 0 0
1823821308 -0.07478010654449463 0.16597861051559448 0.012991789728403091 -0.0017857430502772331 0 0 0 0
1827543392 -0.020447678864002228 0.17141883075237274 0.012772111222147942 -0.004686248488724232 0 0 0 0
1831265476 0.03218483924865723 0.16842974722385406 0.011989189311861992 -0.007227351889014244 0 0 0 0
1834987560 0.08303019404411316 0.15690571069717407 0.011071471497416496 -0.009469250217080116 0 0 0 0
1838709644 0.1290968507528305 0.13922008872032166 0.010072959586977959 -0.011572115123271942 0 0 0 0
1842431728 0.17069260776042938 0.11611202359199524 0.008278022520244122 -0.013787936419248581 0 0 0 0
1846153812 0.20806752145290375 0.08839913457632065 0.005862035788595676 -0.015617338940501213 0 0 0 0
1849875896 0.24047183990478516 0.053212083876132965 0.003316783346235752 -0.016811003908514977 0 0 0 0
1853597980 0.26718536019325256 0.015987098217010498 0.0005823085084557533 -0.017865682020783424 0 0 0 0
1857320064 0.2862389087677002 -0.023032214492559433 -0.002103593200445175 -0.018109425902366638 0 0 0 0
1861042148 0.29847434163093567 -0.06579817831516266 -0.004877801984548569 -0.01832379400730133 0 0 0 0
1864764232 0.3031286597251892 -0.10943257808685303 -0.007920833304524422 -0.018871579319238663 0 0 0 0
1868486316 0.3002825677394867 -0.15137234330177307 -0.01243531983345747 -0.018714100122451782 0 0 0 0
1872208400 0.29055264592170715 -0.19054155051708221 -0.017055368050932884 -0.016451694071292877 0 0 0 0
1875930484 0.27514177560806274 -0.2267761081457138 -0.020880190655589104 -0.012843383476138115 0 0 0 0
1879652568 0.2539934515953064 -0.2586243748664856 -0.023484429344534874 -0.009068330749869347 0 0 0 0
1883374652 0.23045828938484192 -0.2851996123790741 -0.02554245851933956 -0.004515630193054676 0 0 0 0
1887096736 0.20508936047554016 -0.30616772174835205 -0.026494480669498444 0.0002832571044564247 0 0 0 0
1890818820 0.1746627539396286 -0.3232869505882263 -0.026034483686089516 0.005507166497409344 0 0 0 0
1894540904 0.1427660435438156 -0.3350217342376709 -0.02481788769364357 0.00989259872585535 0 0 0 0
1898262988 0.11066275835037231 -0.34068629145622253 -0.023251013830304146 0.014208199456334114 0 0 0 0
1901985072 0.07828682661056519 -0.34023094177246094 -0.020690198987722397 0.018517153337597847 0 0 0 0
1905707156 0.048637792468070984 -0.3338158428668976 -0.017392473295331 0.022308213636279106 0 0 0 0
1909429240 0.02043045498430729 -0.325461208820343 -0.01329181157052517 0.025673650205135345 0 0 0 0
1913151324 -0.005269274115562439 -0.3119552731513977 -0.008635807782411575 0.028191721066832542 0 0 0 0
1916873408 -0.0267011858522892 -0.2944534718990326 -0.003203531727194786 0.03004494123160839 0 0 0 0
1920595492 -0.045648932456970215 -0.27374327182769775 0.0025761304423213005 0.03079836070537567 0 0 0 0
1924317576 -0.06138479709625244 -0.24976740777492523 0.008864297531545162 0.03037586435675621 0 0 0 0
1928039660 -0.07194967567920685 -0.22451265156269073 0.015478997491300106 0.02860148251056671 0 0 0 0
1931761744 -0.07514675706624985 -0.1995241641998291 0.021683204919099808 0.024964043870568275 0 0 0 0
1935483828 -0.07721325755119324 -0.17368900775909424 0.02679378166794777 0.018810508772730827 0 0 0 0
1939205912 -0.07579068839550018 -0.14858001470565796 0.029491741210222244 0.012288603000342846 0 0 0 0
1942927996 -0.06900444626808167 -0.12322482466697693 0.030096838250756264 0.005745795555412769 0 0 0 0
1946650080 -0.05876610800623894 -0.09815691411495209 0.029581839218735695 -0.0003823051229119301 0 0 0 0
1950372164 -0.042427949607372284 -0.07641439884901047 0.027863621711730957 -0.005649384111166 0 0 0 0
1954094248 -0.022495828568935394 -0.05812499672174454 0.025491930544376373 -0.01009459886699915 0 0 0 0
1957816332 -0.000788629986345768 -0.04321371763944626 0.022778235375881195 -0.014129502698779106 0 0 0 0
1961538416 0.023132510483264923 -0.033035121858119965 0.019582049921154976 -0.017135251313447952 0 0 0 0
1965260500 0.04915599524974823 -0.02671116217970848 0.01629149727523327 -0.01958439126610756 0 0 0 0
1968982584 0.07681762427091599 -0.025571156293153763 0.013338664546608925 -0.022076668217778206 0 0 0 0
1972704668 0.1043315976858139 -0.030148770660161972 0.009558944031596184 -0.024622470140457153 0 0 0 0
1976426752 0.13048145174980164 -0.04002473130822182 0.004714062437415123 -0.02586999721825123 0 0 0 0
1980148836 0.1542551964521408 -0.05515560880303383 0.00023227743804454803 -0.0264764241874218 0 0 0 0
1983870920 0.17508521676063538 -0.07525771856307983 -0.004794660955667496 -0.02655247412621975 0 0 0 0
1987593004 0.1892789900302887 -0.09994985163211823 -0.009754565544426441 -0.025373540818691254 0 0 0 0
1991315088 0.19828009605407715 -0.12474443018436432 -0.015171379782259464 -0.023243237286806107 0 0 0 0
1995037172 0.20288002490997314 -0.15051019191741943 -0.019445784389972687 -0.019530877470970154 0 0 0 0
1998759256 0.20335868000984192 -0.17503982782363892 -0.022564083337783813 -0.015032326802611351 0 0 0 0
2002481340 0.19778671860694885 -0.20134951174259186 -0.024710195139050484 -0.010503486730158329 0 0 0 0
2006203424 0.19092561304569244 -0.2222968488931656 -0.025740429759025574 -0.005882464349269867 0 0 0 0
2009925508 0.17903557419776917 -0.24487316608428955 -0.025720300152897835 -0.0009712995961308479 0 0 0 0
2013647592 0.16154679656028748 -0.26503854990005493 -0.02552103064954281 0.003493725322186947 0 0 0 0
2017369676 0.14344219863414764 -0.28120750188827515 -0.02454366721212864 0.007309545762836933 0 0 0 0
2021091760 0.11835227906703949 -0.29468774795532227 -0.02305809035897255 0.011798258870840073 0 0 0 0
2024813844 0.09339049458503723 -0.30409693717956543 -0.02035585232079029 0.015388719737529755 0 0 0 0
2028535928 0.06501007080078125 -0.3067154288291931 -0.016993563622236252 0.018571551889181137 0 0 0 0
2032258012 0.037379711866378784 -0.30489856004714966 -0.01349679846316576 0.020994797348976135 0 0 0 0
2035980096 0.010781541466712952 -0.2989409565925598 -0.010145502164959908 0.023146769031882286 0 0 0 0
2039702180 -0.012084737420082092 -0.2891295552253723 -0.006457172334194183 0.025277890264987946 0 0 0 0
2043424264 -0.03596913814544678 -0.27347007393836975 -0.0009048441424965858 0.02613746002316475 0 0 0 0
2047146348 -0.053851161152124405 -0.25597578287124634 0.004424721002578735 0.025665147230029106 0 0 0 0
2050868432 -0.07275353372097015 -0.23362690210342407 0.009174056351184845 0.02320491150021553 0 0 0 0
2054590516 -0.0868430882692337 -0.2103525698184967 0.012428175657987595 0.020345542579889297 0 0 0 0
2058312600 -0.09682736545801163 -0.1836274117231369 0.014766735024750233 0.016860485076904297 0 0 0 0
2062034684 -0.10210379958152771 -0.15517793595790863 0.016470380127429962 0.013824635185301304 0 0 0 0
2065756768 -0.10448919981718063 -0.12543423473834991 0.01785861700773239 0.010980631224811077 0 0 0 0
2069478852 -0.10080545395612717 -0.0963706448674202 0.018720202147960663 0.008721363730728626 0 0 0 0
2073200936 -0.09359796345233917 -0.0656006783246994 0.019931292161345482 0.005943612195551395 0 0 0 0
2076923020 -0.08098974078893661 -0.03607017174363136 0.02060447819530964 0.002809213474392891 0 0 0 0
2080645104 -0.06332294642925262 -0.00926264375448227 0.021521246060729027 -0.0006117094308137894 0 0 0 0
2084367188 -0.0410270020365715 0.01489768922328949 0.020926330238580704 -0.004798131063580513 0 0 0 0
2088089272 -0.014220969751477242 0.03611265867948532 0.019633056595921516 -0.008840681053698063 0 0 0 0
2091811356 0.01604745350778103 0.052954353392124176 0.017623448744416237 -0.01231742650270462 0 0 0 0
2095533440 0.050099730491638184 0.06400097906589508 0.014267859980463982 -0.015364252030849457 0 0 0 0
2099255524 0.08530347794294357 0.06961946934461594 0.010025089606642723 -0.017347071319818497 0 0 0 0
2102977608 0.12172720581293106 0.06806174665689468 0.006276475265622139 -0.0174704659730196 0 0 0 0
2106699692 0.15719737112522125 0.06051499769091606 0.0034080110490322113 -0.017173336818814278 0 0 0 0
2110421776 0.19115737080574036 0.04853947088122368 0.0010852748528122902 -0.017004234716296196 0 0 0 0
2114143860 0.2233414500951767 0.027491219341754913 -0.0013460656628012657 -0.016916248947381973 0 0 0 0
2117865944 0.24982476234436035 0.0035322904586791992 -0.00409855879843235 -0.016177011653780937 0 0 0 0
2121588028 0.2710101306438446 -0.02479231357574463 -0.006627746857702732 -0.015090001747012138 0 0 0 0
2125310112 0.2863181233406067 -0.05701629817485809 -0.008761560544371605 -0.013870418071746826 0 0 0 0
2129032196 0.2980633080005646 -0.08809656649827957 -0.010851716622710228 -0.012640364468097687 0 0 0 0
2132754280 0.3048632740974426 -0.11858250200748444 -0.013056685216724873 -0.0108160600066185 0 0 0 0
2136476364 0.30512693524360657 -0.1535256952047348 -0.01541716605424881 -0.007990141399204731 0 0 0 0
2140198448 0.3013988137245178 -0.18568269908428192 -0.01657227613031864 -0.004310542717576027 0 0 0 0
2143920532 0.29042455554008484 -0.2193528264760971 -0.016311656683683395 -0.00043739285320043564 0 0 0 0
2147642616 0.2759120464324951 -0.24928922951221466 -0.015006547793745995 0.002187991514801979 0 0 0 0
2151364700 0.258921355009079 -0.27539607882499695 -0.01337470579892397 0.004146919585764408 0 0 0 0
2155086784 0.23464690148830414 -0.29641976952552795 -0.01200419943779707 0.005545962601900101 0 0 0 0
2158808868 0.2061595320701599 -0.31635138392448425 -0.010870461352169514 0.0064738476648926735 0 0 0 0
2162530952 0.182761549949646 -0.32736366987228394 -0.010072720237076283 0.007520696148276329 0 0 0 0
2166253036 0.15121738612651825 -0.33849167823791504 -0.009145461022853851 0.008825322613120079 0 0 0 0
2169975120 0.120660699903965 -0.3436470031738281 -0.007828053086996078 0.010075327940285206 0 0 0 0
2173697204 0.08816105127334595 -0.3438090980052948 -0.006011581048369408 0.0111848721280694 0 0 0 0
2177419288 0.057087644934654236 -0.3379344940185547 -0.0044938307255506516 0.011609186418354511 0 0 0 0
2181141372 0.03070463240146637 -0.32729268074035645 -0.0032580913975834846 0.011887984350323677 0 0 0 0
2184863456 0.0013631731271743774 -0.313104510307312 -0.0018111392855644226 0.012743533588945866 0 0 0 0
2188585540 -0.01828363537788391 -0.29472482204437256 -0.000279170460999012 0.013611788861453533 0 0 0 0
2192307624 -0.04126276075839996 -0.2736237645149231 0.002243839204311371 0.01435194443911314 0 0 0 0
2196029708 -0.05835676193237305 -0.24902957677841187 0.0053390022367239 0.01427357830107212 0 0 0 0
2199751792 -0.07249635457992554 -0.22214633226394653 0.008728914894163609 0.013162306509912014 0 0 0 0
2203473876 -0.08128605782985687 -0.1911298632621765 0.011493933387100697 0.010759776458144188 0 0 0 0
2207195960 -0.08409841358661652 -0.15994355082511902 0.01333126425743103 0.007739905267953873 0 0 0 0
2210918044 -0.07983885705471039 -0.13101696968078613 0.014404046349227428 0.004533044993877411 0 0 0 0
2214640128 -0.07349497079849243 -0.10230428725481033 0.014652435667812824 0.0015350384637713432 0 0 0 0
2218362212 -0.0608636774122715 -0.0755557045340538 0.01411599013954401 -0.001865818165242672 0 0 0 0
2222084296 -0.0459270104765892 -0.05030786991119385 0.01258043758571148 -0.00518204178661108 0 0 0 0
2225806380 -0.025939559563994408 -0.028123771771788597 0.010046127252280712 -0.007515466772019863 0 0 0 0
2229528464 -0.0020412951707839966 -0.009456115774810314 0.007251175120472908 -0.008784683421254158 0 0 0 0
2233250548 0.025166582316160202 0.0029414035379886627 0.004551064223051071 -0.008733813650906086 0 0 0 0
2236972632 0.05270978808403015 0.010145070031285286 0.0023698387667536736 -0.00817060936242342 0 0 0 0
2240694716 0.07970976829528809 0.012329788878560066 0.0008760718628764153 -0.006926613859832287 0 0 0 0
2244416800 0.10564703494310379 0.013227567076683044 0.0006890017539262772 -0.005750508047640324 0 0 0 0
2248138884 0.13235481083393097 0.004319928586483002 0.0007192380726337433 -0.005344339646399021 0 0 0 0
2251860968 0.15641915798187256 -0.004454128444194794 0.0005150707438588142 -0.005514426156878471 0 0 0 0
2255583052 0.17943024635314941 -0.020053904503583908 0.0002151811495423317 -0.005720220506191254 0 0 0 0
2259305136 0.19979342818260193 -0.037225522100925446 -0.000192360021173954 -0.0058104898780584335 0 0 0 0
2263027220 0.21650487184524536 -0.05473226308822632 -0.0005295183509588242 -0.006094754673540592 0 0 0 0
2266749304 0.23032253980636597 -0.07556359469890594 -0.0010709566995501518 -0.006589960306882858 0 0 0 0
2270471388 0.23562189936637878 -0.10494580864906311 -0.0021215565502643585 -0.006817663088440895 0 0 0 0
2274193472 0.2408239096403122 -0.12638114392757416 -0.003313044086098671 -0.006843590177595615 0 0 0 0
2277915556 0.2363567352294922 -0.15643714368343353 -0.004320200532674789 -0.006389700807631016 0 0 0 0
2281637640 0.22902849316596985 -0.1810222864151001 -0.005263679660856724 -0.006092223338782787 0 0 0 0
2285359724 0.2240244299173355 -0.1977924257516861 -0.005999273620545864 -0.005898870527744293 0 0 0 0
2289081808 0.20419296622276306 -0.22278982400894165 -0.006861831992864609 -0.00538299884647131 0 0 0 0
2292803892 0.18968982994556427 -0.2369322031736374 -0.008080321364104748 -0.00500866025686264 0 0 0 0
2296525976 0.17048379778862 -0.24865080416202545 -0.009262928739190102 -0.004232089966535568 0 0 0 0
2300248060 0.14938496053218842 -0.25849929451942444 -0.010733693838119507 -0.0030243396759033203 0 0 0 0
2303970144 0.13233572244644165 -0.2678689658641815 -0.011753339320421219 -0.0012373477220535278 0 0 0 0
2307692228 0.10989262908697128 -0.26537591218948364 -0.012342848815023899 0.0008581103757023811 0 0 0 0
2311414312 0.08004502207040787 -0.2666851878166199 -0.012038162909448147 0.0029788296669721603 0 0 0 0
2315136396 0.05734013766050339 -0.2611203193664551 -0.011296126991510391 0.005035043694078922 0 0 0 0
2318858480 0.03918549418449402 -0.2518710196018219 -0.010492896661162376 0.006387610919773579 0 0 0 0
2322580564 0.010200470685958862 -0.23901288211345673 -0.009488345123827457 0.008020720444619656 0 0 0 0
2326302648 -0.0035068653523921967 -0.2210906594991684 -0.007993984036147594 0.009437421336770058 0 0 0 0
2330024732 -0.01879655197262764 -0.20092245936393738 -0.00674460269510746 0.01032116450369358 0 0 0 0
2333746816 -0.03021356463432312 -0.17762748897075653 -0.005546661093831062 0.010891320183873177 0 0 0 0
2337468900 -0.03790640830993652 -0.15214353799819946 -0.003873930312693119 0.011569834314286709 0 0 0 0
2341190984 -0.03958874195814133 -0.12515407800674438 -0.0024720318615436554 0.01198035292327404 0 0 0 0
2344913068 -0.038660794496536255 -0.09734952449798584 -0.0006104959174990654 0.012266840785741806 0 0 0 0
2348635152 -0.030459647998213768 -0.07117137312889099 0.00104433111846447 0.012343132868409157 0 0 0 0
2352357236 -0.018302345648407936 -0.04567414149641991 0.0029371753334999084 0.011827807873487473 0 0 0 0
2356079320 -0.002223358489573002 -0.022552119567990303 0.004568052478134632 0.01099148578941822 0 0 0 0
2359801404 0.017994584515690804 -0.0013817325234413147 0.00592479482293129 0.009956568479537964 0 0 0 0
2363523488 0.04219702258706093 0.014490071684122086 0.007414339110255241 0.009050216525793076 0 0 0 0
2367245572 0.06938467174768448 0.027640406042337418 0.008695537224411964 0.007572167553007603 0 0 0 0
2370967656 0.09897840023040771 0.034955576062202454 0.009871269576251507 0.005692898295819759 0 0 0 0
2374689740 0.13025206327438354 0.03765416517853737 0.010695332661271095 0.0034642014652490616 0 0 0 0
2378411824 0.16231496632099152 0.03432464227080345 0.010308245196938515 0.001183358021080494 0 0 0 0
2382133908 0.19344811141490936 0.025655416771769524 0.00936859380453825 -0.0007218625396490097 0 0 0 0
2385855992 0.22134822607040405 0.010457608848810196 0.008329091593623161 -0.00183054618537426 0 0 0 0
2389578076 0.24640917778015137 -0.012945406138896942 0.007230160757899284 -0.0028866445645689964 0 0 0 0
2393300160 0.2675890326499939 -0.03613942116498947 0.006028232164680958 -0.003466588445007801 0 0 0 0
2397022244 0.28268179297447205 -0.0610627755522728 0.005419171415269375 -0.003566230647265911 0 0 0 0
2400744328 0.2935325503349304 -0.09170239418745041 0.004962661303579807 -0.0040795933455228806 0 0 0 0
2404466412 0.29759177565574646 -0.12274870276451111 0.004266165196895599 -0.004774704575538635 0 0 0 0
2408188496 0.29775485396385193 -0.1521110087633133 0.0033039087429642677 -0.005054936744272709 0 0 0 0
2411910580 0.2930334210395813 -0.18258263170719147 0.0024475622922182083 -0.0052189333364367485 0 0 0 0
2415632664 0.28348419070243835 -0.2083238810300827 0.0020641377195715904 -0.005701808258891106 0 0 0 0
2419354748 0.26918527483940125 -0.2338946908712387 0.0009241253137588501 -0.006237108260393143 0 0 0 0
2423076832 0.25628378987312317 -0.25533267855644226 -0.0004657767713069916 -0.006212505511939526 0 0 0 0
2426798916 0.23691615462303162 -0.2775043547153473 -0.0016569532454013824 -0.00579014141112566 0 0 0 0
2430521000 0.21652626991271973 -0.29452991485595703 -0.002588212490081787 -0.005018806084990501 0 0 0 0
2434243084 0.19222423434257507 -0.3104300796985626 -0.0032713189721107483 -0.004221126437187195 0 0 0 0
2437965168 0.169895201921463 -0.32081347703933716 -0.0036292709410190582 -0.0033735092729330063 0 0 0 0
2441687252 0.1396072506904602 -0.32948023080825806 -0.00394229032099247 -0.0023943576961755753 0 0 0 0
2445409336 0.1084924191236496 -0.33453530073165894 -0.0037201596423983574 -0.0015251189470291138 0 0 0 0
2449131420 0.07990020513534546 -0.33257246017456055 -0.0032348325476050377 -0.00087696872651577 0 0 0 0
2452853504 0.05078960210084915 -0.3257558047771454 -0.002850479446351528 -0.0004360424354672432 0 0 0 0
2456575588 0.021630093455314636 -0.31702202558517456 -0.0026087667793035507 -0.00015510991215705872 0 0 0 0
2460297672 -0.0046024322509765625 -0.3015815019607544 -0.0019561611115932465 3.64203006029129e-05 0 0 0 0
2464019756 -0.027247227728366852 -0.2818628251552582 -0.001145724207162857 -0.00030466821044683456 0 0 0 0
2467741840 -0.04793872684240341 -0.2589672803878784 -0.0007526902481913567 -0.0010687122121453285 0 0 0 0
2471463924 -0.06475517153739929 -0.23333992063999176 -0.0010417504236102104 -0.001973598264157772 0 0 0 0
2475186008 -0.07688231766223907 -0.2057729959487915 -0.0017591314390301704 -0.0025929538533091545 0 0 0 0
2478908092 -0.08077730983495712 -0.17821040749549866 -0.002587558701634407 -0.0028497716411948204 0 0 0 0
2482630176 -0.08643738925457001 -0.14721058309078217 -0.003669404424726963 -0.0026220595464110374 0 0 0 0
2486352260 -0.08434075117111206 -0.11845721304416656 -0.004349800758063793 -0.0021897470578551292 0 0 0 0
2490074344 -0.07920953631401062 -0.09057262539863586 -0.004955152980983257 -0.001577397808432579 0 0 0 0
2493796428 -0.06927648186683655 -0.06344863027334213 -0.005521601997315884 -0.0009747566655278206 0 0 0 0
2497518512 -0.05650700256228447 -0.037926096469163895 -0.005835646763443947 7.548928260803223e-05 0 0 0 0
2501240596 -0.03992601856589317 -0.015946289524435997 -0.005726316012442112 0.0011598719283938408 0 0 0 0
2504962680 -0.020653817802667618 0.005691773258149624 -0.005247456952929497 0.0015734266489744186 0 0 0 0
2508684764 0.0032185688614845276 0.023814765736460686 -0.005159503780305386 0.0018019657582044601 0 0 0 0
2512406848 0.029142159968614578 0.0376470647752285 -0.005351711064577103 0.0021923426538705826 0 0 0 0
2516128932 0.05736909806728363 0.04760248586535454 -0.00565422885119915 0.0028111841529607773 0 0 0 0
2519851016 0.08784996718168259 0.05117585510015488 -0.005860845558345318 0.004027742892503738 0 0 0 0
2523573100 0.1172795295715332 0.05011759698390961 -0.0052780332043766975 0.005299692042171955 0 0 0 0
2527295184 0.14524289965629578 0.04366433620452881 -0.004145690239965916 0.0061773331835865974 0 0 0 0
2531017268 0.17023131251335144 0.03263358771800995 -0.003285098820924759 0.006609969772398472 0 0 0 0
2534739352 0.19261614978313446 0.01743408478796482 -0.002468184567987919 0.007223953492939472 0 0 0 0
2538461436 0.21177423000335693 0.0014813467860221863 -0.0015176134184002876 0.007679928094148636 0 0 0 0
2542183520 0.2276598960161209 -0.018521539866924286 -0.00018107332289218903 0.00801615696400404 0 0 0 0
2545905604 0.24139279127120972 -0.0387454479932785 0.0010576443746685982 0.007718575187027454 0 0 0 0
2549627688 0.25069233775138855 -0.05976797640323639 0.002215568907558918 0.007594108581542969 0 0 0 0
2553349772 0.25791311264038086 -0.07988402247428894 0.003408602438867092 0.007235538214445114 0 0 0 0
2557071856 0.26031070947647095 -0.10432508587837219 0.004496301524341106 0.006532657891511917 0 0 0 0
2560793940 0.25920748710632324 -0.12333311885595322 0.005317412316799164 0.005792239680886269 0 0 0 0
2564516024 0.25475937128067017 -0.14622104167938232 0.005911880172789097 0.0053133293986320496 0 0 0 0
2568238108 0.25007569789886475 -0.16487440466880798 0.006877097301185131 0.005031547509133816 0 0 0 0
2571960192 0.242793470621109 -0.18134833872318268 0.008046891540288925 0.004083413630723953 0 0 0 0
2575682276 0.2347741425037384 -0.1986304223537445 0.009316173382103443 0.0028134575113654137 0 0 0 0
2579404360 0.2204592525959015 -0.21601299941539764 0.010319104418158531 0.0009430702775716782 0 0 0 0
2583126444 0.20935317873954773 -0.22646024823188782 0.010761079378426075 -0.0012236693874001503 0 0 0 0
2586848528 0.19294330477714539 -0.23768317699432373 0.010675931349396706 -0.003449181094765663 0 0 0 0
2590570612 0.17418283224105835 -0.2483055293560028 0.009945542551577091 -0.005626806057989597 0 0 0 0
2594292696 0.15680307149887085 -0.253057062625885 0.008742650970816612 -0.0077546220272779465 0 0 0 0
2598014780 0.13977880775928497 -0.2563799321651459 0.007101257331669331 -0.009604900144040585 0 0 0 0
2601736864 0.122160404920578 -0.25617560744285583 0.0052601732313632965 -0.010860308073461056 0 0 0 0
2605458948 0.10478347539901733 -0.2525986135005951 0.002902776002883911 -0.011617343872785568 0 0 0 0
2609181032 0.08983423560857773 -0.2479144036769867 0.0008511291816830635 -0.011877719312906265 0 0 0 0
2612903116 0.07287529855966568 -0.2419772744178772 -0.0012376382946968079 -0.011723008938133717 0 0 0 0
2616625200 0.05912235751748085 -0.23253478109836578 -0.0033629927784204483 -0.011021208949387074 0 0 0 0
2620347284 0.04902445524930954 -0.22256594896316528 -0.0050090523436665535 -0.009877631440758705 0 0 0 0
2624069368 0.03832736611366272 -0.2117607444524765 -0.006014630198478699 -0.008853198029100895 0 0 0 0
2627791452 0.0325126051902771 -0.1984785944223404 -0.006815887987613678 -0.0078478017821908 0 0 0 0
2631513536 0.0268484428524971 -0.18530568480491638 -0.007537386380136013 -0.0071305278688669205 0 0 0 0
2635235620 0.020088475197553635 -0.17011131346225739 -0.00833093747496605 -0.00624032411724329 0 0 0 0
2638957704 0.021010808646678925 -0.15441307425498962 -0.009181131608784199 -0.005444967187941074 0 0 0 0
2642679788 0.021569833159446716 -0.14026497304439545 -0.010414302349090576 -0.004221528768539429 0 0 0 0
2646401872 0.02689984068274498 -0.12652982771396637 -0.01152694784104824 -0.0024860361590981483 0 0 0 0
2650123956 0.03433723375201225 -0.11471624672412872 -0.011820880696177483 -0.0005746623501181602 0 0 0 0
2653846040 0.04267454892396927 -0.10462132096290588 -0.011933737434446812 0.00136554054915905 0 0 0 0
2657568124 0.05319640040397644 -0.09654676169157028 -0.011759665794670582 0.0037282565608620644 0 0 0 0
2661290208 0.06650681048631668 -0.09159138798713684 -0.010955750942230225 0.0059885429218411446 0 0 0 0
2665012292 0.07843876630067825 -0.08949025720357895 -0.009244629181921482 0.007790088653564453 0 0 0 0
2668734376 0.08947107195854187 -0.09054787456989288 -0.007170508615672588 0.009268061257898808 0 0 0 0
2672456460 0.10066442936658859 -0.09413166344165802 -0.005193900316953659 0.010035548359155655 0 0 0 0
2676178544 0.1101769208908081 -0.09787337481975555 -0.003269434906542301 0.010527197271585464 0 0 0 0
2679900628 0.11867024749517441 -0.10390645265579224 -0.0011535119265317917 0.01061419490724802 0 0 0 0
2683622712 0.127176433801651 -0.1105576902627945 0.0009705964475870132 0.010220618918538094 0 0 0 0
2687344796 0.1318756341934204 -0.12079659849405289 0.0028906939551234245 0.009286854416131973 0 0 0 0
2691066880 0.1348937302827835 -0.132183238863945 0.0043332213535904884 0.008079493418335915 0 0 0 0
2694788964 0.13443981111049652 -0.14357292652130127 0.005353353917598724 0.006844651885330677 0 0 0 0
2698511048 0.13272854685783386 -0.15608671307563782 0.006112018600106239 0.005568342283368111 0 0 0 0
2702233132 0.12755288183689117 -0.16550248861312866 0.006753268651664257 0.0041617462411522865 0 0 0 0
2705955216 0.12071698904037476 -0.17482662200927734 0.006965420208871365 0.002972440794110298 0 0 0 0
2709677300 0.11096802353858948 -0.18176129460334778 0.0070954496040940285 0.0018379278481006622 0 0 0 0
2713399384 0.09937766194343567 -0.18811707198619843 0.007262282073497772 0.0006924811750650406 0 0 0 0
2717121468 0.08854993432760239 -0.19180603325366974 0.007236977107822895 -0.0003723055124282837 0 0 0 0
2720843552 0.07527059316635132 -0.1946200728416443 0.0072831567376852036 -0.001827293075621128 0 0 0 0
2724565636 0.06219109147787094 -0.1940060257911682 0.006892339326441288 -0.0031252456828951836 0 0 0 0
2728287720 0.047344546765089035 -0.1912229210138321 0.0063463663682341576 -0.004353329539299011 0 0 0 0
2732009804 0.03391985595226288 -0.1831345409154892 0.005554730072617531 -0.005544990301132202 0 0 0 0
2735731888 0.020555885508656502 -0.17233958840370178 0.004550337791442871 -0.00668350700289011 0 0 0 0
2739453972 0.01118982583284378 -0.16046002507209778 0.0033823810517787933 -0.007468073628842831 0 0 0 0
2743176056 0.005254533141851425 -0.146011084318161 0.002171090804040432 -0.008084947243332863 0 0 0 0
2746898140 -0.0007315799593925476 -0.13141320645809174 0.0006126463413238525 -0.008874963968992233 0 0 0 0
2750620224 -0.0029992423951625824 -0.11618375033140182 -0.0014682700857520103 -0.009368592873215675 0 0 0 0
2754342308 -0.004102099686861038 -0.10032381117343903 -0.0037355609238147736 -0.009149767458438873 0 0 0 0
2758064392 -0.003018934279680252 -0.08342496305704117 -0.006078899838030338 -0.007793206721544266 0 0 0 0
2761786476 0.0016038715839385986 -0.06666067987680435 -0.007556539960205555 -0.005956678651273251 0 0 0 0
2765508560 0.008683627471327782 -0.04960891604423523 -0.008422283455729485 -0.004061538726091385 0 0 0 0
2769230644 0.019127806648612022 -0.033524010330438614 -0.009049160405993462 -0.001818578690290451 0 0 0 0
2772952728 0.03269611671566963 -0.019055388867855072 -0.008890882134437561 0.00035910308361053467 0 0 0 0
2776674812 0.048369672149419785 -0.0066703613847494125 -0.007962548173964024 0.0024623339995741844 0 0 0 0
2780396896 0.06655684113502502 0.0029793139547109604 -0.006904845125973225 0.003913968801498413 0 0 0 0
2784118980 0.08695421367883682 0.011609075590968132 -0.0056527601554989815 0.005180200561881065 0 0 0 0
2787841064 0.10942461341619492 0.015257716178894043 -0.004041731357574463 0.006044155918061733 0 0 0 0
2791563148 0.1334403157234192 0.014524739235639572 -0.002213556319475174 0.006619313731789589 0 0 0 0
2795285232 0.1571747213602066 0.011370472609996796 -0.0003655310720205307 0.006703118793666363 0 0 0 0
2799007316 0.1810823529958725 0.004654543474316597 0.0014225123450160027 0.00614114198833704 0 0 0 0
2802729400 0.20320291817188263 -0.01217471994459629 0.002988521009683609 0.004934393800795078 0 0 0 0
2806451484 0.22271090745925903 -0.028378937393426895 0.0036313235759735107 0.003506729379296303 0 0 0 0
2810173568 0.23828372359275818 -0.04456942155957222 0.0038041425868868828 0.0025095082819461823 0 0 0 0
2813895652 0.253282755613327 -0.06668266654014587 0.00380813330411911 0.0017645647749304771 0 0 0 0
2817617736 0.2643275856971741 -0.09151973575353622 0.003992697224020958 0.0011731106787919998 0 0 0 0
2821339820 0.27245116233825684 -0.11608949303627014 0.004176449030637741 0.0003761462867259979 0 0 0 0
2825061904 0.274010568857193 -0.14686548709869385 0.004148920997977257 -0.0005506640300154686 0 0 0 0
2828783988 0.27220839262008667 -0.1742093712091446 0.003859706223011017 -0.001155087724328041 0 0 0 0
2832506072 0.2663448750972748 -0.20223140716552734 0.0035509001463651657 -0.001884440891444683 0 0 0 0
2836228156 0.2534673511981964 -0.22999998927116394 0.00321747362613678 -0.002440457232296467 0 0 0 0
2839950240 0.23928993940353394 -0.2535054087638855 0.0028202999383211136 -0.002796967513859272 0 0 0 0
2843672324 0.2212539166212082 -0.2727534770965576 0.0025170641019940376 -0.003130599856376648 0 0 0 0
2847394408 0.20036078989505768 -0.2898627519607544 0.0022880826145410538 -0.003627277910709381 0 0 0 0
2851116492 0.1745544672012329 -0.30875682830810547 0.0017024073749780655 -0.0042557260021567345 0 0 0 0
2854838576 0.15462201833724976 -0.31692442297935486 0.0009450390934944153 -0.004634622484445572 0 0 0 0
2858560660 0.13304436206817627 -0.3268398940563202 0.0002835337072610855 -0.0052246758714318275 0 0 0 0
2862282744 0.10057825595140457 -0.333636999130249 -0.0006969859823584557 -0.0052730124443769455 0 0 0 0
2866004828 0.07391242682933807 -0.33479589223861694 -0.0016312701627612114 -0.004869386553764343 0 0 0 0
2869726912 0.04823294281959534 -0.33239927887916565 -0.0021555861458182335 -0.004372209310531616 0 0 0 0
2873448996 0.022928863763809204 -0.3276926279067993 -0.0027884338051080704 -0.0039970483630895615 0 0 0 0
2877171080 -0.006372594274580479 -0.31804630160331726 -0.003254121169447899 -0.003547845408320427 0 0 0 0
2880893164 -0.028638184070587158 -0.3072090744972229 -0.0037798620760440826 -0.00307511817663908 0 0 0 0
2884615248 -0.05358796566724777 -0.2893790304660797 -0.00433692429214716 -0.0023968201130628586 0 0 0 0
2888337332 -0.07616476714611053 -0.27001720666885376 -0.004690723493695259 -0.001437394879758358 0 0 0 0
2892059416 -0.09400588274002075 -0.24786777794361115 -0.0048361895605921745 -0.00029342249035835266 0 0 0 0
2895781500 -0.10837181657552719 -0.22357219457626343 -0.004587897099554539 0.0006887968629598618 0 0 0 0
2899503584 -0.11754569411277771 -0.19759483635425568 -0.004169546999037266 0.0014675455167889595 0 0 0 0
2903225668 -0.12605957686901093 -0.16993547976016998 -0.0036784177646040916 0.002238391898572445 0 0 0 0
2906947752 -0.13005973398685455 -0.14130344986915588 -0.003248400054872036 0.002907012589275837 0 0 0 0
2910669836 -0.12791214883327484 -0.11403815448284149 -0.0023602377623319626 0.0036040283739566803 0 0 0 0
2914391920 -0.12393312156200409 -0.08494812250137329 -0.0013761874288320541 0.004070598632097244 0 0 0 0
2918114004 -0.1139717698097229 -0.06047779321670532 -0.000196957029402256 0.0042297132313251495 0 0 0 0
2921836088 -0.10206709802150726 -0.037390656769275665 0.0007964009419083595 0.0038405079394578934 0 0 0 0
2925558172 -0.08829624205827713 -0.015281843021512032 0.0016124024987220764 0.0031127482652664185 0 0 0 0
2929280256 -0.07195834815502167 0.0037151463329792023 0.0018182946369051933 0.002658369019627571 0 0 0 0
2933002340 -0.05377974361181259 0.01915365643799305 0.0020941998809576035 0.002474171109497547 0 0 0 0
2936724424 -0.03434339165687561 0.033492617309093475 0.0024101482704281807 0.0022926656529307365 0 0 0 0
2940446508 -0.013069367967545986 0.04509163275361061 0.0029615368694067 0.0018580453470349312 0 0 0 0
2944168592 0.007473848760128021 0.053710855543613434 0.0030815489590168 0.0013713547959923744 0 0 0 0
2947890676 0.029686180874705315 0.05976719409227371 0.0033418647944927216 0.001092773862183094 0 0 0 0
2951612760 0.052275948226451874 0.06368707865476608 0.0035972995683550835 0.0006724167615175247 0 0 0 0
2955334844 0.07330208271741867 0.06597977876663208 0.003910664469003677 0.00035845115780830383 0 0 0 0
2959056928 0.09620540589094162 0.06454050540924072 0.004225890152156353 -0.0002843448892235756 0 0 0 0
2962779012 0.11798091977834702 0.06142754480242729 0.004498017951846123 -0.0008355742320418358 0 0 0 0
2966501096 0.14097276329994202 0.05425199866294861 0.004692659713327885 -0.0019147014245390892 0 0 0 0
2970223180 0.16256695985794067 0.04507061094045639 0.004503351636230946 -0.0032234014943242073 0 0 0 0
2973945264 0.18253393471240997 0.03396106883883476 0.003511076793074608 -0.0042303260415792465 0 0 0 0
2977667348 0.20050235092639923 0.01944061368703842 0.002504686824977398 -0.0049189357087016106 0 0 0 0
2981389432 0.21733097732067108 0.0025809183716773987 0.0012883907184004784 -0.005051782354712486 0 0 0 0
2985111516 0.23030191659927368 -0.015734024345874786 0.00019029714167118073 -0.005078006535768509 0 0 0 0
2988833600 0.24178344011306763 -0.03543306142091751 -0.0008686613291501999 -0.004657289944589138 0 0 0 0
2992555684 0.2500467896461487 -0.055367037653923035 -0.0019007213413715363 -0.004126419313251972 0 0 0 0
2996277768 0.25615519285202026 -0.07782793790102005 -0.0024837451055645943 -0.0032875854521989822 0 0 0 0
2999999852 0.2592507302761078 -0.09722618013620377 -0.0030688773840665817 -0.0023972103372216225 0 0 0 0
