# HZ S RI R 50
1500000000 -0.07610901445150375 -0.09198309481143951 0.04274975508451462 -0.027337973937392235 0 0 0 0
1503722084 -0.07648438215255737 -0.0710989236831665 0.037085577845573425 -0.03391135856509209 0 0 0 0
1507444168 -0.07146098464727402 -0.04780963063240051 0.030739273875951767 -0.03906168043613434 0 0 0 0
1511166252 -0.059955716133117676 -0.021830793470144272 0.023197121918201447 -0.04338435083627701 0 0 0 0
1514888336 -0.04144839569926262 0.0021073874086141586 0.014592449180781841 -0.046415261924266815 0 0 0 0
1518610420 -0.01655888371169567 0.02326025627553463 0.005834024399518967 -0.047511085867881775 0 0 0 0
1522332504 0.014156382530927658 0.040910862386226654 -0.0032147224992513657 -0.04672131687402725 0 0 0 0
1526054588 0.05027812346816063 0.052814483642578125 -0.011850379407405853 -0.04346253350377083 0 0 0 0
1529776672 0.0909416601061821 0.05841418355703354 -0.018496891483664513 -0.03841491416096687 0 0 0 0
1533498756 0.13468053936958313 0.05656838044524193 -0.023295704275369644 -0.03257628157734871 0 0 0 0
1537220840 0.18003323674201965 0.04365650564432144 -0.026539426296949387 -0.026647239923477173 0 0 0 0
1540942924 0.2240157276391983 0.020067065954208374 -0.028431151062250137 -0.02114371582865715 0 0 0 0
1544665008 0.2613736689090729 -0.011558577418327332 -0.02938568778336048 -0.015921657904982567 0 0 0 0
1548387092 0.29159438610076904 -0.05019141733646393 -0.029584793373942375 -0.011112462729215622 0 0 0 0
1552109176 0.31602808833122253 -0.09222330898046494 -0.028983402997255325 -0.006848027929663658 0 0 0 0
1555831260 0.3328630030155182 -0.13964658975601196 -0.02838199958205223 -0.0033837510272860527 0 0 0 0
1559553344 0.34327030181884766 -0.18821018934249878 -0.028192520141601562 -6.162282079458237e-05 0 0 0 0
1563275428 0.3453885614871979 -0.23948495090007782 -0.027454501017928123 0.004037721082568169 0 0 0 0
1566997512 0.33817827701568604 -0.2918831706047058 -0.02547338977456093 0.008119897916913033 0 0 0 0
1570719596 0.3238319754600525 -0.34294164180755615 -0.02291823923587799 0.011265614069998264 0 0 0 0
1574441680 0.3009851574897766 -0.3916081488132477 -0.020006263628602028 0.013642579317092896 0 0 0 0
1578163764 0.2718204855918884 -0.43576711416244507 -0.01717369072139263 0.015136809088289738 0 0 0 0
1581885848 0.23832525312900543 -0.4757598042488098 -0.01445131003856659 0.01616402342915535 0 0 0 0
1585607932 0.19447341561317444 -0.5114997625350952 -0.012218976393342018 0.016926787793636322 0 0 0 0
1589330016 0.1452169418334961 -0.5416908264160156 -0.010049642994999886 0.017493505030870438 0 0 0 0
1593052100 0.09299565851688385 -0.5643826127052307 -0.008119001984596252 0.017813347280025482 0 0 0 0
1596774184 0.037558071315288544 -0.5787881016731262 -0.00661478191614151 0.018270602449774742 0 0 0 0
1600496268 -0.02372574806213379 -0.5853320360183716 -0.004996307194232941 0.01938541606068611 0 0 0 0
1604218352 -0.08006957918405533 -0.582961916923523 -0.002756543457508087 0.020421966910362244 0 0 0 0
1607940436 -0.13992702960968018 -0.5734978914260864 0.0002549393102526665 0.021251238882541656 0 0 0 0
1611662520 -0.2016223520040512 -0.5542466640472412 0.0034100497141480446 0.021665185689926147 0 0 0 0
1615384604 -0.26229920983314514 -0.5252460241317749 0.007130008190870285 0.02140585146844387 0 0 0 0
1619106688 -0.3159663677215576 -0.48709771037101746 0.010926171205937862 0.020448002964258194 0 0 0 0
1622828772 -0.3626698851585388 -0.440594345331192 0.014522893354296684 0.018413735553622246 0 0 0 0
1626550856 -0.40757569670677185 -0.3830902576446533 0.017813708633184433 0.015603810548782349 0 0 0 0
1630272940 -0.4400177001953125 -0.32019102573394775 0.02030656486749649 0.012393269687891006 0 0 0 0
1633995024 -0.466430127620697 -0.24819031357765198 0.02218901738524437 0.008110392838716507 0 0 0 0
1637717108 -0.47897109389305115 -0.17818902432918549 0.022877348586916924 0.003791453316807747 0 0 0 0
1641439192 -0.4826743006706238 -0.10163699090480804 0.022888675332069397 -0.00017949286848306656 0 0 0 0
1645161276 -0.47193488478660583 -0.02614399418234825 0.022157737985253334 -0.0041892798617482185 0 0 0 0
1648883360 -0.45013150572776794 0.050105057656764984 0.02075207605957985 -0.007941222749650478 0 0 0 0
1652605444 -0.41491279006004333 0.1222204715013504 0.018764877691864967 -0.011137563735246658 0 0 0 0
1656327528 -0.3712223470211029 0.18342964351177216 0.01643262431025505 -0.0137531952932477 0 0 0 0
1660049612 -0.3150659203529358 0.24504850804805756 0.013469718396663666 -0.016329457983374596 0 0 0 0
1663771696 -0.2506641745567322 0.2932777404785156 0.010340695269405842 -0.018333273008465767 0 0 0 0
1667493780 -0.17654943466186523 0.33413392305374146 0.0063670482486486435 -0.019945688545703888 0 0 0 0
1671215864 -0.09552082419395447 0.36275407671928406 0.002103270962834358 -0.020237041637301445 0 0 0 0
1674937948 -0.01548798382282257 0.37486663460731506 -0.0021121595054864883 -0.019340503960847855 0 0 0 0
1678660032 0.06810160726308823 0.376180499792099 -0.005532708019018173 -0.017357993870973587 0 0 0 0
1682382116 0.15025681257247925 0.3635665774345398 -0.008162721991539001 -0.014386257156729698 0 0 0 0
1686104200 0.22993683815002441 0.3391020596027374 -0.00916246511042118 -0.011593807488679886 0 0 0 0
1689826284 0.30514371395111084 0.30218055844306946 -0.00951550155878067 -0.009386499412357807 0 0 0 0
1693548368 0.37273257970809937 0.25488579273223877 -0.00965504813939333 -0.007793030701577663 0 0 0 0
1697270452 0.4314498007297516 0.19808998703956604 -0.009998472407460213 -0.006364438682794571 0 0 0 0
1700992536 0.4819955825805664 0.1292225867509842 -0.010114805772900581 -0.005042956210672855 0 0 0 0
1704714620 0.5200213193893433 0.057242557406425476 -0.01030494924634695 -0.0036714766174554825 0 0 0 0
1708436704 0.5457569360733032 -0.019229307770729065 -0.010455848649144173 -0.002681638114154339 0 0 0 0
1712158788 0.5593371391296387 -0.09813813865184784 -0.010577905923128128 -0.0011839810758829117 0 0 0 0
1715880872 0.5616987943649292 -0.1774115115404129 -0.01041632890701294 0.00037539470940828323 0 0 0 0
1719602956 0.5522125959396362 -0.2558891177177429 -0.009946485981345177 0.0019459491595625877 0 0 0 0
1723325040 0.5292750000953674 -0.33058422803878784 -0.008914944715797901 0.003123832866549492 0 0 0 0
1727047124 0.5011273622512817 -0.3972488045692444 -0.00799115002155304 0.0038251131772994995 0 0 0 0
1730769208 0.4553152918815613 -0.4627833366394043 -0.00724924448877573 0.0042873043566942215 0 0 0 0
1734491292 0.40408873558044434 -0.521394670009613 -0.006618587300181389 0.0049461498856544495 0 0 0 0
1738213376 0.3468296229839325 -0.5687764286994934 -0.005770433694124222 0.0056016286835074425 0 0 0 0
1741935460 0.28207483887672424 -0.6058182716369629 -0.004702629521489143 0.005965558812022209 0 0 0 0
1745657544 0.21381443738937378 -0.6321210265159607 -0.003842173144221306 0.005947430618107319 0 0 0 0
1749379628 0.14146780967712402 -0.6504604816436768 -0.0033301422372460365 0.005709225311875343 0 0 0 0
1753101712 0.06538265943527222 -0.6569430232048035 -0.0032147159799933434 0.005597059614956379 0 0 0 0
1756823796 -0.002020224928855896 -0.6505158543586731 -0.003356139175593853 0.005803633481264114 0 0 0 0
1760545880 -0.06992224603891373 -0.6348699331283569 -0.0033832667395472527 0.006601412780582905 0 0 0 0
1764267964 -0.1386203020811081 -0.6083091497421265 -0.0028899451717734337 0.0076643917709589005 0 0 0 0
1767990048 -0.19235262274742126 -0.5723108649253845 -0.0018631191924214363 0.008555241860449314 0 0 0 0
1771712132 -0.2484690546989441 -0.5290889739990234 -0.0004243571311235428 0.009345512837171555 0 0 0 0
1775434216 -0.2931556701660156 -0.47938960790634155 0.0011732038110494614 0.009241916239261627 0 0 0 0
1779156300 -0.3295443058013916 -0.4228682219982147 0.0024121906608343124 0.008943459950387478 0 0 0 0
1782878384 -0.3576095402240753 -0.3635435104370117 0.003500879742205143 0.008423497900366783 0 0 0 0
1786600468 -0.3770241141319275 -0.30162400007247925 0.00413544662296772 0.00773280207067728 0 0 0 0
1790322552 -0.3857911229133606 -0.23907198011875153 0.004474993795156479 0.0074706776067614555 0 0 0 0
1794044636 -0.3872542679309845 -0.1721941977739334 0.00519185233861208 0.007451871410012245 0 0 0 0
1797766720 -0.37568265199661255 -0.10952935367822647 0.005912786349654198 0.007309465669095516 0 0 0 0
1801488804 -0.35659539699554443 -0.04918116331100464 0.006684884428977966 0.007810913026332855 0 0 0 0
1805210888 -0.3280385732650757 0.006963208317756653 0.008270030841231346 0.008302616886794567 0 0 0 0
1808932972 -0.29310137033462524 0.05703387409448624 0.010783636011183262 0.008437195792794228 0 0 0 0
1812655056 -0.25010228157043457 0.1013152077794075 0.013662508688867092 0.00729184877127409 0 0 0 0
1816377140 -0.2016698718070984 0.13771630823612213 0.016561493277549744 0.005177498795092106 0 0 0 0
1820099224 -0.14721405506134033 0.16645637154579163 0.018796147778630257 0.001748913899064064 0 0 0 0
1823821308 -0.08920997381210327 0.18619823455810547 0.02008674480021 -0.0022979555651545525 0 0 0 0
1827543392 -0.030280306935310364 0.19472569227218628 0.019746800884604454 -0.006631656549870968 0 0 0 0
1831265476 0.027920469641685486 0.19386041164398193 0.019133036956191063 -0.010375096462666988 0 0 0 0
1834987560 0.08380191773176193 0.1839338093996048 0.017610006034374237 -0.014824090525507927 0 0 0 0
1838709644 0.1370798647403717 0.16581887006759644 0.014352681115269661 -0.01902620866894722 0 0 0 0
1842431728 0.18608245253562927 0.1403968185186386 0.010171763598918915 -0.021583465859293938 0 0 0 0
1846153812 0.22855119407176971 0.10841702669858932 0.0063491519540548325 -0.022661566734313965 0 0 0 0
1849875896 0.2653699815273285 0.06929178535938263 0.0031157303601503372 -0.02360188588500023 0 0 0 0
1853597980 0.2941954731941223 0.023147545754909515 -0.0006539709866046906 -0.024757886305451393 0 0 0 0
1857320064 0.3136773705482483 -0.02290862798690796 -0.005141446366906166 -0.025205351412296295 0 0 0 0
1861042148 0.3253856897354126 -0.07173055410385132 -0.009950365871191025 -0.024738099426031113 0 0 0 0
1864764232 0.3267134726047516 -0.1226159855723381 -0.014511384069919586 -0.023318925872445107 0 0 0 0
1868486316 0.3207760453224182 -0.16709402203559875 -0.01941630430519581 -0.021438971161842346 0 0 0 0
1872208400 0.30566588044166565 -0.2123604565858841 -0.024347709491848946 -0.017771180719137192 0 0 0 0
1875930484 0.2849315106868744 -0.2510269582271576 -0.0280960351228714 -0.012307997792959213 0 0 0 0
1879652568 0.2577612102031708 -0.2838633954524994 -0.030144445598125458 -0.006285610608756542 0 0 0 0
1883374652 0.2270987331867218 -0.310718297958374 -0.030976898968219757 -0.0002499893307685852 0 0 0 0
1887096736 0.1934775412082672 -0.33053767681121826 -0.03024289943277836 0.005508976057171822 0 0 0 0
1890818820 0.15994799137115479 -0.34300607442855835 -0.028706654906272888 0.010193693451583385 0 0 0 0
1894540904 0.12651227414608002 -0.34960880875587463 -0.02698013000190258 0.014753821305930614 0 0 0 0
1898262988 0.09331026673316956 -0.3515150547027588 -0.02460319921374321 0.019419558346271515 0 0 0 0
1901985072 0.05809463560581207 -0.3483816385269165 -0.021252721548080444 0.024047978222370148 0 0 0 0
1905707156 0.026081420481204987 -0.3388654887676239 -0.016596846282482147 0.028000524267554283 0 0 0 0
1909429240 -0.0005999207496643066 -0.3252025246620178 -0.011654533445835114 0.030896682292222977 0 0 0 0
1913151324 -0.025523267686367035 -0.3066810965538025 -0.006023634225130081 0.03307238966226578 0 0 0 0
1916873408 -0.04766311123967171 -0.2839498519897461 0.00020141806453466415 0.034270912408828735 0 0 0 0
1920595492 -0.06486377120018005 -0.25874772667884827 0.006913400255143642 0.0344209223985672 0 0 0 0
1924317576 -0.07550165057182312 -0.23110653460025787 0.013735603541135788 0.03355611488223076 0 0 0 0
1928039660 -0.08162563294172287 -0.20131085813045502 0.02128392644226551 0.030561843886971474 0 0 0 0
1931761744 -0.08248238265514374 -0.172094464302063 0.028340814635157585 0.02516767382621765 0 0 0 0
1935483828 -0.07546067237854004 -0.14451000094413757 0.03344494849443436 0.01788201555609703 0 0 0 0
1939205912 -0.06512163579463959 -0.12082215398550034 0.0357595756649971 0.008959181606769562 0 0 0 0
1942927996 -0.0506981760263443 -0.09957089275121689 0.03509015217423439 0.0007960069924592972 0 0 0 0
1946650080 -0.035691116005182266 -0.08170775324106216 0.03266940265893936 -0.006027712486684322 0 0 0 0
1950372164 -0.018091220408678055 -0.06610234081745148 0.029202140867710114 -0.011575444601476192 0 0 0 0
1954094248 0.0021129893139004707 -0.0535220131278038 0.025684600695967674 -0.01570568047463894 0 0 0 0
1957816332 0.02401195839047432 -0.04387189820408821 0.021817585453391075 -0.01926710456609726 0 0 0 0
1961538416 0.04764820635318756 -0.03829425200819969 0.016860974952578545 -0.021885057911276817 0 0 0 0
1965260500 0.07209929823875427 -0.037235163152217865 0.012482797726988792 -0.022763026878237724 0 0 0 0
1968982584 0.09723107516765594 -0.04137348756194115 0.008760225959122181 -0.023369787260890007 0 0 0 0
1972704668 0.12074775248765945 -0.04934457689523697 0.006107510067522526 -0.023718535900115967 0 0 0 0
1976426752 0.14222978055477142 -0.06328186392784119 0.003115612082183361 -0.02472061477601528 0 0 0 0
1980148836 0.16071227192878723 -0.08021790534257889 -0.0006166193634271622 -0.025780536234378815 0 0 0 0
1983870920 0.17418190836906433 -0.10035747289657593 -0.005205553025007248 -0.026106832548975945 0 0 0 0
1987593004 0.1827203929424286 -0.12258213758468628 -0.010106038302183151 -0.025171134620904922 0 0 0 0
1991315088 0.18720561265945435 -0.1453278660774231 -0.014791239984333515 -0.022971179336309433 0 0 0 0
1995037172 0.1880287528038025 -0.16784632205963135 -0.018990537151694298 -0.019820190966129303 0 0 0 0
1998759256 0.1859302520751953 -0.18889892101287842 -0.022400207817554474 -0.016013510525226593 0 0 0 0
2002481340 0.1804831326007843 -0.210271418094635 -0.024966448545455933 -0.0116262873634696 0 0 0 0
2006203424 0.17084383964538574 -0.23091144859790802 -0.02635931968688965 -0.0069176312536001205 0 0 0 0
2009925508 0.15829630196094513 -0.2500430643558502 -0.026980798691511154 -0.0022815056145191193 0 0 0 0
2013647592 0.14080123603343964 -0.26552844047546387 -0.027025574818253517 0.002049347385764122 0 0 0 0
2017369676 0.12157312780618668 -0.27904948592185974 -0.02636161632835865 0.0068877087906003 0 0 0 0
2021091760 0.1014944314956665 -0.2877557873725891 -0.024988071992993355 0.011545209214091301 0 0 0 0
2024813844 0.07556959241628647 -0.2930617928504944 -0.022557908669114113 0.015789328143000603 0 0 0 0
2028535928 0.051886364817619324 -0.29300457239151 -0.019309259951114655 0.019641883671283722 0 0 0 0
2032258012 0.027622144669294357 -0.28947746753692627 -0.015102301724255085 0.02284509502351284 0 0 0 0
2035980096 0.004891492426395416 -0.28163793683052063 -0.010813387110829353 0.0248627420514822 0 0 0 0
2039702180 -0.014866739511489868 -0.26965221762657166 -0.006055097095668316 0.02589506469666958 0 0 0 0
2043424264 -0.03361726552248001 -0.2566400170326233 -0.0014149956405162811 0.0257529579102993 0 0 0 0
2047146348 -0.05190369114279747 -0.24031229317188263 0.002725686877965927 0.02485896460711956 0 0 0 0
2050868432 -0.06641922146081924 -0.21963195502758026 0.005902973935008049 0.023761101067066193 0 0 0 0
2054590516 -0.07825420051813126 -0.19731196761131287 0.009128556586802006 0.022667305544018745 0 0 0 0
2058312600 -0.08647852391004562 -0.17254768311977386 0.012274371460080147 0.021534733474254608 0 0 0 0
2062034684 -0.0908697098493576 -0.1460428088903427 0.015945861116051674 0.019844945520162582 0 0 0 0
2065756768 -0.08971796929836273 -0.11956445127725601 0.019640836864709854 0.016666565090417862 0 0 0 0
2069478852 -0.08670975267887115 -0.09305332601070404 0.02223396860063076 0.012993569485843182 0 0 0 0
2073200936 -0.07914966344833374 -0.06532831490039825 0.024498913437128067 0.008611971512436867 0 0 0 0
2076923020 -0.06721167266368866 -0.03981166332960129 0.02547530084848404 0.003756904974579811 0 0 0 0
2080645104 -0.05063071474432945 -0.014797789976000786 0.02521752566099167 -0.0012254202738404274 0 0 0 0
2084367188 -0.03059726022183895 0.006875978782773018 0.024074362590909004 -0.0055055925622582436 0 0 0 0
2088089272 -0.006246914155781269 0.025564974173903465 0.02224138006567955 -0.00922516081482172 0 0 0 0
2091811356 0.021434761583805084 0.04011315852403641 0.020051563158631325 -0.012470475398004055 0 0 0 0
2095533440 0.050418224185705185 0.05178431048989296 0.017669212073087692 -0.01539403386414051 0 0 0 0
2099255524 0.08288698643445969 0.05908932536840439 0.014643015339970589 -0.018368609249591827 0 0 0 0
2102977608 0.11747283488512039 0.06048029661178589 0.011348331347107887 -0.02065095119178295 0 0 0 0
2106699692 0.15296445786952972 0.05609855800867081 0.00760918203741312 -0.02238663285970688 0 0 0 0
2110421776 0.1863267570734024 0.043329961597919464 0.0035249898210167885 -0.02324233017861843 0 0 0 0
2114143860 0.2184205949306488 0.02380402386188507 -0.0008500469848513603 -0.02378147467970848 0 0 0 0
2117865944 0.2448946237564087 -0.0010394454002380371 -0.005697035230696201 -0.023090910166502 0 0 0 0
2121588028 0.2655057907104492 -0.0274928230792284 -0.010024957358837128 -0.021548772230744362 0 0 0 0
2125310112 0.28062859177589417 -0.05920075625181198 -0.013843923807144165 -0.01876944676041603 0 0 0 0
2129032196 0.2909862697124481 -0.08925464004278183 -0.01702638529241085 -0.015364301390945911 0 0 0 0
2132754280 0.29632681608200073 -0.11819508671760559 -0.019372791051864624 -0.011888302862644196 0 0 0 0
2136476364 0.29740893840789795 -0.1509999930858612 -0.02124282531440258 -0.007222644053399563 0 0 0 0
2140198448 0.2956295609474182 -0.17998909950256348 -0.021610131487250328 -0.002409982495009899 0 0 0 0
2143920532 0.28779876232147217 -0.21260444819927216 -0.020185066387057304 0.0021825535222887993 0 0 0 0
2147642616 0.27549922466278076 -0.2436864674091339 -0.01778249815106392 0.005337760783731937 0 0 0 0
2151364700 0.25968775153160095 -0.2681844234466553 -0.015566244721412659 0.007270094007253647 0 0 0 0
2155086784 0.23793670535087585 -0.2925918400287628 -0.013587678782641888 0.008557519875466824 0 0 0 0
2158808868 0.211087167263031 -0.3136569857597351 -0.011972674168646336 0.009475979954004288 0 0 0 0
2162530952 0.1860937923192978 -0.32734596729278564 -0.010842912830412388 0.010422040708363056 0 0 0 0
2166253036 0.15420779585838318 -0.33885663747787476 -0.009242737665772438 0.011913157068192959 0 0 0 0
2169975120 0.12313982844352722 -0.34462231397628784 -0.007422994822263718 0.013162401504814625 0 0 0 0
2173697204 0.09491589665412903 -0.3449154198169708 -0.004997313022613525 0.013817825354635715 0 0 0 0
2177419288 0.06245087832212448 -0.3412923216819763 -0.0030820611864328384 0.013551689684391022 0 0 0 0
2181141372 0.03285255283117294 -0.3328849673271179 -0.0017201090231537819 0.013531423173844814 0 0 0 0
2184863456 0.005193471908569336 -0.3191410303115845 -0.0005040830001235008 0.013739613816142082 0 0 0 0
2188585540 -0.020788514986634254 -0.3007538318634033 0.0013074595481157303 0.014379081316292286 0 0 0 0
2192307624 -0.04385911673307419 -0.278833270072937 0.003583816811442375 0.014652058482170105 0 0 0 0
2196029708 -0.05995717644691467 -0.25366464257240295 0.0061712563037872314 0.014286879450082779 0 0 0 0
2199751792 -0.07249169051647186 -0.2278681993484497 0.008892993442714214 0.013597201555967331 0 0 0 0
2203473876 -0.08263464272022247 -0.19730272889137268 0.011594430543482304 0.01153077557682991 0 0 0 0
2207195960 -0.08764057606458664 -0.16845175623893738 0.013766366988420486 0.008847476914525032 0 0 0 0
2210918044 -0.08926478773355484 -0.1379038244485855 0.014834454283118248 0.00628850981593132 0 0 0 0
2214640128 -0.0848991870880127 -0.10841630399227142 0.01526828482747078 0.0033408720046281815 0 0 0 0
2218362212 -0.07633714377880096 -0.07959659397602081 0.015376688912510872 0.000804876908659935 0 0 0 0
2222084296 -0.06440278887748718 -0.04881558567285538 0.01485392078757286 -0.002101382240653038 0 0 0 0
2225806380 -0.04521312192082405 -0.019961826503276825 0.01396850124001503 -0.0043096840381622314 0 0 0 0
2229528464 -0.019171154126524925 0.005272618494927883 0.012668682262301445 -0.006599055603146553 0 0 0 0
2233250548 0.012112710624933243 0.022966254502534866 0.011515449732542038 -0.00836003478616476 0 0 0 0
2236972632 0.04521102085709572 0.03447427228093147 0.009733048267662525 -0.010383935645222664 0 0 0 0
2240694716 0.07964930683374405 0.03984915837645531 0.007605024613440037 -0.011856188997626305 0 0 0 0
2244416800 0.11448691785335541 0.0362389013171196 0.005586404353380203 -0.01272004283964634 0 0 0 0
2248138884 0.14748062193393707 0.029355164617300034 0.0034663211554288864 -0.013654617592692375 0 0 0 0
2251860968 0.17687827348709106 0.01485086977481842 0.0016066785901784897 -0.013893991708755493 0 0 0 0
2255583052 0.20266419649124146 -0.006326206028461456 -0.001277979463338852 -0.014224274083971977 0 0 0 0
2259305136 0.2253953218460083 -0.02829142101109028 -0.004031555727124214 -0.01330406405031681 0 0 0 0
2263027220 0.24057075381278992 -0.05877859890460968 -0.006234535947442055 -0.011808425188064575 0 0 0 0
2266749304 0.2515726089477539 -0.08436883985996246 -0.007756656967103481 -0.009901094250380993 0 0 0 0
2270471388 0.2553600072860718 -0.11505167931318283 -0.00844047125428915 -0.008354192599654198 0 0 0 0
2274193472 0.25394803285598755 -0.1404559165239334 -0.009014456532895565 -0.0070615001022815704 0 0 0 0
2277915556 0.25246763229370117 -0.16518732905387878 -0.009331487119197845 -0.0061937859281897545 0 0 0 0
2281637640 0.24414074420928955 -0.1926456093788147 -0.010083774104714394 -0.0056355539709329605 0 0 0 0
2285359724 0.2316356897354126 -0.21659386157989502 -0.011286982335150242 -0.00461485143750906 0 0 0 0
2289081808 0.2155572772026062 -0.2387939691543579 -0.012243586592376232 -0.00310671329498291 0 0 0 0
2292803892 0.19213148951530457 -0.25843727588653564 -0.013166742399334908 -0.0014107245951890945 0 0 0 0
2296525976 0.1692718267440796 -0.270515501499176 -0.013853862881660461 0.0008537257090210915 0 0 0 0
2300248060 0.14441803097724915 -0.28004351258277893 -0.013486383482813835 0.0036048945039510727 0 0 0 0
2303970144 0.11421258002519608 -0.2888592779636383 -0.01236633025109768 0.005972268059849739 0 0 0 0
2307692228 0.09196621924638748 -0.2846064567565918 -0.011025205254554749 0.0076201604679226875 0 0 0 0
2311414312 0.06807434558868408 -0.2803730070590973 -0.00964986439794302 0.008667982183396816 0 0 0 0
2315136396 0.042419299483299255 -0.2709951400756836 -0.007992050610482693 0.009775223210453987 0 0 0 0
2318858480 0.017479240894317627 -0.25930944085121155 -0.0062357960268855095 0.01018949132412672 0 0 0 0
2322580564 -0.008295319974422455 -0.24164041876792908 -0.004672831855714321 0.010708644986152649 0 0 0 0
2326302648 -0.024689525365829468 -0.21922427415847778 -0.00328095443546772 0.010748416185379028 0 0 0 0
2330024732 -0.03553106263279915 -0.19531959295272827 -0.002195321023464203 0.010742696933448315 0 0 0 0
2333746816 -0.0465608611702919 -0.1691107302904129 -0.0008516386151313782 0.0107591412961483 0 0 0 0
2337468900 -0.05626201629638672 -0.1377473622560501 0.0006625484675168991 0.010427760891616344 0 0 0 0
2341190984 -0.05137928947806358 -0.1099119558930397 0.001814057119190693 0.010144507512450218 0 0 0 0
2344913068 -0.04793006554245949 -0.07889623939990997 0.003239820711314678 0.009490380994975567 0 0 0 0
2348635152 -0.03725998476147652 -0.05061205103993416 0.004445499740540981 0.008424241095781326 0 0 0 0
2352357236 -0.019994143396615982 -0.024968095123767853 0.005188808776438236 0.007155558094382286 0 0 0 0
2356079320 0.0019158311188220978 -0.002157337963581085 0.005530468188226223 0.006343702785670757 0 0 0 0
2359801404 0.026822492480278015 0.015473801642656326 0.006223326548933983 0.005587338469922543 0 0 0 0
2363523488 0.054081618785858154 0.028811294585466385 0.006881150417029858 0.00439999345690012 0 0 0 0
2367245572 0.08217981457710266 0.03805830329656601 0.006976584903895855 0.0030121775344014168 0 0 0 0
2370967656 0.1121475100517273 0.04195871204137802 0.006902621127665043 0.0013884911313652992 0 0 0 0
2374689740 0.14230993390083313 0.04144805669784546 0.006183505058288574 0.0002213548868894577 0 0 0 0
2378411824 0.17203712463378906 0.03677678108215332 0.005376794375479221 -0.0005272636190056801 0 0 0 0
2382133908 0.20321024954319 0.02643118053674698 0.004489384591579437 -0.0007394943386316299 0 0 0 0
2385855992 0.23149222135543823 0.010223388671875 0.003925465978682041 -0.0007737679407000542 0 0 0 0
2389578076 0.25648272037506104 -0.010255686938762665 0.003620043396949768 -0.0007663574069738388 0 0 0 0
2393300160 0.2772672772407532 -0.036072738468647 0.003705419600009918 -0.000797659158706665 0 0 0 0
2397022244 0.2929936349391937 -0.06263232231140137 0.003802923485636711 -0.0010559819638729095 0 0 0 0
2400744328 0.3017702102661133 -0.09576420485973358 0.003790769726037979 -0.0017031878232955933 0 0 0 0
2404466412 0.30774790048599243 -0.12785369157791138 0.0035481788218021393 -0.002193641848862171 0 0 0 0
2408188496 0.3095196783542633 -0.1589009165763855 0.0033415546640753746 -0.0028125103563070297 0 0 0 0
2411910580 0.3028136193752289 -0.1915224939584732 0.0028780316933989525 -0.0036326125264167786 0 0 0 0
2415632664 0.2919197976589203 -0.22353236377239227 0.001768619753420353 -0.004358797334134579 0 0 0 0
2419354748 0.2788749039173126 -0.24807511270046234 0.00043838750571012497 -0.004214378073811531 0 0 0 0
2423076832 0.2575030028820038 -0.27348393201828003 -0.000628231093287468 -0.003669355995953083 0 0 0 0
2426798916 0.23337283730506897 -0.29507195949554443 -0.001219751313328743 -0.0031378334388136864 0 0 0 0
2430521000 0.2108786404132843 -0.3087032437324524 -0.0002252841368317604 -0.001560949720442295 0 0 0 0
2434243084 0.1836744248867035 -0.32180100679397583 -0.0014403332024812698 -0.0015431037172675133 0 0 0 0
2437965168 0.15738531947135925 -0.3298547863960266 -0.0011270735412836075 -0.0009645186364650726 0 0 0 0
2441687252 0.13204193115234375 -0.3348768949508667 -0.0003941701725125313 -0.0007288521155714989 0 0 0 0
2445409336 0.10014933347702026 -0.3377939462661743 0.00014892127364873886 -0.0010672686621546745 0 0 0 0
2449131420 0.06935730576515198 -0.3348155617713928 0.000383550301194191 -0.001561102457344532 0 0 0 0
2452853504 0.040757328271865845 -0.32869380712509155 0.00037904921919107437 -0.0020519671961665154 0 0 0 0
2456575588 0.012297376990318298 -0.3173373341560364 0.00013443175703287125 -0.0026065027341246605 0 0 0 0
2460297672 -0.014097154140472412 -0.3018624186515808 -0.00015111826360225677 -0.0027937544509768486 0 0 0 0
2464019756 -0.03672660142183304 -0.2810449004173279 -0.0005300585180521011 -0.0028949230909347534 0 0 0 0
2467741840 -0.05658872798085213 -0.2576686143875122 -0.0007909117266535759 -0.002834704704582691 0 0 0 0
2471463924 -0.07621423900127411 -0.23120133578777313 -0.0008399356156587601 -0.0031242622062563896 0 0 0 0
2475186008 -0.08799789845943451 -0.20217491686344147 -0.000969219021499157 -0.003572894260287285 0 0 0 0
2478908092 -0.09599949419498444 -0.16938906908035278 -0.001528378576040268 -0.004181371070444584 0 0 0 0
2482630176 -0.09674326330423355 -0.13648229837417603 -0.0024431459605693817 -0.004548574797809124 0 0 0 0
2486352260 -0.0935303121805191 -0.10252611339092255 -0.003668367862701416 -0.004638306796550751 0 0 0 0
2490074344 -0.08401037007570267 -0.07247978448867798 -0.004554358310997486 -0.004307199269533157 0 0 0 0
2493796428 -0.07045554369688034 -0.04368327930569649 -0.005474884994328022 -0.0039031878113746643 0 0 0 0
2497518512 -0.053055454045534134 -0.018458986654877663 -0.006540148518979549 -0.0034587038680911064 0 0 0 0
2501240596 -0.03183987736701965 0.0035321516916155815 -0.0076104626059532166 -0.002461143769323826 0 0 0 0
2504962680 -0.007384315133094788 0.02237442508339882 -0.008381985127925873 -0.0011948151513934135 0 0 0 0
2508684764 0.01976250857114792 0.036144860088825226 -0.008795558474957943 0.00028696563094854355 0 0 0 0
2512406848 0.04735325649380684 0.04589809104800224 -0.009040024131536484 0.001994752325117588 0 0 0 0
2516128932 0.0765509158372879 0.05136178433895111 -0.008749568834900856 0.0035318294540047646 0 0 0 0
2519851016 0.10571069270372391 0.052151940762996674 -0.008099706843495369 0.005186987109482288 0 0 0 0
2523573100 0.1336420476436615 0.049234457314014435 -0.0068604229018092155 0.006594305858016014 0 0 0 0
2527295184 0.16229984164237976 0.04079790785908699 -0.00552507396787405 0.007313908077776432 0 0 0 0
2531017268 0.18811878561973572 0.02762419730424881 -0.004298411309719086 0.007994179613888264 0 0 0 0
2534739352 0.2113954722881317 0.010076791048049927 -0.002840501256287098 0.008352084085345268 0 0 0 0
2538461436 0.23098763823509216 -0.010002821683883667 -0.0016549909487366676 0.008482499979436398 0 0 0 0
2542183520 0.24532826244831085 -0.03340434283018112 -0.00043542124330997467 0.008405979722738266 0 0 0 0
2545905604 0.25575199723243713 -0.05772073194384575 0.0005951188504695892 0.008179133757948875 0 0 0 0
2549627688 0.26176419854164124 -0.08297677338123322 0.0015986906364560127 0.007780029438436031 0 0 0 0
2553349772 0.26427948474884033 -0.10756246000528336 0.0025574518367648125 0.007601971738040447 0 0 0 0
2557071856 0.26197198033332825 -0.13174565136432648 0.0038040252402424812 0.00729048065841198 0 0 0 0
2560793940 0.256826251745224 -0.152950257062912 0.004956785589456558 0.006968892179429531 0 0 0 0
2564516024 0.24595414102077484 -0.1745668351650238 0.006055967882275581 0.006058571860194206 0 0 0 0
2568238108 0.2351437509059906 -0.19046634435653687 0.007005641236901283 0.005165344104170799 0 0 0 0
2571960192 0.21828067302703857 -0.20842613279819489 0.008092000149190426 0.003870297223329544 0 0 0 0
2575682276 0.20662271976470947 -0.21677805483341217 0.008955860510468483 0.0027805808931589127 0 0 0 0
2579404360 0.1901058703660965 -0.22679948806762695 0.00956769846379757 0.0008454583585262299 0 0 0 0
2583126444 0.17206135392189026 -0.23406149446964264 0.009678315371274948 -0.0010571656748652458 0 0 0 0
2586848528 0.15610678493976593 -0.23858390748500824 0.009191368706524372 -0.0029477477073669434 0 0 0 0
2590570612 0.14154987037181854 -0.2396131157875061 0.008566281758248806 -0.004770344123244286 0 0 0 0
2594292696 0.12401477247476578 -0.2391025573015213 0.007397438399493694 -0.006135848350822926 0 0 0 0
2598014780 0.10969547927379608 -0.2360069453716278 0.006016505882143974 -0.007355061359703541 0 0 0 0
2601736864 0.09878095239400864 -0.23089846968650818 0.004551573656499386 -0.00811194907873869 0 0 0 0
2605458948 0.0865800678730011 -0.22450874745845795 0.0030638379976153374 -0.008401241153478622 0 0 0 0
2609181032 0.0774822011590004 -0.21664229035377502 0.001842232421040535 -0.008249587379395962 0 0 0 0
2612903116 0.06952817738056183 -0.20803973078727722 0.0008886316791176796 -0.008218396455049515 0 0 0 0
2616625200 0.06087745353579521 -0.2002231776714325 0.00016088783740997314 -0.008314651437103748 0 0 0 0
2620347284 0.05721030756831169 -0.189733624458313 -0.0006363298743963242 -0.008661923930048943 0 0 0 0
2624069368 0.05213474854826927 -0.18008780479431152 -0.0015659425407648087 -0.009089617058634758 0 0 0 0
2627791452 0.049783725291490555 -0.16974002122879028 -0.0025661149993538857 -0.009137340821325779 0 0 0 0
2631513536 0.05085839703679085 -0.16047675907611847 -0.003720550797879696 -0.00895813386887312 0 0 0 0
2635235620 0.05100802704691887 -0.1505836695432663 -0.0050078267231583595 -0.008833745494484901 0 0 0 0
2638957704 0.051363199949264526 -0.14346766471862793 -0.006576861254870892 -0.00845501758158207 0 0 0 0
2642679788 0.056679606437683105 -0.13356977701187134 -0.008089321665465832 -0.0073570627719163895 0 0 0 0
2646401872 0.06285198032855988 -0.126790389418602 -0.009427495300769806 -0.006210087798535824 0 0 0 0
2650123956 0.06850230693817139 -0.12212009727954865 -0.010587452910840511 -0.004949876107275486 0 0 0 0
2653846040 0.0753646269440651 -0.11895957589149475 -0.011861802078783512 -0.0033290302380919456 0 0 0 0
2657568124 0.0825662687420845 -0.11700699478387833 -0.012924760580062866 -0.0011518588289618492 0 0 0 0
2661290208 0.08948568999767303 -0.11896158754825592 -0.01337001658976078 0.0015853065997362137 0 0 0 0
2665012292 0.09678349643945694 -0.12010900676250458 -0.013004790060222149 0.004370245151221752 0 0 0 0
2668734376 0.10134993493556976 -0.12402519583702087 -0.01173597201704979 0.007038980722427368 0 0 0 0
2672456460 0.10584715753793716 -0.1277836263179779 -0.00986669771373272 0.009079399518668652 0 0 0 0
2676178544 0.10687180608510971 -0.13315217196941376 -0.0076153464615345 0.010495118796825409 0 0 0 0
2679900628 0.10860094428062439 -0.13678933680057526 -0.005329368636012077 0.011507388204336166 0 0 0 0
2683622712 0.10929660499095917 -0.14167460799217224 -0.0029334314167499542 0.01196329202502966 0 0 0 0
2687344796 0.11076251417398453 -0.14578595757484436 -0.0005402164533734322 0.011984261684119701 0 0 0 0
2691066880 0.10746791958808899 -0.1529524326324463 0.0016555823385715485 0.011383424513041973 0 0 0 0
2694788964 0.10682336241006851 -0.15716250240802765 0.0038276677951216698 0.010321201756596565 0 0 0 0
2698511048 0.10295775532722473 -0.16204816102981567 0.005191653035581112 0.009028689004480839 0 0 0 0
2702233132 0.09897007048130035 -0.16761355102062225 0.006447323597967625 0.00806350726634264 0 0 0 0
2705955216 0.09396779537200928 -0.17230507731437683 0.007534668780863285 0.006763501092791557 0 0 0 0
2709677300 0.08531460911035538 -0.1769779771566391 0.008636480197310448 0.005334818735718727 0 0 0 0
2713399384 0.07645245641469955 -0.1790626347064972 0.00978187657892704 0.0036584651097655296 0 0 0 0
2717121468 0.06837837398052216 -0.17887601256370544 0.010490195825695992 0.0018420945852994919 0 0 0 0
2720843552 0.0573468953371048 -0.1774214506149292 0.010744462721049786 -0.0005958676338195801 0 0 0 0
2724565636 0.04656023532152176 -0.1734747439622879 0.010303639806807041 -0.002790159545838833 0 0 0 0
2728287720 0.03652229160070419 -0.16759222745895386 0.009219037368893623 -0.004676349461078644 0 0 0 0
2732009804 0.025693338364362717 -0.1599167436361313 0.00799513328820467 -0.0062116701155900955 0 0 0 0
2735731888 0.018623124808073044 -0.14987099170684814 0.007130388170480728 -0.0074497414752841 0 0 0 0
2739453972 0.011761032044887543 -0.13788479566574097 0.005658642388880253 -0.008739741519093513 0 0 0 0
2743176056 0.0060171522200107574 -0.12408672273159027 0.004132463596761227 -0.009865919128060341 0 0 0 0
2746898140 0.0037970300763845444 -0.10970816016197205 0.0020294394344091415 -0.010781642980873585 0 0 0 0
2750620224 0.0052627138793468475 -0.09371703118085861 -0.00016275979578495026 -0.011361377313733101 0 0 0 0
2754342308 0.008427128195762634 -0.07835962623357773 -0.0027175992727279663 -0.011099385097622871 0 0 0 0
2758064392 0.014116143807768822 -0.06339868158102036 -0.005176147446036339 -0.010149578563869 0 0 0 0
2761786476 0.02339497022330761 -0.049380622804164886 -0.007265723310410976 -0.008627346716821194 0 0 0 0
2765508560 0.03436887636780739 -0.03776019811630249 -0.008597146719694138 -0.006548447534441948 0 0 0 0
2769230644 0.0472179539501667 -0.027563367038965225 -0.009400459937751293 -0.004394369199872017 0 0 0 0
2772952728 0.06185413897037506 -0.018631629645824432 -0.0095541812479496 -0.0024695899337530136 0 0 0 0
2776674812 0.07740174233913422 -0.013004066422581673 -0.009499295614659786 -0.0007268339395523071 0 0 0 0
2780396896 0.09428094327449799 -0.008554399013519287 -0.009249177761375904 0.0008128909394145012 0 0 0 0
2784118980 0.11136414855718613 -0.007579542696475983 -0.009020467288792133 0.0023586228489875793 0 0 0 0
2787841064 0.1291097104549408 -0.007730692625045776 -0.008654860779643059 0.004228575155138969 0 0 0 0
2791563148 0.1481075882911682 -0.012627441436052322 -0.0074832867830991745 0.006302333436906338 0 0 0 0
2795285232 0.1655818670988083 -0.0177453625947237 -0.005359587259590626 0.008007361553609371 0 0 0 0
2799007316 0.1821640580892563 -0.026749569922685623 -0.002971743233501911 0.008687278255820274 0 0 0 0
2802729400 0.19872592389583588 -0.03789720684289932 -0.0007517440244555473 0.008543454110622406 0 0 0 0
2806451484 0.21240657567977905 -0.05326900631189346 0.0012368569150567055 0.00784600991755724 0 0 0 0
2810173568 0.22410382330417633 -0.06838870048522949 0.002612471580505371 0.006990201771259308 0 0 0 0
2813895652 0.2337663322687149 -0.0851324051618576 0.0038813594728708267 0.0060151563957333565 0 0 0 0
2817617736 0.24010461568832397 -0.10769914090633392 0.004868474788963795 0.004636525176465511 0 0 0 0
2821339820 0.24348019063472748 -0.12834157049655914 0.005315503105521202 0.003372933715581894 0 0 0 0
2825061904 0.2431948035955429 -0.1491186022758484 0.005627196282148361 0.002222411334514618 0 0 0 0
2828783988 0.24070483446121216 -0.17094838619232178 0.005707258358597755 0.0013902690261602402 0 0 0 0
2832506072 0.2381853312253952 -0.18884159624576569 0.0058623142540454865 0.00021222420036792755 0 0 0 0
2836228156 0.23121048510074615 -0.2092282921075821 0.0057365624234080315 -0.0008408846333622932 0 0 0 0
2839950240 0.2220144122838974 -0.22928106784820557 0.005318823270499706 -0.0017881356179714203 0 0 0 0
2843672324 0.20994043350219727 -0.2501220703125 0.0049095237627625465 -0.0024522552266716957 0 0 0 0
2847394408 0.19694361090660095 -0.26628291606903076 0.004744184203445911 -0.003033127635717392 0 0 0 0
2851116492 0.17503373324871063 -0.28132036328315735 0.0045632049441337585 -0.0038344087079167366 0 0 0 0
2854838576 0.1554284691810608 -0.29619577527046204 0.004032905213534832 -0.004935486242175102 0 0 0 0
2858560660 0.1410485953092575 -0.3043387830257416 0.0034887660294771194 -0.006180114112794399 0 0 0 0
2862282744 0.11172915250062943 -0.3153340220451355 0.002027408219873905 -0.0071153901517391205 0 0 0 0
2866004828 0.0925406813621521 -0.31881213188171387 0.000580604188144207 -0.0074159856885671616 0 0 0 0
2869726912 0.06855364143848419 -0.3191659450531006 -0.0008393693715333939 -0.007298145443201065 0 0 0 0
2873448996 0.04069623723626137 -0.3175157904624939 -0.0022953730076551437 -0.006914031691849232 0 0 0 0
2877171080 0.014703698456287384 -0.312136709690094 -0.003633790649473667 -0.0061882417649030685 0 0 0 0
2880893164 -0.004914477467536926 -0.3044772744178772 -0.004511366598308086 -0.005117807537317276 0 0 0 0
2884615248 -0.027523845434188843 -0.29193413257598877 -0.0050826044753193855 -0.0037503931671380997 0 0 0 0
2888337332 -0.05201030522584915 -0.2772505283355713 -0.005393862724304199 -0.0025665638968348503 0 0 0 0
2892059416 -0.0726354718208313 -0.2598561644554138 -0.005373014137148857 -0.001405615359544754 0 0 0 0
2895781500 -0.08966665714979172 -0.2392750382423401 -0.005163958296179771 -0.0004523005336523056 0 0 0 0
2899503584 -0.10346488654613495 -0.21782390773296356 -0.004984123632311821 0.0004150373861193657 0 0 0 0
2903225668 -0.11671645194292068 -0.1925944983959198 -0.004517647437751293 0.001350555568933487 0 0 0 0
2906947752 -0.12528648972511292 -0.1673671156167984 -0.00399275217205286 0.002138705924153328 0 0 0 0
2910669836 -0.12970425188541412 -0.13919198513031006 -0.0033218413591384888 0.002822968177497387 0 0 0 0
2914391920 -0.1312190443277359 -0.1116233691573143 -0.0025535468012094498 0.003181101754307747 0 0 0 0
2918114004 -0.12759320437908173 -0.08247850835323334 -0.0018783947452902794 0.003516288474202156 0 0 0 0
2921836088 -0.12047915160655975 -0.05597846955060959 -0.0009301137179136276 0.0036093667149543762 0 0 0 0
2925558172 -0.11045537143945694 -0.02888055518269539 -0.00022505130618810654 0.0036572450771927834 0 0 0 0
2929280256 -0.09652391076087952 -0.004541460424661636 0.0003908611834049225 0.003612970933318138 0 0 0 0
2933002340 -0.07897648960351944 0.01760602556169033 0.0008918400853872299 0.0034489845857024193 0 0 0 0
2936724424 -0.05869877338409424 0.03788018971681595 0.001513550989329815 0.003265337087213993 0 0 0 0
2940446508 -0.03649722784757614 0.05377824977040291 0.002048168331384659 0.00322043988853693 0 0 0 0
2944168592 -0.0119257103651762 0.06745390594005585 0.0027896855026483536 0.002967618405818939 0 0 0 0
2947890676 0.01377340778708458 0.07787558436393738 0.0035467874258756638 0.002694062888622284 0 0 0 0
2951612760 0.04107440263032913 0.08517707139253616 0.004374834708869457 0.002147939056158066 0 0 0 0
2955334844 0.0683232918381691 0.08869805932044983 0.004880190826952457 0.001171189360320568 0 0 0 0
2959056928 0.09643524140119553 0.08848775923252106 0.005239530466496944 0.000361686572432518 0 0 0 0
2962779012 0.12583184242248535 0.08327890932559967 0.005491458810865879 -0.0006296634674072266 0 0 0 0
2966501096 0.152760848402977 0.07350575923919678 0.005528716370463371 -0.0017928415909409523 0 0 0 0
2970223180 0.17817360162734985 0.06049046292901039 0.005273680202662945 -0.003087335266172886 0 0 0 0
2973945264 0.20014415681362152 0.044467031955718994 0.004241413436830044 -0.004134494811296463 0 0 0 0
2977667348 0.22034123539924622 0.02341422438621521 0.0033597908914089203 -0.004788011312484741 0 0 0 0
2981389432 0.23580798506736755 0.004562981426715851 0.0023840488865971565 -0.005256739445030689 0 0 0 0
2985111516 0.2491236925125122 -0.01675564795732498 0.0014282753691077232 -0.005537579767405987 0 0 0 0
2988833600 0.256960928440094 -0.044935233891010284 0.00017746444791555405 -0.005896464921534061 0 0 0 0
2992555684 0.2628130316734314 -0.0651777908205986 -0.0011177677661180496 -0.0056777577847242355 0 0 0 0
2996277768 0.2656170725822449 -0.09052970260381699 -0.002365304157137871 -0.005273958668112755 0 0 0 0
2999999852 0.2643716335296631 -0.11584845185279846 -0.003546135500073433 -0.0043798573315143585 0 0 0 0
