# HZ S RI R 50
1500000000 -0.08967974036931992 -0.09562422335147858 0.04081759601831436 -0.024782750755548477 0 0 0 0
1503722084 -0.09170425683259964 -0.06905151158571243 0.03575872257351875 -0.029862182214856148 0 0 0 0
1507444168 -0.08469748497009277 -0.04177430644631386 0.031122364103794098 -0.03443256765604019 0 0 0 0
1511166252 -0.070323646068573 -0.014189711771905422 0.02558826096355915 -0.03960053622722626 0 0 0 0
1514888336 -0.0493917241692543 0.010905493050813675 0.01846114918589592 -0.04433688893914223 0 0 0 0
1518610420 -0.02271265909075737 0.03362752124667168 0.00918157771229744 -0.04760865867137909 0 0 0 0
1522332504 0.010280760005116463 0.0523177906870842 -0.0013599097728729248 -0.04762387275695801 0 0 0 0
1526054588 0.049576446413993835 0.06422977149486542 -0.011178390122950077 -0.04391362890601158 0 0 0 0
1529776672 0.09225817769765854 0.06951075792312622 -0.017713651061058044 -0.03800253942608833 0 0 0 0
1533498756 0.13772454857826233 0.06538564711809158 -0.021597135812044144 -0.03246568888425827 0 0 0 0
1537220840 0.18404611945152283 0.0512215793132782 -0.024887017905712128 -0.027448466047644615 0 0 0 0
1540942924 0.2276763767004013 0.029035648331046104 -0.02744336612522602 -0.022608034312725067 0 0 0 0
1544665008 0.2678612768650055 -0.0031481999903917313 -0.02935834974050522 -0.01712319441139698 0 0 0 0
1548387092 0.3006509244441986 -0.043587781488895416 -0.02976212091743946 -0.011731616221368313 0 0 0 0
1552109176 0.3256964087486267 -0.08862920105457306 -0.02930997684597969 -0.007313842885196209 0 0 0 0
1555831260 0.3433760106563568 -0.13766539096832275 -0.0286784078925848 -0.0034825755283236504 0 0 0 0
1559553344 0.3529689610004425 -0.18914073705673218 -0.028125127777457237 0.0002506794407963753 0 0 0 0
1563275428 0.3546779751777649 -0.2415347546339035 -0.027311531826853752 0.00411676149815321 0 0 0 0
1566997512 0.34873664379119873 -0.2965307831764221 -0.025364814326167107 0.00810941681265831 0 0 0 0
1570719596 0.33274757862091064 -0.3484818935394287 -0.022584984079003334 0.011099008843302727 0 0 0 0
1574441680 0.3078952133655548 -0.39821678400039673 -0.019534951075911522 0.013460256159305573 0 0 0 0
1578163764 0.275237113237381 -0.44547563791275024 -0.01657920517027378 0.014887199737131596 0 0 0 0
1581885848 0.24007436633110046 -0.48403307795524597 -0.014070994220674038 0.015929630026221275 0 0 0 0
1585607932 0.1912059485912323 -0.5195698142051697 -0.011633280664682388 0.016490159556269646 0 0 0 0
1589330016 0.14320170879364014 -0.5474321842193604 -0.009517676196992397 0.017037779092788696 0 0 0 0
1593052100 0.09063175320625305 -0.5679084062576294 -0.007504682056605816 0.017308738082647324 0 0 0 0
1596774184 0.03526759147644043 -0.5812955498695374 -0.005632559768855572 0.017527351155877113 0 0 0 0
1600496268 -0.02610422670841217 -0.5877232551574707 -0.0038856929168105125 0.018021324649453163 0 0 0 0
1604218352 -0.08398903906345367 -0.5848031640052795 -0.00213672686368227 0.018499312922358513 0 0 0 0
1607940436 -0.14497077465057373 -0.573395311832428 0.00019533652812242508 0.01908142864704132 0 0 0 0
1611662520 -0.2068881094455719 -0.552567720413208 0.002866285853087902 0.019404208287596703 0 0 0 0
1615384604 -0.26174017786979675 -0.5242012739181519 0.006019879132509232 0.019220847636461258 0 0 0 0
1619106688 -0.3187180757522583 -0.4841400682926178 0.009447110816836357 0.018098613247275352 0 0 0 0
1622828772 -0.36386799812316895 -0.43774521350860596 0.012108812108635902 0.016031943261623383 0 0 0 0
1626550856 -0.40590453147888184 -0.37971633672714233 0.014352347701787949 0.013344170525670052 0 0 0 0
1630272940 -0.43771126866340637 -0.31767258048057556 0.015746507793664932 0.011116763576865196 0 0 0 0
1633995024 -0.4621468782424927 -0.2517048120498657 0.016989026218652725 0.008567191660404205 0 0 0 0
1637717108 -0.4769975543022156 -0.18031325936317444 0.01793484203517437 0.006122494116425514 0 0 0 0
1641439192 -0.4798572063446045 -0.1038600504398346 0.018580958247184753 0.003385704942047596 0 0 0 0
1645161276 -0.4709088206291199 -0.029118016362190247 0.01901589334011078 0.00047842785716056824 0 0 0 0
1648883360 -0.4486851394176483 0.046485599130392075 0.018729370087385178 -0.0023714276030659676 0 0 0 0
1652605444 -0.4158056080341339 0.11588312685489655 0.018207702785730362 -0.0050500379875302315 0 0 0 0
1656327528 -0.3728139400482178 0.18019713461399078 0.017790168523788452 -0.0077263424172997475 0 0 0 0
1660049612 -0.3177596628665924 0.2413749247789383 0.016824210062623024 -0.011089077219367027 0 0 0 0
1663771696 -0.2545066773891449 0.2917892634868622 0.01460674125701189 -0.01466840784996748 0 0 0 0
1667493780 -0.18076834082603455 0.3339105248451233 0.011080602183938026 -0.01743805594742298 0 0 0 0
1671215864 -0.10156339406967163 0.3630183935165405 0.006788888014853001 -0.018717847764492035 0 0 0 0
1674937948 -0.019997969269752502 0.3775447607040405 0.0027723992243409157 -0.018614521250128746 0 0 0 0
1678660032 0.06433749198913574 0.3788367211818695 -0.00042244046926498413 -0.017539700493216515 0 0 0 0
1682382116 0.14814648032188416 0.36615628004074097 -0.002741157077252865 -0.016017993912100792 0 0 0 0
1686104200 0.22897285223007202 0.3407842218875885 -0.004509995691478252 -0.014894010499119759 0 0 0 0
1689826284 0.3052161931991577 0.30329614877700806 -0.006435368210077286 -0.014027871191501617 0 0 0 0
1693548368 0.3719944357872009 0.257359117269516 -0.008657250553369522 -0.012622518464922905 0 0 0 0
1697270452 0.4315757155418396 0.2005251944065094 -0.010282319970428944 -0.010455332696437836 0 0 0 0
1700992536 0.48219969868659973 0.13312825560569763 -0.011247026734054089 -0.008123139850795269 0 0 0 0
1704714620 0.5211868286132812 0.060980040580034256 -0.011352907866239548 -0.006173267960548401 0 0 0 0
1708436704 0.5478207468986511 -0.017086297273635864 -0.011510282754898071 -0.004706563428044319 0 0 0 0
1712158788 0.5612528920173645 -0.09700720012187958 -0.011882586404681206 -0.0032784389331936836 0 0 0 0
1715880872 0.5648004412651062 -0.1740867644548416 -0.012181565165519714 -0.0015588896349072456 0 0 0 0
1719602956 0.5545623302459717 -0.25145846605300903 -0.01187476422637701 0.0005242079496383667 0 0 0 0
1723325040 0.5323002934455872 -0.32866066694259644 -0.010954106226563454 0.0022077392786741257 0 0 0 0
1727047124 0.5033608675003052 -0.3977554142475128 -0.010083917528390884 0.0032529067248106003 0 0 0 0
1730769208 0.4572969377040863 -0.4645411968231201 -0.009279001504182816 0.0042737554758787155 0 0 0 0
1734491292 0.40948405861854553 -0.5187200307846069 -0.008418355137109756 0.005264691077172756 0 0 0 0
1738213376 0.3473935127258301 -0.5689859390258789 -0.007164060138165951 0.0061822012066841125 0 0 0 0
1741935460 0.2826276123523712 -0.6084160804748535 -0.006007365882396698 0.0064443135634064674 0 0 0 0
1745657544 0.21728523075580597 -0.635637104511261 -0.005325581878423691 0.0065092844888567924 0 0 0 0
1749379628 0.1426374465227127 -0.6523282527923584 -0.004664646461606026 0.0067024556919932365 0 0 0 0
1753101712 0.07380947470664978 -0.6576083898544312 -0.00425370130687952 0.006970875896513462 0 0 0 0
1756823796 -0.0011368244886398315 -0.6536539196968079 -0.0038672620430588722 0.007375716231763363 0 0 0 0
1760545880 -0.06904713064432144 -0.6382895112037659 -0.0033371159806847572 0.007891646586358547 0 0 0 0
1764267964 -0.13391736149787903 -0.6109724640846252 -0.0026306482031941414 0.0085002975538373 0 0 0 0
1767990048 -0.1917228400707245 -0.5745971202850342 -0.0018332572653889656 0.00922716036438942 0 0 0 0
1771712132 -0.24753788113594055 -0.5327508449554443 -0.0005024252459406853 0.009744538925588131 0 0 0 0
1775434216 -0.29322266578674316 -0.4834216833114624 0.000848105177283287 0.00985914096236229 0 0 0 0
1779156300 -0.33065173029899597 -0.42671826481819153 0.0020255837589502335 0.009797416627407074 0 0 0 0
1782878384 -0.35795408487319946 -0.36828601360321045 0.0031107664108276367 0.009626263752579689 0 0 0 0
1786600468 -0.3797574043273926 -0.3039231598377228 0.004226666875183582 0.0093702906742692 0 0 0 0
1790322552 -0.3890448808670044 -0.24224789440631866 0.005266881547868252 0.009263125248253345 0 0 0 0
1794044636 -0.3893359899520874 -0.17685997486114502 0.006617479957640171 0.008842292241752148 0 0 0 0
1797766720 -0.38144469261169434 -0.10777729749679565 0.007546950131654739 0.008065253496170044 0 0 0 0
1801488804 -0.36210542917251587 -0.04799900949001312 0.008097980171442032 0.008173511363565922 0 0 0 0
1805210888 -0.3334534168243408 0.008988097310066223 0.009607069194316864 0.008441844955086708 0 0 0 0
1808932972 -0.2968067526817322 0.059661149978637695 0.012178807519376278 0.008541311137378216 0 0 0 0
1812655056 -0.2516484558582306 0.10681116580963135 0.015467320568859577 0.0072670141234993935 0 0 0 0
1816377140 -0.20112964510917664 0.14368616044521332 0.01853487640619278 0.004536987282335758 0 0 0 0
1820099224 -0.14624401926994324 0.17131225764751434 0.020695064216852188 0.0003570467233657837 0 0 0 0
1823821308 -0.0870477631688118 0.19023706018924713 0.021346813067793846 -0.0043860869482159615 0 0 0 0
1827543392 -0.027599699795246124 0.19843818247318268 0.020517811179161072 -0.008636594749987125 0 0 0 0
1831265476 0.03169456124305725 0.19640286266803741 0.019316060468554497 -0.012449940666556358 0 0 0 0
1834987560 0.08840777724981308 0.18574514985084534 0.017878126353025436 -0.016686271876096725 0 0 0 0
1838709644 0.14147630333900452 0.16686703264713287 0.014247077517211437 -0.021458826959133148 0 0 0 0
1842431728 0.19022539258003235 0.1410006284713745 0.009306808933615685 -0.024334613233804703 0 0 0 0
1846153812 0.2340504229068756 0.10576988011598587 0.0041237641125917435 -0.025214826688170433 0 0 0 0
1849875896 0.2695345878601074 0.06598448753356934 -0.00027377065271139145 -0.025394711643457413 0 0 0 0
1853597980 0.297659695148468 0.019340403378009796 -0.004726939834654331 -0.025284791365265846 0 0 0 0
1857320064 0.3165998160839081 -0.027503259479999542 -0.009392247535288334 -0.024349072948098183 0 0 0 0
1861042148 0.3256781995296478 -0.07814310491085052 -0.013566717505455017 -0.02227713167667389 0 0 0 0
1864764232 0.326925665140152 -0.12650412321090698 -0.017313655465841293 -0.01980879344046116 0 0 0 0
1868486316 0.3190169334411621 -0.1711675226688385 -0.0205270703881979 -0.016982536762952805 0 0 0 0
1872208400 0.3047455847263336 -0.21333850920200348 -0.02390831708908081 -0.013110415078699589 0 0 0 0
1875930484 0.2842884063720703 -0.251193642616272 -0.026042785495519638 -0.008630003780126572 0 0 0 0
1879652568 0.25357919931411743 -0.2880757749080658 -0.027112051844596863 -0.003498118370771408 0 0 0 0
1883374652 0.22457444667816162 -0.3121975064277649 -0.027178116142749786 0.0014904532581567764 0 0 0 0
1887096736 0.19005851447582245 -0.3322851359844208 -0.02604145184159279 0.006320176646113396 0 0 0 0
1890818820 0.15815004706382751 -0.34379178285598755 -0.024335268884897232 0.009992087259888649 0 0 0 0
1894540904 0.1227235272526741 -0.3503282368183136 -0.02270331420004368 0.013253942131996155 0 0 0 0
1898262988 0.08912509679794312 -0.3516117036342621 -0.021151678636670113 0.01678900048136711 0 0 0 0
1901985072 0.05520445108413696 -0.34716206789016724 -0.018462050706148148 0.020530926063656807 0 0 0 0
1905707156 0.02318768948316574 -0.33893874287605286 -0.014931200072169304 0.02428392507135868 0 0 0 0
1909429240 -0.005434616468846798 -0.32205408811569214 -0.010833029635250568 0.02696174755692482 0 0 0 0
1913151324 -0.02977845072746277 -0.3022325336933136 -0.006010651588439941 0.02900485321879387 0 0 0 0
1916873408 -0.0500604473054409 -0.2794841527938843 -0.0003699846565723419 0.0299796462059021 0 0 0 0
1920595492 -0.06466731429100037 -0.2538033127784729 0.004732552915811539 0.02986879274249077 0 0 0 0
1924317576 -0.07520993798971176 -0.22583287954330444 0.010330196470022202 0.0295843668282032 0 0 0 0
1928039660 -0.08180608600378036 -0.19696521759033203 0.016592951491475105 0.027849026024341583 0 0 0 0
1931761744 -0.08059662580490112 -0.1670917570590973 0.022674506530165672 0.02404399961233139 0 0 0 0
1935483828 -0.0730324387550354 -0.13905461132526398 0.02784702368080616 0.018092697486281395 0 0 0 0
1939205912 -0.06080969423055649 -0.11497969925403595 0.030361950397491455 0.011026769876480103 0 0 0 0
1942927996 -0.04562605544924736 -0.0950573980808258 0.030680613592267036 0.004267280921339989 0 0 0 0
1946650080 -0.028325852006673813 -0.07851281762123108 0.029378918930888176 -0.001596793532371521 0 0 0 0
1950372164 -0.009432585909962654 -0.06486614793539047 0.027356594800949097 -0.006515267305076122 0 0 0 0
1954094248 0.010870436206459999 -0.055170558393001556 0.02475377731025219 -0.010823752731084824 0 0 0 0
1957816332 0.032088808715343475 -0.04898419231176376 0.021810382604599 -0.013835370540618896 0 0 0 0
1961538416 0.05337296053767204 -0.046081267297267914 0.01880810409784317 -0.016683239489793777 0 0 0 0
1965260500 0.0754203349351883 -0.04603709280490875 0.016049619764089584 -0.018655704334378242 0 0 0 0
1968982584 0.09730882942676544 -0.05021128058433533 0.012778102420270443 -0.020647116005420685 0 0 0 0
1972704668 0.11816222965717316 -0.05825909972190857 0.009379164315760136 -0.02261277660727501 0 0 0 0
1976426752 0.13746130466461182 -0.06981205195188522 0.005850779823958874 -0.02412484958767891 0 0 0 0
1980148836 0.15527258813381195 -0.083858422935009 0.0017590466886758804 -0.02556459605693817 0 0 0 0
1983870920 0.16864264011383057 -0.1029236763715744 -0.0030989106744527817 -0.025918269529938698 0 0 0 0
1987593004 0.1770871877670288 -0.12444034218788147 -0.008348306640982628 -0.025209827348589897 0 0 0 0
1991315088 0.18374097347259521 -0.14392545819282532 -0.01280976738780737 -0.023496143519878387 0 0 0 0
1995037172 0.18467186391353607 -0.16608630120754242 -0.017106184735894203 -0.020957717671990395 0 0 0 0
1998759256 0.1829090118408203 -0.18704894185066223 -0.021122019737958908 -0.017221327871084213 0 0 0 0
2002481340 0.17794649302959442 -0.2079014778137207 -0.02410575933754444 -0.012947549112141132 0 0 0 0
2006203424 0.1685115396976471 -0.22828812897205353 -0.025738317519426346 -0.007874580100178719 0 0 0 0
2009925508 0.15449386835098267 -0.24639157950878143 -0.026757705956697464 -0.0029416577890515327 0 0 0 0
2013647592 0.13946446776390076 -0.2611568868160248 -0.026504574343562126 0.0016519967466592789 0 0 0 0
2017369676 0.12005530297756195 -0.27247706055641174 -0.025989893823862076 0.006271432153880596 0 0 0 0
2021091760 0.10099981725215912 -0.2804654538631439 -0.024366050958633423 0.01107278373092413 0 0 0 0
2024813844 0.07996256649494171 -0.2856079041957855 -0.02200741320848465 0.015151286497712135 0 0 0 0
2028535928 0.05881296843290329 -0.2878296971321106 -0.018948739394545555 0.018640149384737015 0 0 0 0
2032258012 0.03519804775714874 -0.284389466047287 -0.014847949147224426 0.021770277991890907 0 0 0 0
2035980096 0.013742882758378983 -0.27898454666137695 -0.010273734107613564 0.023950664326548576 0 0 0 0
2039702180 -0.006576865911483765 -0.27080702781677246 -0.005765944719314575 0.024808190762996674 0 0 0 0
2043424264 -0.026582125574350357 -0.2594214081764221 -0.0017335433512926102 0.024738268926739693 0 0 0 0
2047146348 -0.04597531259059906 -0.24395328760147095 0.00238961074501276 0.024296674877405167 0 0 0 0
2050868432 -0.06125488132238388 -0.2253880798816681 0.005706236697733402 0.023434335365891457 0 0 0 0
2054590516 -0.07566960155963898 -0.20384040474891663 0.00931578315794468 0.022173883393406868 0 0 0 0
2058312600 -0.0848439559340477 -0.1783299744129181 0.012617932632565498 0.02075532265007496 0 0 0 0
2062034684 -0.09028653055429459 -0.15290050208568573 0.01631542481482029 0.018422823399305344 0 0 0 0
2065756768 -0.09093834459781647 -0.12639878690242767 0.0191323384642601 0.01467102114111185 0 0 0 0
2069478852 -0.08988039195537567 -0.0982002466917038 0.020937902852892876 0.010680951178073883 0 0 0 0
2073200936 -0.08249876648187637 -0.0706932544708252 0.02194400504231453 0.006898846477270126 0 0 0 0
2076923020 -0.0716877281665802 -0.04358988255262375 0.02205357514321804 0.0028658052906394005 0 0 0 0
2080645104 -0.05611972510814667 -0.018764803186058998 0.02139594778418541 -0.0006682770326733589 0 0 0 0
2084367188 -0.03638586401939392 0.005139026790857315 0.020840095356106758 -0.003540600650012493 0 0 0 0
2088089272 -0.01240389421582222 0.025973282754421234 0.019990606233477592 -0.006725584156811237 0 0 0 0
2091811356 0.015798160806298256 0.043031446635723114 0.01892528124153614 -0.010012463666498661 0 0 0 0
2095533440 0.046186868101358414 0.05499827116727829 0.01732259802520275 -0.013208582997322083 0 0 0 0
2099255524 0.07994730770587921 0.06248297542333603 0.014651942998170853 -0.016632549464702606 0 0 0 0
2102977608 0.11599619686603546 0.06336790323257446 0.011221478693187237 -0.01905820704996586 0 0 0 0
2106699692 0.15071308612823486 0.05943965166807175 0.0076563600450754166 -0.020703833550214767 0 0 0 0
2110421776 0.18490208685398102 0.04721958190202713 0.0032937247306108475 -0.021731054410338402 0 0 0 0
2114143860 0.21760126948356628 0.028761576861143112 -0.0011838357895612717 -0.021775368601083755 0 0 0 0
2117865944 0.24554027616977692 0.0052291229367256165 -0.005453871563076973 -0.020752469077706337 0 0 0 0
2121588028 0.26795694231987 -0.021930139511823654 -0.008973737247288227 -0.01899409480392933 0 0 0 0
2125310112 0.285675048828125 -0.052570633590221405 -0.011951936408877373 -0.01678389683365822 0 0 0 0
2129032196 0.2981472909450531 -0.0835493952035904 -0.014749810099601746 -0.013813259080052376 0 0 0 0
2132754280 0.303445041179657 -0.1180005669593811 -0.016832536086440086 -0.009935569018125534 0 0 0 0
2136476364 0.304680198431015 -0.15201227366924286 -0.017688509076833725 -0.006111150607466698 0 0 0 0
2140198448 0.30060505867004395 -0.1848103404045105 -0.01750968024134636 -0.0022857673466205597 0 0 0 0
2143920532 0.2929636538028717 -0.21629342436790466 -0.01617889478802681 0.000982074998319149 0 0 0 0
2147642616 0.2808797359466553 -0.24510830640792847 -0.014482803642749786 0.0026932042092084885 0 0 0 0
2151364700 0.26348453760147095 -0.2723982036113739 -0.013601439073681831 0.004246920347213745 0 0 0 0
2155086784 0.23702272772789001 -0.29845768213272095 -0.012534717097878456 0.005879801698029041 0 0 0 0
2158808868 0.21287879347801208 -0.317290723323822 -0.011471386067569256 0.007142446003854275 0 0 0 0
2162530952 0.18525880575180054 -0.3319900333881378 -0.010492609813809395 0.008333936333656311 0 0 0 0
2166253036 0.15590694546699524 -0.34213417768478394 -0.009248732589185238 0.009774061851203442 0 0 0 0
2169975120 0.12107151001691818 -0.34912997484207153 -0.007642941549420357 0.011053359135985374 0 0 0 0
2173697204 0.09008845686912537 -0.34890612959861755 -0.005769563838839531 0.011893345974385738 0 0 0 0
2177419288 0.05629727244377136 -0.34412068128585815 -0.00407370924949646 0.012216378003358841 0 0 0 0
2181141372 0.027907907962799072 -0.33423054218292236 -0.0026222169399261475 0.012823302298784256 0 0 0 0
2184863456 -0.00047963857650756836 -0.31934741139411926 -0.0008918596431612968 0.013425646349787712 0 0 0 0
2188585540 -0.022310875356197357 -0.30038896203041077 0.0012306179851293564 0.01365642063319683 0 0 0 0
2192307624 -0.04663487896323204 -0.27822157740592957 0.003571932204067707 0.01315232738852501 0 0 0 0
2196029708 -0.06550236791372299 -0.25266069173812866 0.00556914322078228 0.012522054836153984 0 0 0 0
2199751792 -0.07977225631475449 -0.22530198097229004 0.007317639887332916 0.011753073893487453 0 0 0 0
2203473876 -0.08782622963190079 -0.19514216482639313 0.00935722328722477 0.010612749494612217 0 0 0 0
2207195960 -0.09124987572431564 -0.16563284397125244 0.010896950028836727 0.009067810140550137 0 0 0 0
2210918044 -0.09348490834236145 -0.1316480040550232 0.012304859235882759 0.006831246428191662 0 0 0 0
2214640128 -0.08740280568599701 -0.10110943019390106 0.013249987736344337 0.004769377410411835 0 0 0 0
2218362212 -0.0768420621752739 -0.06970307976007462 0.013906999491155148 0.0019767731428146362 0 0 0 0
2222084296 -0.06045328453183174 -0.03923320770263672 0.013698016293346882 -0.0005901111289858818 0 0 0 0
2225806380 -0.03800080716609955 -0.012917876243591309 0.012969226576387882 -0.003157680854201317 0 0 0 0
2229528464 -0.011337554082274437 0.00906234048306942 0.012025466188788414 -0.005058996379375458 0 0 0 0
2233250548 0.020226260647177696 0.024725504219532013 0.010439332574605942 -0.007137090899050236 0 0 0 0
2236972632 0.05313710495829582 0.034240152686834335 0.008688349276781082 -0.008656286634504795 0 0 0 0
2240694716 0.08681569993495941 0.037540994584560394 0.007101279683411121 -0.009777901694178581 0 0 0 0
2244416800 0.12121128290891647 0.03302342817187309 0.00516401045024395 -0.010739132761955261 0 0 0 0
2248138884 0.15271292626857758 0.025166846811771393 0.0034546414390206337 -0.011481882072985172 0 0 0 0
2251860968 0.18134337663650513 0.0050663091242313385 0.001134093850851059 -0.01178526971489191 0 0 0 0
2255583052 0.20494164526462555 -0.015092674642801285 -0.0012050652876496315 -0.011679887771606445 0 0 0 0
2259305136 0.22613351047039032 -0.03684867173433304 -0.0034033628180623055 -0.010717164725065231 0 0 0 0
2263027220 0.2402545064687729 -0.06271650642156601 -0.004859602078795433 -0.009332054294645786 0 0 0 0
2266749304 0.2484581619501114 -0.09203680604696274 -0.005638669244945049 -0.00805157981812954 0 0 0 0
2270471388 0.2546737790107727 -0.11521636694669724 -0.005989464931190014 -0.007168864831328392 0 0 0 0
2274193472 0.2567964792251587 -0.1409262865781784 -0.006503678858280182 -0.006501124240458012 0 0 0 0
2277915556 0.24674691259860992 -0.17389346659183502 -0.006964543834328651 -0.005868920125067234 0 0 0 0
2281637640 0.24090558290481567 -0.19628645479679108 -0.007630119100213051 -0.0056298039853572845 0 0 0 0
2285359724 0.2221030294895172 -0.2241969257593155 -0.008851220831274986 -0.004908064380288124 0 0 0 0
2289081808 0.20647671818733215 -0.24199625849723816 -0.009734217077493668 -0.0041073281317949295 0 0 0 0
2292803892 0.1879226416349411 -0.2566559314727783 -0.010658884420990944 -0.0029954789206385612 0 0 0 0
2296525976 0.15996405482292175 -0.2689724266529083 -0.011703967116773129 -0.0014875205233693123 0 0 0 0
2300248060 0.13890910148620605 -0.27634555101394653 -0.012419026345014572 0.00042815785855054855 0 0 0 0
2303970144 0.11570502817630768 -0.2828141748905182 -0.012313725426793098 0.002892882563173771 0 0 0 0
2307692228 0.0900353193283081 -0.2796647548675537 -0.011506104841828346 0.005057346075773239 0 0 0 0
2311414312 0.06264603137969971 -0.27718880772590637 -0.010290213860571384 0.006737248972058296 0 0 0 0
2315136396 0.039305418729782104 -0.26779380440711975 -0.008829350583255291 0.008031467907130718 0 0 0 0
2318858480 0.013993315398693085 -0.2556993365287781 -0.007251330651342869 0.008848696015775204 0 0 0 0
2322580564 -0.0076546743512153625 -0.23764513432979584 -0.005795558914542198 0.009345797821879387 0 0 0 0
2326302648 -0.025207817554473877 -0.21583698689937592 -0.004625591449439526 0.009494567289948463 0 0 0 0
2330024732 -0.03992306441068649 -0.19097059965133667 -0.003643329255282879 0.009718027897179127 0 0 0 0
2333746816 -0.046652667224407196 -0.16553202271461487 -0.0024943463504314423 0.010085701942443848 0 0 0 0
2337468900 -0.05153880640864372 -0.1364353597164154 -0.00113769993185997 0.010392353869974613 0 0 0 0
2341190984 -0.049992676824331284 -0.10635550320148468 0.0003263968974351883 0.010376648046076298 0 0 0 0
2344913068 -0.04306158795952797 -0.07743711769580841 0.0021065333858132362 0.009716038592159748 0 0 0 0
2348635152 -0.03214944899082184 -0.049951985478401184 0.003445216454565525 0.00857306644320488 0 0 0 0
2352357236 -0.015758568421006203 -0.02525949478149414 0.003909418359398842 0.007253569550812244 0 0 0 0
2356079320 0.005229400470852852 -0.003426068462431431 0.004248517565429211 0.006458130665123463 0 0 0 0
2359801404 0.02998001128435135 0.013610946014523506 0.004678865894675255 0.005984543822705746 0 0 0 0
2363523488 0.056611839681863785 0.026555301621556282 0.005535188131034374 0.0052583785727620125 0 0 0 0
2367245572 0.08411872386932373 0.0360536091029644 0.006279824301600456 0.004014024510979652 0 0 0 0
2370967656 0.11365123093128204 0.03987078368663788 0.006349619477987289 0.0021162275224924088 0 0 0 0
2374689740 0.14377926290035248 0.039039626717567444 0.005446203984320164 0.0008244970813393593 0 0 0 0
2378411824 0.17368794977664948 0.034059833735227585 0.004161066375672817 0.0003804536536335945 0 0 0 0
2382133908 0.2040777951478958 0.02364521473646164 0.0035623451694846153 0.0008793137967586517 0 0 0 0
2385855992 0.2316979169845581 0.005508266389369965 0.003634451888501644 0.0009984606876969337 0 0 0 0
2389578076 0.2560120224952698 -0.013631701469421387 0.003912393935024738 0.0010732980445027351 0 0 0 0
2393300160 0.27604034543037415 -0.03995661437511444 0.004353747703135014 0.0008699046447873116 0 0 0 0
2397022244 0.28886348009109497 -0.072377048432827 0.004538041539490223 4.297494888305664e-05 0 0 0 0
2400744328 0.30132943391799927 -0.1009136289358139 0.004539636895060539 -0.0007530553266406059 0 0 0 0
2404466412 0.30485111474990845 -0.12961870431900024 0.004432329908013344 -0.0013431888073682785 0 0 0 0
2408188496 0.30403777956962585 -0.16263094544410706 0.004054591059684753 -0.002102050930261612 0 0 0 0
2411910580 0.29887139797210693 -0.19542260468006134 0.003564567305147648 -0.0029835104942321777 0 0 0 0
2415632664 0.2863873243331909 -0.22194509208202362 0.002576034516096115 -0.0033916067332029343 0 0 0 0
2419354748 0.27167683839797974 -0.2469005435705185 0.0016196668148040771 -0.003349605016410351 0 0 0 0
2423076832 0.25345420837402344 -0.2690942585468292 0.0010788580402731895 -0.0031513627618551254 0 0 0 0
2426798916 0.23174402117729187 -0.28869959712028503 0.0006067203357815742 -0.0029358454048633575 0 0 0 0
2430521000 0.20540942251682281 -0.30570390820503235 0.000127413310110569 -0.0026840325444936752 0 0 0 0
2434243084 0.18133389949798584 -0.3169074058532715 2.1053478121757507e-05 -0.0022470885887742043 0 0 0 0
2437965168 0.15460723638534546 -0.3263310194015503 9.271129965782166e-05 -0.001668688841164112 0 0 0 0
2441687252 0.12884223461151123 -0.33127379417419434 0.0007394291460514069 -0.0014005964621901512 0 0 0 0
2445409336 0.10113504528999329 -0.3338092565536499 0.0014125201851129532 -0.0016354527324438095 0 0 0 0
2449131420 0.07224781066179276 -0.33183741569519043 0.0020329710096120834 -0.0026662861928343773 0 0 0 0
2452853504 0.044749051332473755 -0.32638251781463623 0.001896391622722149 -0.00376279279589653 0 0 0 0
2456575588 0.016006402671337128 -0.31548377871513367 0.0011608526110649109 -0.00477287732064724 0 0 0 0
2460297672 -0.012157618999481201 -0.3002511262893677 -1.0977499186992645e-05 -0.005491182208061218 0 0 0 0
2464019756 -0.03451240807771683 -0.2801564931869507 -0.0011658528819680214 -0.0055812206119298935 0 0 0 0
2467741840 -0.058310262858867645 -0.2566230595111847 -0.0021152710542082787 -0.005255579017102718 0 0 0 0
2471463924 -0.0720030665397644 -0.2300378680229187 -0.002637457102537155 -0.005047990940511227 0 0 0 0
2475186008 -0.08570815622806549 -0.19982588291168213 -0.00336249265819788 -0.005165783688426018 0 0 0 0
2478908092 -0.09210880100727081 -0.16789127886295319 -0.004219997674226761 -0.005321908742189407 0 0 0 0
2482630176 -0.095621757209301 -0.13470692932605743 -0.005476081743836403 -0.004958828911185265 0 0 0 0
2486352260 -0.09044940024614334 -0.10417500138282776 -0.006586210802197456 -0.004146852530539036 0 0 0 0
2490074344 -0.08106088638305664 -0.07427992671728134 -0.007393602281808853 -0.0031089792028069496 0 0 0 0
2493796428 -0.06719160825014114 -0.04657088965177536 -0.007782263681292534 -0.0021310877054929733 0 0 0 0
2497518512 -0.05033285170793533 -0.022578023374080658 -0.008305384777486324 -0.001322058029472828 0 0 0 0
2501240596 -0.030652442947030067 -0.0007431525737047195 -0.008867860771715641 -0.00014318618923425674 0 0 0 0
2504962680 -0.007837925106287003 0.018200689926743507 -0.009305037558078766 0.001247902400791645 0 0 0 0
2508684764 0.017989840358495712 0.03340361267328262 -0.009306561201810837 0.0030690282583236694 0 0 0 0
2512406848 0.045891694724559784 0.043835654854774475 -0.008737880736589432 0.005014684051275253 0 0 0 0
2516128932 0.0745491310954094 0.049655668437480927 -0.007760652340948582 0.006432449445128441 0 0 0 0
2519851016 0.10417714715003967 0.051321372389793396 -0.0063081467524170876 0.007548429071903229 0 0 0 0
2523573100 0.13263432681560516 0.04653923586010933 -0.0045841410756111145 0.008315312676131725 0 0 0 0
2527295184 0.16058449447155 0.040988679975271225 -0.0031620729714632034 0.008426450192928314 0 0 0 0
2531017268 0.18692748248577118 0.028112193569540977 -0.002326524816453457 0.008525085635483265 0 0 0 0
2534739352 0.21001553535461426 0.00767656322568655 -0.00090778898447752 0.00874900072813034 0 0 0 0
2538461436 0.22862406075000763 -0.01043873280286789 0.0003528604283928871 0.00879649631679058 0 0 0 0
2542183520 0.24304404854774475 -0.03421660512685776 0.00175468809902668 0.0085223950445652 0 0 0 0
2545905604 0.25290611386299133 -0.05821073055267334 0.0029221968725323677 0.007805006578564644 0 0 0 0
2549627688 0.2588825821876526 -0.08312425017356873 0.003965670242905617 0.007093291729688644 0 0 0 0
2553349772 0.260941743850708 -0.10680017620325089 0.004601301625370979 0.006398983299732208 0 0 0 0
2557071856 0.25582820177078247 -0.13238665461540222 0.005470051430165768 0.0056575387716293335 0 0 0 0
2560793940 0.25303858518600464 -0.151875302195549 0.006155633367598057 0.005034673027694225 0 0 0 0
2564516024 0.24311698973178864 -0.17307114601135254 0.006854782812297344 0.004347528330981731 0 0 0 0
2568238108 0.23165170848369598 -0.1877821981906891 0.007624169811606407 0.003551233559846878 0 0 0 0
2571960192 0.21964088082313538 -0.2014915943145752 0.008656015619635582 0.0023735566064715385 0 0 0 0
2575682276 0.20436806976795197 -0.21431264281272888 0.009403889998793602 0.0004861028864979744 0 0 0 0
2579404360 0.1884154975414276 -0.2233923077583313 0.00959022343158722 -0.0013863947242498398 0 0 0 0
2583126444 0.1744985282421112 -0.22917935252189636 0.009305214509367943 -0.003203784115612507 0 0 0 0
2586848528 0.1627630591392517 -0.23115640878677368 0.008722858503460884 -0.004793323576450348 0 0 0 0
2590570612 0.14420919120311737 -0.23678597807884216 0.007564491592347622 -0.0066018784418702126 0 0 0 0
2594292696 0.13164225220680237 -0.2358672022819519 0.006199445575475693 -0.008126344531774521 0 0 0 0
2598014780 0.1190231591463089 -0.23437266051769257 0.004723787307739258 -0.00912692304700613 0 0 0 0
2601736864 0.10455094277858734 -0.23170770704746246 0.0025563156232237816 -0.009897698648273945 0 0 0 0
2605458948 0.0918697714805603 -0.22584974765777588 0.0006047794595360756 -0.009700905531644821 0 0 0 0
2609181032 0.08088426291942596 -0.21897578239440918 -0.0009816624224185944 -0.008999740704894066 0 0 0 0
2612903116 0.07195538282394409 -0.21055778861045837 -0.0018359199166297913 -0.008037944324314594 0 0 0 0
2616625200 0.0649394690990448 -0.20148982107639313 -0.0023903362452983856 -0.007640456780791283 0 0 0 0
2620347284 0.05630295351147652 -0.19256243109703064 -0.002894926816225052 -0.007327204570174217 0 0 0 0
2624069368 0.05400623381137848 -0.18230724334716797 -0.0035410383716225624 -0.007175613194704056 0 0 0 0
2627791452 0.05179978162050247 -0.17326903343200684 -0.004305265843868256 -0.007036703638732433 0 0 0 0
2631513536 0.052236687391996384 -0.16386723518371582 -0.00504845567047596 -0.006780686788260937 0 0 0 0
2635235620 0.05079047381877899 -0.15472906827926636 -0.0061969272792339325 -0.006772263906896114 0 0 0 0
2638957704 0.0510561503469944 -0.14730104804039001 -0.00754612497985363 -0.006475267931818962 0 0 0 0
2642679788 0.05819433927536011 -0.13668707013130188 -0.0089338980615139 -0.005462450906634331 0 0 0 0
2646401872 0.06165293604135513 -0.13111722469329834 -0.009932152926921844 -0.003741893917322159 0 0 0 0
2650123956 0.06846259534358978 -0.12584470212459564 -0.010625413618981838 -0.0023787012323737144 0 0 0 0
2653846040 0.07439591735601425 -0.12319736927747726 -0.011148414574563503 -0.0008141240105032921 0 0 0 0
2657568124 0.0801633968949318 -0.12188496440649033 -0.011387385427951813 0.0012320559471845627 0 0 0 0
2661290208 0.08506778627634048 -0.12379725277423859 -0.011123050935566425 0.0033628754317760468 0 0 0 0
2665012292 0.09074902534484863 -0.12348832935094833 -0.010529421269893646 0.005295970477163792 0 0 0 0
2668734376 0.09379902482032776 -0.1254892647266388 -0.009429208934307098 0.0072161415591835976 0 0 0 0
2672456460 0.09498445689678192 -0.12763547897338867 -0.0076529840007424355 0.009130364283919334 0 0 0 0
2676178544 0.09672798961400986 -0.12907174229621887 -0.005785028450191021 0.010387739166617393 0 0 0 0
2679900628 0.09872724860906601 -0.12973834574222565 -0.0035078413784503937 0.011003312654793262 0 0 0 0
2683622712 0.10229356586933136 -0.13089799880981445 -0.0014433646574616432 0.011129445396363735 0 0 0 0
2687344796 0.10445479303598404 -0.13370269536972046 0.0007678037509322166 0.010977271944284439 0 0 0 0
2691066880 0.10682760924100876 -0.13747107982635498 0.002826875075697899 0.010347740724682808 0 0 0 0
2694788964 0.1079917848110199 -0.14313217997550964 0.004497908055782318 0.009163293987512589 0 0 0 0
2698511048 0.10914761573076248 -0.14854097366333008 0.005894049070775509 0.0082524623721838 0 0 0 0
2702233132 0.10912477970123291 -0.15400327742099762 0.007128343917429447 0.006955132819712162 0 0 0 0
2705955216 0.10529608279466629 -0.16199955344200134 0.0083640580996871 0.005435137078166008 0 0 0 0
2709677300 0.09867819398641586 -0.1685439646244049 0.00925698783248663 0.0037342607975006104 0 0 0 0
2713399384 0.0928117111325264 -0.1734398454427719 0.009791002608835697 0.0017552953213453293 0 0 0 0
2717121468 0.0824216976761818 -0.17633327841758728 0.00984123069792986 -9.414739906787872e-05 0 0 0 0
2720843552 0.07473890483379364 -0.1783088594675064 0.009749945253133774 -0.00212797150015831 0 0 0 0
2724565636 0.06275951862335205 -0.1787864714860916 0.009073245339095592 -0.004261119291186333 0 0 0 0
2728287720 0.05304965004324913 -0.17668458819389343 0.008019638247787952 -0.006142918951809406 0 0 0 0
2732009804 0.041852917522192 -0.17269524931907654 0.006568334065377712 -0.0075804926455020905 0 0 0 0
2735731888 0.03073325753211975 -0.1656055748462677 0.004940264858305454 -0.008757532574236393 0 0 0 0
2739453972 0.02056986838579178 -0.15633441507816315 0.0030234986916184425 -0.009661509655416012 0 0 0 0
2743176056 0.015280041843652725 -0.1444518268108368 0.0011287974193692207 -0.010087443515658379 0 0 0 0
2746898140 0.007933581247925758 -0.1319378912448883 -0.0009598564356565475 -0.010165761224925518 0 0 0 0
2750620224 0.003766462206840515 -0.11669977754354477 -0.003234335221350193 -0.009887728840112686 0 0 0 0
2754342308 0.0020347051322460175 -0.10184648633003235 -0.005591724067926407 -0.009159564971923828 0 0 0 0
2758064392 0.003402065485715866 -0.08611728996038437 -0.00756720919162035 -0.007416371256113052 0 0 0 0
2761786476 0.007792040705680847 -0.07030443847179413 -0.008885366842150688 -0.005365623161196709 0 0 0 0
2765508560 0.014163394458591938 -0.05487895756959915 -0.009728766046464443 -0.002966044470667839 0 0 0 0
2769230644 0.022840816527605057 -0.03974619135260582 -0.009751658886671066 -0.0003191698342561722 0 0 0 0
2772952728 0.03429017215967178 -0.025855064392089844 -0.00902022048830986 0.0019163843244314194 0 0 0 0
2776674812 0.04866478592157364 -0.013696547597646713 -0.007751161232590675 0.003968496806919575 0 0 0 0
2780396896 0.0652160495519638 -0.0026438822969794273 -0.006075607612729073 0.005226188339293003 0 0 0 0
2784118980 0.08464554697275162 0.006343856453895569 -0.004516997374594212 0.005907314829528332 0 0 0 0
2787841064 0.10615979135036469 0.010302543640136719 -0.0028749238699674606 0.0065126605331897736 0 0 0 0
2791563148 0.12942606210708618 0.011778343468904495 -0.0011535221710801125 0.006781291216611862 0 0 0 0
2795285232 0.15241700410842896 0.010359122417867184 0.0008114073425531387 0.00651580560952425 0 0 0 0
2799007316 0.17617130279541016 0.0027421340346336365 0.002364994026720524 0.0056349607184529305 0 0 0 0
2802729400 0.19902852177619934 -0.009330354630947113 0.0034256065264344215 0.004360583610832691 0 0 0 0
2806451484 0.22008484601974487 -0.025587059557437897 0.003940638154745102 0.0029965154826641083 0 0 0 0
2810173568 0.23762008547782898 -0.04294416308403015 0.00403393991291523 0.0021339794620871544 0 0 0 0
2813895652 0.25095435976982117 -0.06790517270565033 0.004106694832444191 0.0011030938476324081 0 0 0 0
2817617736 0.2638965845108032 -0.09011469036340714 0.004220224916934967 0.0002888049930334091 0 0 0 0
2821339820 0.26935458183288574 -0.12011372298002243 0.003889981657266617 -0.00046398118138313293 0 0 0 0
2825061904 0.2732731103897095 -0.1458722949028015 0.0034914128482341766 -0.0011100322008132935 0 0 0 0
2828783988 0.27227920293807983 -0.1728355884552002 0.0032067224383354187 -0.0014089681208133698 0 0 0 0
2832506072 0.26652783155441284 -0.2010619342327118 0.003128201700747013 -0.001729045994579792 0 0 0 0
2836228156 0.25105470418930054 -0.2317245602607727 0.002876431681215763 -0.0021321075037121773 0 0 0 0
2839950240 0.23867718875408173 -0.25424623489379883 0.0027485955506563187 -0.002740568481385708 0 0 0 0
2843672324 0.21751371026039124 -0.27589941024780273 0.0026271138340234756 -0.003245338797569275 0 0 0 0
2847394408 0.19740936160087585 -0.2939424216747284 0.002258879132568836 -0.0038159796968102455 0 0 0 0
2851116492 0.17236416041851044 -0.30650895833969116 0.0015285899862647057 -0.004498874768614769 0 0 0 0
2854838576 0.1466570645570755 -0.3179890215396881 0.0006730034947395325 -0.0049186283722519875 0 0 0 0
2858560660 0.12328872084617615 -0.32602161169052124 -2.1822750568389893e-05 -0.005582794547080994 0 0 0 0
2862282744 0.10047797113656998 -0.32946550846099854 -0.0010826056823134422 -0.005629169754683971 0 0 0 0
2866004828 0.06639774143695831 -0.33081889152526855 -0.0021775932982563972 -0.005271783098578453 0 0 0 0
2869726912 0.047019198536872864 -0.32576441764831543 -0.003085940144956112 -0.0048323627561330795 0 0 0 0
2873448996 0.018940340727567673 -0.31831902265548706 -0.0038434024900197983 -0.004206825979053974 0 0 0 0
2877171080 -0.008606266230344772 -0.3091789484024048 -0.004574410617351532 -0.0033784015104174614 0 0 0 0
2880893164 -0.02937588095664978 -0.2968350648880005 -0.005145376548171043 -0.0024573178961873055 0 0 0 0
2884615248 -0.048050716519355774 -0.2801242768764496 -0.005515695549547672 -0.0012686988338828087 0 0 0 0
2888337332 -0.0664554312825203 -0.2614520192146301 -0.00554992351680994 -4.807114601135254e-05 0 0 0 0
2892059416 -0.08327250927686691 -0.24032896757125854 -0.005230819806456566 0.001202581450343132 0 0 0 0
2895781500 -0.09697602689266205 -0.21742667257785797 -0.004536479711532593 0.002307593822479248 0 0 0 0
2899503584 -0.10497067868709564 -0.19345708191394806 -0.003951129503548145 0.002880553714931011 0 0 0 0
2903225668 -0.11109915375709534 -0.16903556883335114 -0.003189852461218834 0.003507832996547222 0 0 0 0
2906947752 -0.11405494809150696 -0.144536554813385 -0.0023929793387651443 0.004194524139165878 0 0 0 0
2910669836 -0.11404751986265182 -0.11922764033079147 -0.001279265619814396 0.00465436652302742 0 0 0 0
2914391920 -0.11056852340698242 -0.09617320448160172 -0.00017535779625177383 0.004643543623387814 0 0 0 0
2918114004 -0.10476705431938171 -0.07413036376237869 0.0009312238544225693 0.004472183994948864 0 0 0 0
2921836088 -0.09620489925146103 -0.05228395760059357 0.001799602061510086 0.003840913064777851 0 0 0 0
2925558172 -0.08607357740402222 -0.0323420874774456 0.0023417985066771507 0.0033506816253066063 0 0 0 0
2929280256 -0.0740494579076767 -0.01272602379322052 0.002671477384865284 0.0028236275538802147 0 0 0 0
2933002340 -0.06007850915193558 0.0045623257756233215 0.0031539062038064003 0.0026043374091386795 0 0 0 0
2936724424 -0.04338816925883293 0.021224776282906532 0.0036788731813430786 0.002105659805238247 0 0 0 0
2940446508 -0.025626901537179947 0.03508564457297325 0.004068493843078613 0.0014520883560180664 0 0 0 0
2944168592 -0.00535881333053112 0.04719757288694382 0.004063885658979416 0.000682467594742775 0 0 0 0
2947890676 0.01581009477376938 0.05753679573535919 0.004015795886516571 0.0002374565228819847 0 0 0 0
2951612760 0.038532063364982605 0.06382343173027039 0.004136975854635239 -9.034480899572372e-05 0 0 0 0
2955334844 0.06156335026025772 0.06829884648323059 0.004441354423761368 -0.0004946785047650337 0 0 0 0
2959056928 0.08509843051433563 0.07089293003082275 0.004742083139717579 -0.0011866111308336258 0 0 0 0
2962779012 0.10962304472923279 0.06959585100412369 0.004692632704973221 -0.0020610978826880455 0 0 0 0
2966501096 0.13472235202789307 0.06276360154151917 0.004438623785972595 -0.003262791782617569 0 0 0 0
2970223180 0.1572597473859787 0.057583559304475784 0.003751259297132492 -0.004255170933902264 0 0 0 0
2973945264 0.18048310279846191 0.04483375698328018 0.0025312313809990883 -0.004848307929933071 0 0 0 0
2977667348 0.20180675387382507 0.03096814826130867 0.0016707386821508408 -0.005115787498652935 0 0 0 0
2981389432 0.21850506961345673 0.014632194302976131 0.0005659479647874832 -0.005116485990583897 0 0 0 0
2985111516 0.2358129918575287 -0.004867814481258392 -0.00037157628685235977 -0.0050073303282260895 0 0 0 0
2988833600 0.24819590151309967 -0.026579029858112335 -0.001542721875011921 -0.004342405125498772 0 0 0 0
2992555684 0.2582481801509857 -0.04737984016537666 -0.0021389909088611603 -0.0034294268116354942 0 0 0 0
2996277768 0.26531797647476196 -0.0735497921705246 -0.0025671254843473434 -0.002547716721892357 0 0 0 0
2999999852 0.27026844024658203 -0.09658423066139221 -0.0025727320462465286 -0.0016131028532981873 0 0 0 0
