# HZ S RI R 50
! BoneWave AI live acquisition
1500000000.000000 0 0 0.0533827468753 -0.0392397505542 0 0 0 0
1503722084.367246 0 0 0.0449341816521 -0.0464910882054 0 0 0 0
1507444168.734491 0 0 0.0357937194943 -0.0524167229011 0 0 0 0
1511166253.101737 0 0 0.0258035987979 -0.0569797541462 0 0 0 0
1514888337.468983 0 0 0.0147396060781 -0.0594388070532 0 0 0 0
1518610421.836228 0 0 0.00379037958584 -0.0598717208265 0 0 0 0
1522332506.203474 0 0 -0.00729102385211 -0.0581090270031 0 0 0 0
1526054590.570720 0 0 -0.016977437245 -0.0542887867643 0 0 0 0
1529776674.937965 0 0 -0.0255508949661 -0.0485214716528 0 0 0 0
1533498759.305211 0 0 -0.0327361886743 -0.0416584101446 0 0 0 0
1537220843.672457 0 0 -0.0379048094178 -0.0330760501313 0 0 0 0
1540942928.039702 0 0 -0.0410112620873 -0.0243184204969 0 0 0 0
1544665012.406948 0 0 -0.0421410240479 -0.0152304457567 0 0 0 0
1548387096.774194 0 0 -0.0410161726978 -0.00700914855766 0 0 0 0
1552109181.141439 0 0 -0.0380169818944 -0.000202149973152 0 0 0 0
1555831265.508685 0 0 -0.0347273310429 0.00425881866175 0 0 0 0
1559553349.875931 0 0 -0.0317886248832 0.00819577777495 0 0 0 0
1563275434.243176 0 0 -0.0286043584763 0.0115619478085 0 0 0 0
1566997518.610422 0 0 -0.0255422952583 0.0140937400174 0 0 0 0
1570719602.977668 0 0 -0.0225218484275 0.0159160985247 0 0 0 0
1574441687.344913 0 0 -0.0201664453124 0.0176981216978 0 0 0 0
1578163771.712159 0 0 -0.0178620936634 0.0195560242659 0 0 0 0
1581885856.079404 0 0 -0.0150465444246 0.0216864439543 0 0 0 0
1585607940.446650 0 0 -0.0112216452035 0.0236067899678 0 0 0 0
1589330024.813896 0 0 -0.0071389640445 0.0245658494147 0 0 0 0
1593052109.181141 0 0 -0.00280227855994 0.0247780824014 0 0 0 0
1596774193.548387 0 0 0.00128863010836 0.0240619147537 0 0 0 0
1600496277.915633 0 0 0.00506427081578 0.0226229878514 0 0 0 0
1604218362.282878 0 0 0.00829359069097 0.0207489605722 0 0 0 0
1607940446.650124 0 0 0.0112247293964 0.0184803353261 0 0 0 0
1611662531.017370 0 0 0.0137874405219 0.0156444412494 0 0 0 0
1615384615.384615 0 0 0.0154004053762 0.0122561042364 0 0 0 0
1619106699.751861 0 0 0.016041383725 0.00911632510298 0 0 0 0
1622828784.119107 0 0 0.0163405906606 0.00636090298558 0 0 0 0
1626550868.486352 0 0 0.0163106999519 0.00355033208658 0 0 0 0
1630272952.853598 0 0 0.0156575960536 0.001149051909 0 0 0 0
1633995037.220844 0 0 0.0150272117734 -0.000798293338539 0 0 0 0
1637717121.588089 0 0 0.014218678292 -0.00291766448376 0 0 0 0
1641439205.955335 0 0 0.0130450355291 -0.0047742910167 0 0 0 0
1645161290.322581 0 0 0.0117963657224 -0.00635581458568 0 0 0 0
1648883374.689826 0 0 0.0104313002571 -0.00786511618891 0 0 0 0
1652605459.057072 0 0 0.00863314268693 -0.0089964456864 0 0 0 0
1656327543.424318 0 0 0.00696914926298 -0.00957831097235 0 0 0 0
1660049627.791563 0 0 0.00555292210126 -0.00986453481373 0 0 0 0
1663771712.158809 0 0 0.00421459541323 -0.0110548300233 0 0 0 0
1667493796.526055 0 0 0.00219632554691 -0.0119425815625 0 0 0 0
1671215880.893300 0 0 -9.65465268473e-05 -0.0119585031536 0 0 0 0
1674937965.260546 0 0 -0.00234978324892 -0.0114670397477 0 0 0 0
1678660049.627792 0 0 -0.00463279823151 -0.0102346476446 0 0 0 0
1682382133.995037 0 0 -0.00642715308452 -0.00815094934008 0 0 0 0
1686104218.362283 0 0 -0.00695604271725 -0.00599095247057 0 0 0 0
1689826302.729528 0 0 -0.00680736334635 -0.00412141607352 0 0 0 0
1693548387.096774 0 0 -0.00648432722696 -0.00262066882144 0 0 0 0
1697270471.464020 0 0 -0.00594843556832 -0.00133441348242 0 0 0 0
1700992555.831265 0 0 -0.0051808886344 -0.000365434272247 0 0 0 0
1704714640.198511 0 0 -0.00429173031586 0.000327806194938 0 0 0 0
1708436724.565757 0 0 -0.00353154538598 0.000724069483738 0 0 0 0
1712158808.933002 0 0 -0.00284530729983 0.000979139685255 0 0 0 0
1715880893.300248 0 0 -0.00212014150922 0.0010392171045 0 0 0 0
1719602977.667494 0 0 -0.00143814459212 0.000738715770677 0 0 0 0
1723325062.034739 0 0 -0.00088791265033 9.1594895787e-05 0 0 0 0
1727047146.401985 0 0 -0.00089006915895 -0.000614410582113 0 0 0 0
1730769230.769231 0 0 -0.00125959747208 -0.000920545620223 0 0 0 0
1734491315.136477 0 0 -0.0013662625722 -0.000941486748026 0 0 0 0
1738213399.503722 0 0 -0.00132976707712 -0.000995402512463 0 0 0 0
1741935483.870968 0 0 -0.00127085237213 -0.000974376345434 0 0 0 0
1745657568.238213 0 0 -0.000913269871752 -0.000970788119011 0 0 0 0
1749379652.605459 0 0 -0.000595723153258 -0.0016406121663 0 0 0 0
1753101736.972705 0 0 -0.000983997039355 -0.00274579973955 0 0 0 0
1756823821.339950 0 0 -0.00192625925093 -0.00372881456559 0 0 0 0
1760545905.707196 0 0 -0.00341170610332 -0.00436125898609 0 0 0 0
1764267990.074442 0 0 -0.00542317485904 -0.00417724633828 0 0 0 0
1767990074.441687 0 0 -0.00724923371347 -0.00317822568538 0 0 0 0
1771712158.808933 0 0 -0.00867126382058 -0.00189662743683 0 0 0 0
1775434243.176179 0 0 -0.00995185697795 -0.000439176893646 0 0 0 0
1779156327.543424 0 0 -0.0111701766366 0.00190770828509 0 0 0 0
1782878411.910670 0 0 -0.0117705939838 0.00495885734849 0 0 0 0
1786600496.277915 0 0 -0.0112776490555 0.00823059922271 0 0 0 0
1790322580.645161 0 0 -0.00976633647036 0.0113971658371 0 0 0 0
1794044665.012407 0 0 -0.00735599088049 0.0137912977404 0 0 0 0
1797766749.379653 0 0 -0.00438462655508 0.0155049278466 0 0 0 0
1801488833.746898 0 0 -0.00127324480887 0.0165487020527 0 0 0 0
1805210918.114144 0 0 0.00173182640921 0.017149887164 0 0 0 0
1808933002.481390 0 0 0.00496116428997 0.0173503182523 0 0 0 0
1812655086.848635 0 0 0.00854791046449 0.0169509346994 0 0 0 0
1816377171.215881 0 0 0.0119947299517 0.0154370730928 0 0 0 0
1820099255.583127 0 0 0.0151133137371 0.0134016167106 0 0 0 0
1823821339.950372 0 0 0.0179933406878 0.0107512560252 0 0 0 0
1827543424.317618 0 0 0.020139649706 0.00748466364146 0 0 0 0
1831265508.684864 0 0 0.0213855435583 0.00375026295915 0 0 0 0
1834987593.052109 0 0 0.0222485244376 0.000210640936585 0 0 0 0
1838709677.419355 0 0 0.022632891833 -0.00397297151146 0 0 0 0
1842431761.786601 0 0 0.0222005928729 -0.00805216401621 0 0 0 0
1846153846.153846 0 0 0.0210819465992 -0.01223627017 0 0 0 0
1849875930.521092 0 0 0.0192967809404 -0.0166995182335 0 0 0 0
1853598014.888337 0 0 0.0162815825553 -0.0203693366253 0 0 0 0
1857320099.255583 0 0 0.012506035564 -0.0235831538867 0 0 0 0
1861042183.622829 0 0 0.00817697371816 -0.0259383968405 0 0 0 0
1864764267.990074 0 0 0.00323005761979 -0.0275136308977 0 0 0 0
1868486352.357320 0 0 -0.00221104778325 -0.0282129375118 0 0 0 0
1872208436.724566 0 0 -0.00740907757988 -0.0272540310791 0 0 0 0
1875930521.091811 0 0 -0.0116257037031 -0.0257059435574 0 0 0 0
1879652605.459057 0 0 -0.0167447520348 -0.0240515733709 0 0 0 0
1883374689.826303 0 0 -0.0219179038051 -0.0211545383485 0 0 0 0
1887096774.193548 0 0 -0.0266714331203 -0.0165027462707 0 0 0 0
1890818858.560794 0 0 -0.0300409257923 -0.0105366990466 0 0 0 0
1894540942.928040 0 0 -0.0315259389496 -0.00361741628233 0 0 0 0
1898263027.295285 0 0 -0.0313710358912 0.00215834873668 0 0 0 0
1901985111.662531 0 0 -0.0305880460367 0.00782567883916 0 0 0 0
1905707196.029777 0 0 -0.0285733285413 0.0128030886248 0 0 0 0
1909429280.397022 0 0 -0.0255971805796 0.0175660280688 0 0 0 0
1913151364.764268 0 0 -0.0217914033197 0.0210285922844 0 0 0 0
1916873449.131514 0 0 -0.0179848037406 0.0239256470379 0 0 0 0
1920595533.498759 0 0 -0.0142070116472 0.0268058043352 0 0 0 0
1924317617.866005 0 0 -0.00945431830915 0.0292400836843 0 0 0 0
1928039702.233251 0 0 -0.00430273323499 0.0305928643454 0 0 0 0
1931761786.600496 0 0 0.0011913326505 0.0312365028711 0 0 0 0
1935483870.967742 0 0 0.00666323473417 0.0311394225886 0 0 0 0
1939205955.334988 0 0 0.0128542498999 0.0299892964672 0 0 0 0
1942928039.702233 0 0 0.0189481295054 0.0261228501187 0 0 0 0
1946650124.069479 0 0 0.0228910754189 0.0209885313637 0 0 0 0
1950372208.436725 0 0 0.0252305792954 0.0161526296973 0 0 0 0
1954094292.803970 0 0 0.0271922332675 0.0113837758358 0 0 0 0
1957816377.171216 0 0 0.0282031255223 0.00657940530692 0 0 0 0
1961538461.538461 0 0 0.0287218933495 0.00201102143201 0 0 0 0
1965260545.905707 0 0 0.0289422738881 -0.00294651330131 0 0 0 0
1968982630.272953 0 0 0.0281922973052 -0.0075725450152 0 0 0 0
1972704714.640198 0 0 0.0272003020552 -0.0126365624049 0 0 0 0
1976426799.007444 0 0 0.025238999285 -0.0179422166941 0 0 0 0
1980148883.374690 0 0 0.0217019310383 -0.0236912531681 0 0 0 0
1983870967.741935 0 0 0.0159747361816 -0.0284051825443 0 0 0 0
1987593052.109181 0 0 0.00888558349598 -0.0313491733164 0 0 0 0
1991315136.476427 0 0 0.00202557886431 -0.0317992703547 0 0 0 0
1995037220.843673 0 0 -0.0048898672477 -0.0307104984442 0 0 0 0
1998759305.210918 0 0 -0.00981042470638 -0.0280813423545 0 0 0 0
2002481389.578164 0 0 -0.0148463907618 -0.0255897788453 0 0 0 0
2006203473.945409 0 0 -0.0187156409891 -0.0217786914476 0 0 0 0
2009925558.312655 0 0 -0.0219362033754 -0.01806801776 0 0 0 0
2013647642.679901 0 0 -0.0250816536009 -0.0132078032962 0 0 0 0
2017369727.047146 0 0 -0.0261595743509 -0.0071002268737 0 0 0 0
2021091811.414392 0 0 -0.0257014053033 -0.00253473100082 0 0 0 0
2024813895.781638 0 0 -0.0252027559264 0.00126676573638 0 0 0 0
2028535980.148883 0 0 -0.0240708581758 0.00504337659227 0 0 0 0
2032258064.516129 0 0 -0.0230987414477 0.007996755562 0 0 0 0
2035980148.883375 0 0 -0.0222223381164 0.0117314190467 0 0 0 0
2039702233.250620 0 0 -0.0203244230849 0.0156067891757 0 0 0 0
2043424317.617866 0 0 -0.0172521947499 0.0197699249894 0 0 0 0
2047146401.985112 0 0 -0.0129373412374 0.0223756168497 0 0 0 0
2050868486.352357 0 0 -0.00869859955247 0.0238265497741 0 0 0 0
2054590570.719603 0 0 -0.00507441256272 0.0247136689122 0 0 0 0
2058312655.086849 0 0 -0.00101696332105 0.0255979054197 0 0 0 0
2062034739.454094 0 0 0.00349837559221 0.0255688931716 0 0 0 0
2065756823.821340 0 0 0.00769586981535 0.0243565903451 0 0 0 0
2069478908.188586 0 0 0.011373785889 0.0224629609289 0 0 0 0
2073200992.555831 0 0 0.0149056571925 0.0204749919114 0 0 0 0
2076923076.923077 0 0 0.0178551359627 0.0180013727588 0 0 0 0
2080645161.290323 0 0 0.0207756293076 0.0147881901432 0 0 0 0
2084367245.657568 0 0 0.0230717410783 0.0107643586276 0 0 0 0
2088089330.024814 0 0 0.0240927045522 0.00585076959405 0 0 0 0
2091811414.392060 0 0 0.023770171944 0.00159069314842 0 0 0 0
2095533498.759305 0 0 0.0230459492789 -0.00194660939563 0 0 0 0
2099255583.126551 0 0 0.0224944086371 -0.00571814907377 0 0 0 0
2102977667.493796 0 0 0.0205345030295 -0.010034247119 0 0 0 0
2106699751.861042 0 0 0.0179503029282 -0.0128432246953 0 0 0 0
2110421836.228288 0 0 0.0153112789605 -0.0157412567705 0 0 0 0
2114143920.595533 0 0 0.0117598425603 -0.0179485720394 0 0 0 0
2117866004.962779 0 0 0.00763561908307 -0.0190800280796 0 0 0 0
2121588089.330025 0 0 0.00377616550114 -0.0187136651062 0 0 0 0
2125310173.697270 0 0 0.0013380210802 -0.0175596609191 0 0 0 0
2129032258.064516 0 0 -0.000680125388567 -0.0172118984003 0 0 0 0
2132754342.431762 0 0 -0.0031046256611 -0.0170788784458 0 0 0 0
2136476426.799007 0 0 -0.00543581449709 -0.0163476031298 0 0 0 0
2140198511.166253 0 0 -0.00769414848858 -0.0155631271156 0 0 0 0
2143920595.533499 0 0 -0.0103076181942 -0.0141507181877 0 0 0 0
2147642679.900744 0 0 -0.0122667576862 -0.0121513903657 0 0 0 0
2151364764.267990 0 0 -0.0139229112151 -0.0101479248208 0 0 0 0
2155086848.635236 0 0 -0.015301643652 -0.00799421384789 0 0 0 0
2158808933.002481 0 0 -0.0162600118072 -0.00572568938487 0 0 0 0
2162531017.369727 0 0 -0.0166477626505 -0.00341486303341 0 0 0 0
2166253101.736973 0 0 -0.0168306810521 -0.00134361745455 0 0 0 0
2169975186.104218 0 0 -0.017227335635 0.000626177912943 0 0 0 0
2173697270.471464 0 0 -0.0174306361983 0.00295125141376 0 0 0 0
2177419354.838710 0 0 -0.0172977315522 0.00550648628143 0 0 0 0
2181141439.205956 0 0 -0.0166945095629 0.00839125638099 0 0 0 0
2184863523.573201 0 0 -0.015028510205 0.0109664871572 0 0 0 0
2188585607.940447 0 0 -0.0132004091311 0.0128546272142 0 0 0 0
2192307692.307693 0 0 -0.0114128998457 0.0147371084835 0 0 0 0
2196029776.674938 0 0 -0.00911668380391 0.0166882367264 0 0 0 0
2199751861.042184 0 0 -0.00606967988089 0.0182302731149 0 0 0 0
2203473945.409429 0 0 -0.00290593401605 0.0187914298649 0 0 0 0
2207196029.776675 0 0 -6.63388287843e-05 0.0188193902607 0 0 0 0
2210918114.143920 0 0 0.00291251274083 0.018928721504 0 0 0 0
2214640198.511166 0 0 0.00644124046929 0.018280646216 0 0 0 0
2218362282.878412 0 0 0.00951866106407 0.016260660651 0 0 0 0
2222084367.245657 0 0 0.0117625184296 0.0136870256501 0 0 0 0
2225806451.612903 0 0 0.0133269254659 0.0112504327009 0 0 0 0
2229528535.980149 0 0 0.0142972312576 0.00897670577907 0 0 0 0
2233250620.347394 0 0 0.0151250406135 0.00698265549399 0 0 0 0
2236972704.714640 0 0 0.016089886071 0.00485814731211 0 0 0 0
2240694789.081886 0 0 0.0170004170764 0.00230018878964 0 0 0 0
2244416873.449131 0 0 0.017368229311 -0.000543603320769 0 0 0 0
2248138957.816377 0 0 0.016626414343 -0.00356166103564 0 0 0 0
2251861042.183623 0 0 0.0154722123334 -0.00626647861858 0 0 0 0
2255583126.550869 0 0 0.0144321916438 -0.00876738144912 0 0 0 0
2259305210.918114 0 0 0.0128694434363 -0.0114932296161 0 0 0 0
2263027295.285360 0 0 0.0102242108525 -0.0139714143801 0 0 0 0
2266749379.652606 0 0 0.00702485396327 -0.015352543425 0 0 0 0
2270471464.019851 0 0 0.0041912441628 -0.0158598887233 0 0 0 0
2274193548.387097 0 0 0.00139880566908 -0.0161282754433 0 0 0 0
2277915632.754343 0 0 -0.00120620088031 -0.0158324735432 0 0 0 0
2281637717.121588 0 0 -0.00349285578582 -0.0152324047063 0 0 0 0
2285359801.488833 0 0 -0.00561979830549 -0.014602646492 0 0 0 0
2289081885.856079 0 0 -0.00753648884323 -0.0138066405118 0 0 0 0
2292803970.223325 0 0 -0.00975482252629 -0.0131035281408 0 0 0 0
2296526054.590570 0 0 -0.0123162211933 -0.0118967855582 0 0 0 0
2300248138.957816 0 0 -0.0146083713458 -0.00959709166057 0 0 0 0
2303970223.325062 0 0 -0.0159793407013 -0.00686667308464 0 0 0 0
2307692307.692307 0 0 -0.0167513457246 -0.00444768763219 0 0 0 0
2311414392.059553 0 0 -0.0176043192632 -0.00203420933817 0 0 0 0
2315136476.426799 0 0 -0.0181041323265 0.00103849958246 0 0 0 0
2318858560.794044 0 0 -0.0174683701336 0.00451285416465 0 0 0 0
2322580645.161290 0 0 -0.0157794778245 0.00691929677882 0 0 0 0
2326302729.528536 0 0 -0.0142598245747 0.00826816575877 0 0 0 0
2330024813.895782 0 0 -0.0133578536256 0.00954207805015 0 0 0 0
2333746898.263027 0 0 -0.0121445548386 0.0111062177153 0 0 0 0
2337468982.630273 0 0 -0.0107220441621 0.012540458244 0 0 0 0
2341191066.997519 0 0 -0.00922418089323 0.0139323827118 0 0 0 0
2344913151.364764 0 0 -0.00764244481786 0.0150942696926 0 0 0 0
2348635235.732010 0 0 -0.00555548450553 0.0159264098193 0 0 0 0
2352357320.099256 0 0 -0.00358229106858 0.0161429399515 0 0 0 0
2356079404.466501 0 0 -0.00233533455027 0.0165982645165 0 0 0 0
2359801488.833747 0 0 -0.000335889709751 0.0176850128457 0 0 0 0
2363523573.200993 0 0 0.00254402475969 0.0181943617431 0 0 0 0
2367245657.568238 0 0 0.00534492167448 0.0178356202484 0 0 0 0
2370967741.935484 0 0 0.00781504456354 0.0168802462999 0 0 0 0
2374689826.302730 0 0 0.0100699791853 0.015998599366 0 0 0 0
2378411910.669975 0 0 0.0128003794706 0.0148235638337 0 0 0 0
2382133995.037221 0 0 0.0155361761933 0.0125657490834 0 0 0 0
2385856079.404467 0 0 0.0172991079453 0.00973451658128 0 0 0 0
2389578163.771712 0 0 0.0183491534033 0.00714556076098 0 0 0 0
2393300248.138958 0 0 0.019635227676 0.00432804039609 0 0 0 0
2397022332.506204 0 0 0.0205962848969 0.000692211349577 0 0 0 0
2400744416.873449 0 0 0.0203170732489 -0.00313289676207 0 0 0 0
2404466501.240695 0 0 0.0191317366465 -0.00697155859371 0 0 0 0
2408188585.607941 0 0 0.0172579892679 -0.0102709727778 0 0 0 0
2411910669.975186 0 0 0.0148280953351 -0.0130262269944 0 0 0 0
2415632754.342432 0 0 0.0115105291918 -0.0154824439541 0 0 0 0
2419354838.709677 0 0 0.00719564077595 -0.0168502934037 0 0 0 0
2423076923.076923 0 0 0.00348168611527 -0.0164774008668 0 0 0 0
2426799007.444169 0 0 0.000726316702715 -0.0154019638833 0 0 0 0
2430521091.811414 0 0 -0.00117479133858 -0.0145022352399 0 0 0 0
2434243176.178660 0 0 -0.00303807274675 -0.0134765594024 0 0 0 0
2437965260.545906 0 0 -0.00456111651142 -0.0121711840186 0 0 0 0
2441687344.913151 0 0 -0.00514105632146 -0.0109590023488 0 0 0 0
2445409429.280397 0 0 -0.00610060620948 -0.0104630951337 0 0 0 0
2449131513.647643 0 0 -0.00719180752618 -0.0100076748644 0 0 0 0
2452853598.014888 0 0 -0.00876305161261 -0.00929082506024 0 0 0 0
2456575682.382134 0 0 -0.00995013321079 -0.00825149855115 0 0 0 0
2460297766.749380 0 0 -0.0111612375846 -0.00710993853757 0 0 0 0
2464019851.116625 0 0 -0.0123567245924 -0.00559844562708 0 0 0 0
2467741935.483871 0 0 -0.0132870956234 -0.00412655886142 0 0 0 0
2471464019.851117 0 0 -0.0142343248956 -0.0022124258487 0 0 0 0
2475186104.218362 0 0 -0.0148147737316 0.000119518661969 0 0 0 0
2478908188.585608 0 0 -0.014456130927 0.00258496955324 0 0 0 0
2482630272.952854 0 0 -0.0137723183238 0.00449925208983 0 0 0 0
2486352357.320099 0 0 -0.0129070751742 0.00623300838045 0 0 0 0
2490074441.687345 0 0 -0.0122655392528 0.00751395800942 0 0 0 0
2493796526.054590 0 0 -0.0118656009913 0.00960830506862 0 0 0 0
2497518610.421836 0 0 -0.0101362814537 0.0126379952967 0 0 0 0
2501240694.789082 0 0 -0.00723192157691 0.014063500277 0 0 0 0
2504962779.156327 0 0 -0.00455444069568 0.0148464765529 0 0 0 0
2508684863.523573 0 0 -0.00168129586444 0.0153371247735 0 0 0 0
2512406947.890819 0 0 0.00111279219105 0.0144342893413 0 0 0 0
2516129032.258064 0 0 0.00320540458685 0.0136688000132 0 0 0 0
2519851116.625310 0 0 0.00528835117851 0.0129264639837 0 0 0 0
2523573200.992556 0 0 0.00735630985115 0.0117260431139 0 0 0 0
2527295285.359801 0 0 0.00948649614501 0.0100470282348 0 0 0 0
2531017369.727047 0 0 0.0113027677066 0.00768260764477 0 0 0 0
2534739454.094293 0 0 0.0118629216256 0.00470568936216 0 0 0 0
2538461538.461538 0 0 0.0115422781031 0.00215545473382 0 0 0 0
2542183622.828784 0 0 0.0110086380204 0.000159235198183 0 0 0 0
2545905707.196030 0 0 0.0102883443965 -0.00220442763888 0 0 0 0
2549627791.563275 0 0 0.00825464756616 -0.00374551427168 0 0 0 0
2553349875.930521 0 0 0.0064386374435 -0.00360305457953 0 0 0 0
2557071960.297767 0 0 0.0061454795851 -0.00340392937186 0 0 0 0
2560794044.665012 0 0 0.00572702969518 -0.00404725188576 0 0 0 0
2564516129.032258 0 0 0.00529190866898 -0.00436014819249 0 0 0 0
2568238213.399504 0 0 0.0050256623932 -0.00536944442702 0 0 0 0
2571960297.766749 0 0 0.00378116491236 -0.00610240161376 0 0 0 0
2575682382.133995 0 0 0.00248402679867 -0.00667096719583 0 0 0 0
2579404466.501241 0 0 0.00118150261929 -0.00678755631139 0 0 0 0
2583126550.868486 0 0 0.000169963568967 -0.00642607100169 0 0 0 0
2586848635.235732 0 0 -0.000815118559789 -0.00611185888868 0 0 0 0
2590570719.602978 0 0 -0.00177505806572 -0.00544270002141 0 0 0 0
2594292803.970223 0 0 -0.00213932061939 -0.00475465796882 0 0 0 0
2598014888.337469 0 0 -0.00219596106393 -0.0042381153509 0 0 0 0
2601736972.704715 0 0 -0.00233423348202 -0.0042619175055 0 0 0 0
2605459057.071960 0 0 -0.00319124469449 -0.00417182868542 0 0 0 0
2609181141.439206 0 0 -0.00402660440728 -0.00310897024316 0 0 0 0
2612903225.806452 0 0 -0.00366065489949 -0.00192337292897 0 0 0 0
2616625310.173697 0 0 -0.00301357202318 -0.00150575586945 0 0 0 0
2620347394.540943 0 0 -0.00274442504503 -0.00146430133818 0 0 0 0
2624069478.908189 0 0 -0.00272163442922 -0.00203220735206 0 0 0 0
2627791563.275434 0 0 -0.00228715087907 -0.00240529563765 0 0 0 0
2631513647.642680 0 0 -0.00201651059103 -0.00294380360402 0 0 0 0
2635235732.009926 0 0 -0.00246452747531 -0.00422992978116 0 0 0 0
2638957816.377171 0 0 -0.00417575849924 -0.00485136886216 0 0 0 0
2642679900.744417 0 0 -0.00595472984453 -0.00413064920552 0 0 0 0
2646401985.111662 0 0 -0.00716828776106 -0.00301259745997 0 0 0 0
2650124069.478908 0 0 -0.00805362324616 -0.00162896675322 0 0 0 0
2653846153.846154 0 0 -0.00882279423949 0.000401923743387 0 0 0 0
2657568238.213399 0 0 -0.0085781781331 0.00252273210191 0 0 0 0
2661290322.580645 0 0 -0.007549545958 0.00429323534932 0 0 0 0
2665012406.947891 0 0 -0.0063814185113 0.00562454070249 0 0 0 0
2668734491.315136 0 0 -0.00468798840266 0.00671724706882 0 0 0 0
2672456575.682382 0 0 -0.00291765192285 0.00710698216383 0 0 0 0
2676178660.049628 0 0 -0.0014245155983 0.00694899565353 0 0 0 0
2679900744.416873 0 0 -0.000419672102513 0.0064984057168 0 0 0 0
2683622828.784119 0 0 0.000469000115713 0.00632811108461 0 0 0 0
2687344913.151365 0 0 0.00155366678715 0.00607200966481 0 0 0 0
2691066997.518610 0 0 0.00239129985911 0.00565475043036 0 0 0 0
2694789081.885856 0 0 0.00344209225788 0.00523785119946 0 0 0 0
2698511166.253101 0 0 0.00457282878021 0.00444458048973 0 0 0 0
2702233250.620347 0 0 0.00548381952768 0.00311017059702 0 0 0 0
2705955334.987593 0 0 0.00591066540076 0.00153769590068 0 0 0 0
2709677419.354838 0 0 0.00578342766691 1.90095855826e-05 0 0 0 0
2713399503.722084 0 0 0.00515961678925 -0.0012655824298 0 0 0 0
2717121588.089330 0 0 0.00430056661201 -0.00199626097371 0 0 0 0
2720843672.456575 0 0 0.00364088123268 -0.0024514685888 0 0 0 0
2724565756.823821 0 0 0.00294608596213 -0.00283450655319 0 0 0 0
2728287841.191067 0 0 0.0023469777918 -0.00292427716677 0 0 0 0
2732009925.558312 0 0 0.00216957217127 -0.0029970689263 0 0 0 0
2735732009.925558 0 0 0.001779195395 -0.00332666919517 0 0 0 0
2739454094.292804 0 0 0.00120359055337 -0.00336138578864 0 0 0 0
2743176178.660049 0 0 0.000943794555352 -0.00333925740789 0 0 0 0
2746898263.027295 0 0 0.000732319518874 -0.00367284216668 0 0 0 0
2750620347.394541 0 0 0.000287784560067 -0.004006878459 0 0 0 0
2754342431.761786 0 0 -0.000340739714184 -0.00425108153268 0 0 0 0
2758064516.129032 0 0 -0.00101184616646 -0.00442492526265 0 0 0 0
2761786600.496278 0 0 -0.00187973771475 -0.00461249628526 0 0 0 0
2765508684.863523 0 0 -0.0031364703138 -0.00454608364627 0 0 0 0
2769230769.230769 0 0 -0.00439730207794 -0.00376334741043 0 0 0 0
2772952853.598015 0 0 -0.00525796125397 -0.00244714266862 0 0 0 0
2776674937.965261 0 0 -0.00559642781928 -0.000919596856727 0 0 0 0
2780397022.332506 0 0 -0.00538039686523 0.000490695733432 0 0 0 0
2784119106.699752 0 0 -0.00491699521916 0.00159409162846 0 0 0 0
2787841191.066998 0 0 -0.00429171678973 0.00268903875152 0 0 0 0
2791563275.434243 0 0 -0.00331737812473 0.00366763359612 0 0 0 0
2795285359.801489 0 0 -0.00208975561194 0.00422403182006 0 0 0 0
2799007444.168735 0 0 -0.000706904436823 0.00451350547034 0 0 0 0
2802729528.535980 0 0 0.000752362585184 0.00443897418743 0 0 0 0
2806451612.903226 0 0 0.00216372168913 0.0037794270082 0 0 0 0
2810173697.270472 0 0 0.00319044300909 0.00272875708798 0 0 0 0
2813895781.637717 0 0 0.00380345420239 0.00137270204153 0 0 0 0
2817617866.004963 0 0 0.0038529332339 8.26579628772e-05 0 0 0 0
2821339950.372209 0 0 0.00367331552428 -0.00111800137479 0 0 0 0
2825062034.739454 0 0 0.00305015838653 -0.00222642581935 0 0 0 0
2828784119.106700 0 0 0.00204089019491 -0.0027520721655 0 0 0 0
2832506203.473946 0 0 0.00131897206169 -0.00272383258545 0 0 0 0
2836228287.841191 0 0 0.000806155960431 -0.0027528909005 0 0 0 0
2839950372.208437 0 0 0.000132808039647 -0.00284125192693 0 0 0 0
2843672456.575683 0 0 -0.000438647463338 -0.00259707424161 0 0 0 0
2847394540.942928 0 0 -0.000700417964591 -0.00216984217316 0 0 0 0
2851116625.310174 0 0 -0.000745756442237 -0.00182142960658 0 0 0 0
2854838709.677419 0 0 -0.00077288426579 -0.00175036284672 0 0 0 0
2858560794.044665 0 0 -0.000851220551438 -0.00169781611722 0 0 0 0
2862282878.411911 0 0 -0.000766820317432 -0.00176952643023 0 0 0 0
2866004962.779156 0 0 -0.000770715415028 -0.00192825518921 0 0 0 0
2869727047.146402 0 0 -0.00118237712118 -0.00206713409628 0 0 0 0
2873449131.513648 0 0 -0.00162104027911 -0.00184747038796 0 0 0 0
2877171215.880893 0 0 -0.00198547321166 -0.00148198340624 0 0 0 0
2880893300.248139 0 0 -0.00218595636776 -0.00100753561041 0 0 0 0
2884615384.615385 0 0 -0.0022218714301 -0.000456052402464 0 0 0 0
2888337468.982630 0 0 -0.00210279188634 -0.000100021262871 0 0 0 0
2892059553.349876 0 0 -0.00186729929398 0.000170908673421 0 0 0 0
2895781637.717122 0 0 -0.00179232025598 0.000416246672662 0 0 0 0
2899503722.084367 0 0 -0.00168199492642 0.000639276963414 0 0 0 0
2903225806.451612 0 0 -0.00164206843743 0.00073722222199 0 0 0 0
2906947890.818858 0 0 -0.00169779386177 0.00117838895526 0 0 0 0
2910669975.186104 0 0 -0.00150296625098 0.00176517784401 0 0 0 0
2914392059.553349 0 0 -0.00119801657929 0.00231444383405 0 0 0 0
2918114143.920595 0 0 -0.000801827788593 0.00304320629076 0 0 0 0
2921836228.287841 0 0 3.8330297612e-05 0.00365702378216 0 0 0 0
2925558312.655087 0 0 0.00110933535892 0.00413920938186 0 0 0 0
2929280397.022332 0 0 0.00245178037695 0.00418447291616 0 0 0 0
2933002481.389578 0 0 0.00389482865512 0.00350952636207 0 0 0 0
2936724565.756824 0 0 0.00472632651599 0.00226099885972 0 0 0 0
2940446650.124069 0 0 0.00506609443705 0.00105294722731 0 0 0 0
2944168734.491315 0 0 0.00507326479277 4.82646199953e-05 0 0 0 0
2947890818.858561 0 0 0.00474364898569 -0.00123750806591 0 0 0 0
2951612903.225806 0 0 0.00374214751746 -0.00175117813451 0 0 0 0
2955334987.593052 0 0 0.00329672328271 -0.00161541581179 0 0 0 0
2959057071.960298 0 0 0.00343764633036 -0.0016703682615 0 0 0 0
2962779156.327543 0 0 0.0033556643459 -0.00207963137293 0 0 0 0
2966501240.694789 0 0 0.00331693908817 -0.00232048478668 0 0 0 0
2970223325.062035 0 0 0.0033204775963 -0.00273832138258 0 0 0 0
2973945409.429280 0 0 0.00352621587599 -0.00342469259317 0 0 0 0
2977667493.796526 0 0 0.00318647174718 -0.00420626736422 0 0 0 0
2981389578.163772 0 0 0.00278162005811 -0.00483085480854 0 0 0 0
2985111662.531017 0 0 0.00213903468333 -0.00570945994662 0 0 0 0
2988833746.898263 0 0 0.00117536825016 -0.0065064149854 0 0 0 0
2992555831.265509 0 0 -0.00022072588518 -0.00673393779754 0 0 0 0
2996277915.632754 0 0 -0.00141654395467 -0.00654777650613 0 0 0 0
3000000000.000000 0 0 -0.0024073664099 -0.00621653472384 0 0 0 0
