# HZ S RI R 50
1500000000 -0.15310871601104736 0.0076683275401592255 0.07268421351909637 -0.03496377915143967 0 0 0 0
1503722084 -0.12612920999526978 0.04210022836923599 0.06352268159389496 -0.04782019555568695 0 0 0 0
1507444168 -0.09231702983379364 0.07177306711673737 0.051436036825180054 -0.05830175802111626 0 0 0 0
1511166252 -0.05265510827302933 0.09544456005096436 0.03710848093032837 -0.06545346230268478 0 0 0 0
1514888336 -0.009495781734585762 0.11177733540534973 0.02243732288479805 -0.0682201236486435 0 0 0 0
1518610420 0.03755759820342064 0.12027942389249802 0.008390076458454132 -0.06722740828990936 0 0 0 0
1522332504 0.08803749084472656 0.11966865509748459 -0.003547429107129574 -0.06359220296144485 0 0 0 0
1526054588 0.13483527302742004 0.11209851503372192 -0.013648875057697296 -0.05813390761613846 0 0 0 0
1529776672 0.18283790349960327 0.09623599052429199 -0.021732622757554054 -0.05183204635977745 0 0 0 0
1533498756 0.22791829705238342 0.07405391335487366 -0.027722734957933426 -0.04472528025507927 0 0 0 0
1537220840 0.27047020196914673 0.04191812127828598 -0.03234761953353882 -0.037214189767837524 0 0 0 0
1540942924 0.30763787031173706 0.002183564007282257 -0.03486782684922218 -0.030125588178634644 0 0 0 0
1544665008 0.33749619126319885 -0.04383353143930435 -0.03641503304243088 -0.023602508008480072 0 0 0 0
1548387092 0.3603292405605316 -0.09194029867649078 -0.037215281277894974 -0.018163640052080154 0 0 0 0
1552109176 0.3738039433956146 -0.14544162154197693 -0.0378420315682888 -0.012039920315146446 0 0 0 0
1555831260 0.3810718059539795 -0.19969189167022705 -0.0375918485224247 -0.006519503891468048 0 0 0 0
1559553344 0.3786175847053528 -0.2568000257015228 -0.03592802211642265 -0.0005380883812904358 0 0 0 0
1563275428 0.366489052772522 -0.31209468841552734 -0.033574655652046204 0.0038817618042230606 0 0 0 0
1566997512 0.3515250086784363 -0.36505115032196045 -0.031181050464510918 0.007491559721529484 0 0 0 0
1570719596 0.32287707924842834 -0.4172910451889038 -0.02830859273672104 0.010845080018043518 0 0 0 0
1574441680 0.2861829400062561 -0.46520036458969116 -0.02566842921078205 0.012858184985816479 0 0 0 0
1578163764 0.24311763048171997 -0.506499707698822 -0.02314567193388939 0.014949740841984749 0 0 0 0
1581885848 0.19075721502304077 -0.5406290888786316 -0.021058546379208565 0.016843149438500404 0 0 0 0
1585607932 0.14293071627616882 -0.5644098520278931 -0.018564850091934204 0.018681414425373077 0 0 0 0
1589330016 0.08560185879468918 -0.5841955542564392 -0.015751074999570847 0.020151779055595398 0 0 0 0
1593052100 0.025413542985916138 -0.59534752368927 -0.013399796560406685 0.021219119429588318 0 0 0 0
1596774184 -0.0365520715713501 -0.5971084237098694 -0.011396166868507862 0.022278793156147003 0 0 0 0
1600496268 -0.09733697772026062 -0.589574933052063 -0.009247775189578533 0.02400990016758442 0 0 0 0
1604218352 -0.1562526673078537 -0.5731030702590942 -0.006339411251246929 0.025656208395957947 0 0 0 0
1607940436 -0.21261638402938843 -0.5476248264312744 -0.002513832412660122 0.026941806077957153 0 0 0 0
1611662520 -0.26707491278648376 -0.5155949592590332 0.0017863055691123009 0.027484584599733353 0 0 0 0
1615384604 -0.31315848231315613 -0.4767282009124756 0.006233302876353264 0.027005434036254883 0 0 0 0
1619106688 -0.35570934414863586 -0.43118271231651306 0.010503296740353107 0.026002656668424606 0 0 0 0
1622828772 -0.39521655440330505 -0.3748534619808197 0.014883184805512428 0.02428235486149788 0 0 0 0
1626550856 -0.4222854673862457 -0.3203446865081787 0.019168362021446228 0.02161043882369995 0 0 0 0
1630272940 -0.44460007548332214 -0.2558857500553131 0.022905386984348297 0.017631353810429573 0 0 0 0
1633995024 -0.4605429470539093 -0.187322735786438 0.0257057286798954 0.01270858570933342 0 0 0 0
1637717108 -0.4636427164077759 -0.12182632088661194 0.027431383728981018 0.007766158320009708 0 0 0 0
1641439192 -0.45915424823760986 -0.05113741755485535 0.027741270139813423 0.0021429359912872314 0 0 0 0
1645161276 -0.4414735436439514 0.01944953203201294 0.026831014081835747 -0.0029690172523260117 0 0 0 0
1648883360 -0.4127585291862488 0.08907346427440643 0.025105170905590057 -0.007513050921261311 0 0 0 0
1652605444 -0.37326547503471375 0.15466921031475067 0.022623790428042412 -0.011478492990136147 0 0 0 0
1656327528 -0.3258211612701416 0.20912984013557434 0.01956489123404026 -0.014869863167405128 0 0 0 0
1660049612 -0.26573121547698975 0.2610056400299072 0.016068143770098686 -0.017555858939886093 0 0 0 0
1663771696 -0.20150598883628845 0.30142122507095337 0.01221523992717266 -0.01951522007584572 0 0 0 0
1667493780 -0.13112175464630127 0.3331119418144226 0.008043056353926659 -0.020733846351504326 0 0 0 0
1671215864 -0.054609641432762146 0.35458463430404663 0.0037821736186742783 -0.021369406953454018 0 0 0 0
1674937948 0.02558443695306778 0.3649642765522003 -0.0008296817541122437 -0.02050727978348732 0 0 0 0
1678660032 0.10640266537666321 0.3621516823768616 -0.004423199221491814 -0.018473634496331215 0 0 0 0
1682382116 0.18642249703407288 0.34568271040916443 -0.007164946757256985 -0.016139952465891838 0 0 0 0
1686104200 0.2644798457622528 0.31789541244506836 -0.009407232515513897 -0.013327778317034245 0 0 0 0
1689826284 0.3376080393791199 0.27589473128318787 -0.010550460778176785 -0.010180702432990074 0 0 0 0
1693548368 0.403293639421463 0.22115983068943024 -0.01083785854279995 -0.007284044288098812 0 0 0 0
1697270452 0.45831727981567383 0.16050970554351807 -0.010348694398999214 -0.004876174032688141 0 0 0 0
1700992536 0.5018019080162048 0.08831968903541565 -0.009607940912246704 -0.003039122559130192 0 0 0 0
1704714620 0.5340616703033447 0.011723458766937256 -0.00869440846145153 -0.0015709241852164268 0 0 0 0
1708436704 0.5528642535209656 -0.06304235756397247 -0.0077005475759506226 -0.0005639474838972092 0 0 0 0
1712158788 0.5585314631462097 -0.1488703489303589 -0.006652809679508209 0.00010875798761844635 0 0 0 0
1715880872 0.5530222058296204 -0.2252223789691925 -0.005924122408032417 0.00039398763328790665 0 0 0 0
1719602956 0.5341745018959045 -0.30284905433654785 -0.005152459256350994 0.0006241248920559883 0 0 0 0
1723325040 0.5049640536308289 -0.3765493631362915 -0.004400494508445263 0.0006338302046060562 0 0 0 0
1727047124 0.465755432844162 -0.4411983788013458 -0.00390410702675581 0.0003495505079627037 0 0 0 0
1730769208 0.41363298892974854 -0.5022940635681152 -0.0037223370745778084 8.508563041687012e-06 0 0 0 0
1734491292 0.35611599683761597 -0.552002489566803 -0.003693295642733574 -0.0002147182822227478 0 0 0 0
1738213376 0.2949269413948059 -0.5894888043403625 -0.003782312385737896 -0.0005148565396666527 0 0 0 0
1741935460 0.2230517566204071 -0.6194077730178833 -0.004201456904411316 -0.0007485095411539078 0 0 0 0
1745657544 0.15474823117256165 -0.6369538903236389 -0.004825355485081673 -0.0007787179201841354 0 0 0 0
1749379628 0.08309139311313629 -0.6416164040565491 -0.00564726535230875 -0.0003426428884267807 0 0 0 0
1753101712 0.011991560459136963 -0.6362232565879822 -0.006143548525869846 0.0003046998754143715 0 0 0 0
1756823796 -0.05559764802455902 -0.6209742426872253 -0.006273775361478329 0.0009995084255933762 0 0 0 0
1760545880 -0.11599573493003845 -0.5954821109771729 -0.006545025855302811 0.001537512056529522 0 0 0 0
1764267964 -0.17566578090190887 -0.5598527789115906 -0.006819462403655052 0.0022626426070928574 0 0 0 0
1767990048 -0.22474071383476257 -0.5185802578926086 -0.006998838856816292 0.0029559843242168427 0 0 0 0
1771712132 -0.26282766461372375 -0.4747706651687622 -0.007139530032873154 0.0036472193896770477 0 0 0 0
1775434216 -0.2996620535850525 -0.4216464161872864 -0.007714422419667244 0.004237296991050243 0 0 0 0
1779156300 -0.3239859342575073 -0.3694411516189575 -0.00857717078179121 0.005637725815176964 0 0 0 0
1782878384 -0.344533771276474 -0.31259506940841675 -0.009085455909371376 0.0076432302594184875 0 0 0 0
1786600468 -0.35640907287597656 -0.2543432414531708 -0.0090280557051301 0.010114850476384163 0 0 0 0
1790322552 -0.3593761622905731 -0.19635429978370667 -0.008262948133051395 0.012950463220477104 0 0 0 0
1794044636 -0.35421663522720337 -0.13762575387954712 -0.006723484955728054 0.015875812619924545 0 0 0 0
1797766720 -0.33968648314476013 -0.08297573029994965 -0.0044046733528375626 0.01878235675394535 0 0 0 0
1801488804 -0.31927210092544556 -0.02876543253660202 -0.0009397901594638824 0.021698562428355217 0 0 0 0
1805210888 -0.2898760139942169 0.01984168216586113 0.0038971854373812675 0.023869017139077187 0 0 0 0
1808932972 -0.25313130021095276 0.06847267597913742 0.009969068691134453 0.024737102910876274 0 0 0 0
1812655056 -0.20762315392494202 0.10778573155403137 0.016535669565200806 0.02334335446357727 0 0 0 0
1816377140 -0.1573900580406189 0.1378517895936966 0.022424377501010895 0.020325150340795517 0 0 0 0
1820099224 -0.10295888036489487 0.1580229103565216 0.027989298105239868 0.015819476917386055 0 0 0 0
1823821308 -0.047240640968084335 0.16853857040405273 0.032176267355680466 0.009206301532685757 0 0 0 0
1827543392 0.00756000354886055 0.16981863975524902 0.03431549668312073 0.0016819043084979057 0 0 0 0
1831265476 0.05989885330200195 0.1617363840341568 0.033795472234487534 -0.006153942085802555 0 0 0 0
1834987560 0.1100522056221962 0.14598390460014343 0.03161700442433357 -0.01309940218925476 0 0 0 0
1838709644 0.1547269970178604 0.12446456402540207 0.028124656528234482 -0.019017720595002174 0 0 0 0
1842431728 0.19464486837387085 0.09614264965057373 0.024390798062086105 -0.023705940693616867 0 0 0 0
1846153812 0.22692331671714783 0.06323323398828506 0.01965637132525444 -0.027724748477339745 0 0 0 0
1849875896 0.25440898537635803 0.02606775611639023 0.01378628145903349 -0.031155666336417198 0 0 0 0
1853597980 0.27449095249176025 -0.01184198260307312 0.008059750311076641 -0.032821521162986755 0 0 0 0
1857320064 0.2890591621398926 -0.05304589867591858 0.0022002849727869034 -0.03316962718963623 0 0 0 0
1861042148 0.2966021001338959 -0.09441089630126953 -0.0027172015979886055 -0.03340316563844681 0 0 0 0
1864764232 0.2955928146839142 -0.1357015073299408 -0.008476546965539455 -0.03328084200620651 0 0 0 0
1868486316 0.28870296478271484 -0.17486359179019928 -0.01461568009108305 -0.03182350844144821 0 0 0 0
1872208400 0.2777745723724365 -0.20983225107192993 -0.020103590562939644 -0.029076220467686653 0 0 0 0
1875930484 0.2613608241081238 -0.24241918325424194 -0.02505560964345932 -0.024949748069047928 0 0 0 0
1879652568 0.23904824256896973 -0.27325817942619324 -0.029113154858350754 -0.020258143544197083 0 0 0 0
1883374652 0.21312838792800903 -0.2997349798679352 -0.0322803370654583 -0.01575900986790657 0 0 0 0
1887096736 0.1843797117471695 -0.3198776841163635 -0.035268545150756836 -0.01060063112527132 0 0 0 0
1890818820 0.1534876823425293 -0.33412104845046997 -0.0373920314013958 -0.004372315481305122 0 0 0 0
1894540904 0.11844108253717422 -0.34288299083709717 -0.03861979395151138 0.0024409955367445946 0 0 0 0
1898262988 0.08423149585723877 -0.3450354337692261 -0.03812030330300331 0.009928643703460693 0 0 0 0
1901985072 0.051420535892248154 -0.3406306207180023 -0.03592576086521149 0.017349131405353546 0 0 0 0
1905707156 0.02032863348722458 -0.33003100752830505 -0.03191316872835159 0.02379278466105461 0 0 0 0
1909429240 -0.005870632827281952 -0.31639599800109863 -0.02730405516922474 0.029155194759368896 0 0 0 0
1913151324 -0.029459483921527863 -0.29821959137916565 -0.02191506326198578 0.03379974141716957 0 0 0 0
1916873408 -0.04879318177700043 -0.2768525779247284 -0.01546842884272337 0.03770503029227257 0 0 0 0
1920595492 -0.06445051729679108 -0.25232040882110596 -0.008312510326504707 0.04019952565431595 0 0 0 0
1924317576 -0.07429081201553345 -0.22698251903057098 3.5499222576618195e-05 0.04138302803039551 0 0 0 0
1928039660 -0.08142927289009094 -0.20121194422245026 0.0079318443313241 0.040628693997859955 0 0 0 0
1931761744 -0.08315232396125793 -0.17512519657611847 0.015832509845495224 0.03766815364360809 0 0 0 0
1935483828 -0.08234284073114395 -0.14801707863807678 0.02255367860198021 0.03329168260097504 0 0 0 0
1939205912 -0.07560346275568008 -0.12226540595293045 0.027509499341249466 0.027893327176570892 0 0 0 0
1942927996 -0.06544520705938339 -0.09665364027023315 0.031060894951224327 0.021827999502420425 0 0 0 0
1946650080 -0.050752051174640656 -0.07327289134263992 0.03341494873166084 0.016495706513524055 0 0 0 0
1950372164 -0.0314333438873291 -0.051840804517269135 0.03544176369905472 0.01079602912068367 0 0 0 0
1954094248 -0.007476738654077053 -0.03480388596653938 0.037270400673151016 0.004919324070215225 0 0 0 0
1957816332 0.019780179485678673 -0.02292933501303196 0.03820578008890152 -0.002044529654085636 0 0 0 0
1961538416 0.04855412244796753 -0.01702568680047989 0.03705710917711258 -0.009668253362178802 0 0 0 0
1965260500 0.07741126418113708 -0.017008136957883835 0.03434964641928673 -0.01626397855579853 0 0 0 0
1968982584 0.1061483770608902 -0.022876013070344925 0.030604181811213493 -0.0224465299397707 0 0 0 0
1972704668 0.13270743191242218 -0.03389343246817589 0.02602117508649826 -0.027650900185108185 0 0 0 0
1976426752 0.15650123357772827 -0.04867953807115555 0.020392902195453644 -0.03207269683480263 0 0 0 0
1980148836 0.17663416266441345 -0.06934938579797745 0.013371930457651615 -0.0355055034160614 0 0 0 0
1983870920 0.19251398742198944 -0.09190192818641663 0.00587864313274622 -0.037281207740306854 0 0 0 0
1987593004 0.20368005335330963 -0.11818882077932358 -0.0012153033167123795 -0.0371287539601326 0 0 0 0
1991315088 0.20759746432304382 -0.14594534039497375 -0.00861205905675888 -0.03569065406918526 0 0 0 0
1995037172 0.20893733203411102 -0.17117655277252197 -0.014933101832866669 -0.0326557494699955 0 0 0 0
1998759256 0.20379288494586945 -0.1981034278869629 -0.020714841783046722 -0.027991149574518204 0 0 0 0
2002481340 0.19731679558753967 -0.22031062841415405 -0.02377266436815262 -0.023568985983729362 0 0 0 0
2006203424 0.18313448131084442 -0.2432621270418167 -0.026486650109291077 -0.019059251993894577 0 0 0 0
2009925508 0.16614647209644318 -0.2623068392276764 -0.028926705941557884 -0.014618069864809513 0 0 0 0
2013647592 0.14853167533874512 -0.27772703766822815 -0.030964961275458336 -0.010229483246803284 0 0 0 0
2017369676 0.12653979659080505 -0.2926589250564575 -0.03292097523808479 -0.005226961337029934 0 0 0 0
2021091760 0.10443856567144394 -0.30231571197509766 -0.034024253487586975 0.0009242184460163116 0 0 0 0
2024813844 0.08101312816143036 -0.3086799085140228 -0.03361097350716591 0.007446866482496262 0 0 0 0
2028535928 0.05335827171802521 -0.31021568179130554 -0.0315713956952095 0.013916632160544395 0 0 0 0
2032258012 0.02454891800880432 -0.3078448474407196 -0.02783646062016487 0.019717082381248474 0 0 0 0
2035980096 0.0002490803599357605 -0.3002130687236786 -0.023426823318004608 0.02370188757777214 0 0 0 0
2039702180 -0.024022534489631653 -0.2886025011539459 -0.018907658755779266 0.02658998593688011 0 0 0 0
2043424264 -0.04943455755710602 -0.2716292440891266 -0.013606617227196693 0.029414404183626175 0 0 0 0
2047146348 -0.06919386982917786 -0.25098469853401184 -0.008505048230290413 0.030594544485211372 0 0 0 0
2050868432 -0.0856001153588295 -0.22752010822296143 -0.0036442624405026436 0.031242940574884415 0 0 0 0
2054590516 -0.0985954999923706 -0.20165488123893738 0.0010455837473273277 0.031169867143034935 0 0 0 0
2058312600 -0.10718002915382385 -0.17344854772090912 0.006219612434506416 0.030812645331025124 0 0 0 0
2062034684 -0.11197450757026672 -0.14308670163154602 0.01160628441721201 0.029132569208741188 0 0 0 0
2065756768 -0.1112585961818695 -0.11406249552965164 0.016371726989746094 0.02677859738469124 0 0 0 0
2069478852 -0.10730253159999847 -0.08209964632987976 0.020160268992185593 0.023113753646612167 0 0 0 0
2073200936 -0.09843432903289795 -0.05018790066242218 0.023516541346907616 0.0193035826086998 0 0 0 0
2076923020 -0.08218599110841751 -0.019523579627275467 0.026037806645035744 0.014829128980636597 0 0 0 0
2080645104 -0.06098393350839615 0.00786588340997696 0.02712380886077881 0.01016214955598116 0 0 0 0
2084367188 -0.034555062651634216 0.031972773373126984 0.02772560343146324 0.006367428228259087 0 0 0 0
2088089272 -0.003460375592112541 0.05103553086519241 0.028363294899463654 0.0027100974693894386 0 0 0 0
2091811356 0.03045940026640892 0.06398603320121765 0.02925381064414978 -0.0013419827446341515 0 0 0 0
2095533440 0.06537977606058121 0.07085315883159637 0.029695354402065277 -0.006318732164800167 0 0 0 0
2099255524 0.10089211165904999 0.07300646603107452 0.029188290238380432 -0.011682465672492981 0 0 0 0
2102977608 0.1366111785173416 0.06802134215831757 0.026882130652666092 -0.01749984361231327 0 0 0 0
2106699692 0.17021356523036957 0.057991743087768555 0.023185675963759422 -0.022836241871118546 0 0 0 0
2110421776 0.2038271278142929 0.042431898415088654 0.017995763570070267 -0.026918668299913406 0 0 0 0
2114143860 0.23370052874088287 0.020331792533397675 0.012668105773627758 -0.029598679393529892 0 0 0 0
2117865944 0.25761929154396057 -0.006155043840408325 0.007019391283392906 -0.03122725524008274 0 0 0 0
2121588028 0.2776487171649933 -0.03399849683046341 0.0010626893490552902 -0.032372694462537766 0 0 0 0
2125310112 0.2914220094680786 -0.06703713536262512 -0.0059873731806874275 -0.031641557812690735 0 0 0 0
2129032196 0.30111849308013916 -0.09846864640712738 -0.012227190658450127 -0.029293783009052277 0 0 0 0
2132754280 0.30502498149871826 -0.1321905553340912 -0.01719370111823082 -0.02546776458621025 0 0 0 0
2136476364 0.30295875668525696 -0.1667393445968628 -0.02087831124663353 -0.020674601197242737 0 0 0 0
2140198448 0.2966257929801941 -0.1981656402349472 -0.023218434303998947 -0.016041815280914307 0 0 0 0
2143920532 0.2863282561302185 -0.229328915476799 -0.024578938260674477 -0.011578692123293877 0 0 0 0
2147642616 0.26763176918029785 -0.25865045189857483 -0.025388721376657486 -0.007293700240552425 0 0 0 0
2151364700 0.24740558862686157 -0.28172606229782104 -0.02547166682779789 -0.003104942850768566 0 0 0 0
2155086784 0.22446294128894806 -0.30159223079681396 -0.02506868727505207 0.0008299173787236214 0 0 0 0
2158808868 0.1947026252746582 -0.3199405372142792 -0.023970842361450195 0.0047342246398329735 0 0 0 0
2162530952 0.16612496972084045 -0.33127251267433167 -0.022578135132789612 0.007799764163792133 0 0 0 0
2166253036 0.13735342025756836 -0.3370528817176819 -0.021051518619060516 0.010555276647210121 0 0 0 0
2169975120 0.10642401874065399 -0.33917728066444397 -0.019747009500861168 0.013393946923315525 0 0 0 0
2173697204 0.07773998379707336 -0.33613041043281555 -0.017799649387598038 0.016432614997029305 0 0 0 0
2177419288 0.04956535995006561 -0.32918286323547363 -0.015199635177850723 0.019681012257933617 0 0 0 0
2181141372 0.024567648768424988 -0.3180352747440338 -0.011833502911031246 0.022106125950813293 0 0 0 0
2184863456 -0.0010580271482467651 -0.30315008759498596 -0.008260210044682026 0.023952674120664597 0 0 0 0
2188585540 -0.022128615528345108 -0.2849370539188385 -0.004009362310171127 0.025421950966119766 0 0 0 0
2192307624 -0.04230508953332901 -0.26286089420318604 0.0008604107424616814 0.02628612145781517 0 0 0 0
2196029708 -0.057065755128860474 -0.23880890011787415 0.006003257818520069 0.025837961584329605 0 0 0 0
2199751792 -0.06885810941457748 -0.21384082734584808 0.011264616623520851 0.024150848388671875 0 0 0 0
2203473876 -0.07714645564556122 -0.1853104531764984 0.015702659264206886 0.02102261781692505 0 0 0 0
2207195960 -0.08013524860143661 -0.15584932267665863 0.019005201756954193 0.017247844487428665 0 0 0 0
2210918044 -0.07631872594356537 -0.1274847388267517 0.021497955545783043 0.01287832111120224 0 0 0 0
2214640128 -0.07129399478435516 -0.09597481787204742 0.02310945652425289 0.008069704286754131 0 0 0 0
2218362212 -0.05573182553052902 -0.07104531675577164 0.023352988064289093 0.003323705866932869 0 0 0 0
2222084296 -0.04001469910144806 -0.046201832592487335 0.022392915561795235 -0.0012865178287029266 0 0 0 0
2225806380 -0.019030313938856125 -0.026446977630257607 0.02075476199388504 -0.004784871824085712 0 0 0 0
2229528464 0.004957797005772591 -0.010919785127043724 0.019162185490131378 -0.008241647854447365 0 0 0 0
2233250548 0.029481448233127594 0.0008241990581154823 0.017105117440223694 -0.010898349806666374 0 0 0 0
2236972632 0.056199684739112854 0.007211234420537949 0.014413272961974144 -0.013698643073439598 0 0 0 0
2240694716 0.08322246372699738 0.01084228977560997 0.011742291040718555 -0.015498722903430462 0 0 0 0
2244416800 0.11010895669460297 0.007874857634305954 0.00829635001718998 -0.017110198736190796 0 0 0 0
2248138884 0.13517464697360992 -0.0006451290100812912 0.004996154457330704 -0.01796049252152443 0 0 0 0
2251860968 0.1592388153076172 -0.00899939239025116 0.0015211421996355057 -0.018109450116753578 0 0 0 0
2255583052 0.181491881608963 -0.021458379924297333 -0.0016160625964403152 -0.017739707604050636 0 0 0 0
2259305136 0.20062269270420074 -0.04093336686491966 -0.004844137467443943 -0.016455158591270447 0 0 0 0
2263027220 0.21598930656909943 -0.0604003369808197 -0.007113562896847725 -0.014734264463186264 0 0 0 0
2266749304 0.22780103981494904 -0.08004549145698547 -0.00900179985910654 -0.012912261299788952 0 0 0 0
2270471388 0.2310074269771576 -0.10900701582431793 -0.010503225959837437 -0.011100021190941334 0 0 0 0
2274193472 0.2346499264240265 -0.13019295036792755 -0.011818562634289265 -0.00922062061727047 0 0 0 0
2277915556 0.23242893815040588 -0.15734121203422546 -0.012898552231490612 -0.007195363752543926 0 0 0 0
2281637640 0.22478069365024567 -0.18182548880577087 -0.013713104650378227 -0.00513701606541872 0 0 0 0
2285359724 0.2170896977186203 -0.1993037313222885 -0.014237431809306145 -0.003161703236401081 0 0 0 0
2289081808 0.1981758177280426 -0.2200087010860443 -0.0143344821408391 -0.0008523669093847275 0 0 0 0
2292803892 0.1787794828414917 -0.23627948760986328 -0.014260731637477875 0.001594536006450653 0 0 0 0
2296525976 0.1632908582687378 -0.24396882951259613 -0.013443988747894764 0.0036776168271899223 0 0 0 0
2300248060 0.14265090227127075 -0.25301820039749146 -0.012527122162282467 0.00541522353887558 0 0 0 0
2303970144 0.1281309723854065 -0.2605202794075012 -0.011025013402104378 0.0074567850679159164 0 0 0 0
2307692228 0.10394594818353653 -0.2616966962814331 -0.009780701249837875 0.008674423210322857 0 0 0 0
2311414312 0.08108946681022644 -0.26089149713516235 -0.00794980302453041 0.009965887293219566 0 0 0 0
2315136396 0.05454263091087341 -0.2561580538749695 -0.00567405391484499 0.010256730951368809 0 0 0 0
2318858480 0.03560597822070122 -0.24692092835903168 -0.0038074320182204247 0.009968766942620277 0 0 0 0
2322580564 0.010055527091026306 -0.23175238072872162 -0.0024957340210676193 0.009418769739568233 0 0 0 0
2326302648 -0.002383977174758911 -0.2146020233631134 -0.0015558097511529922 0.008975078351795673 0 0 0 0
2330024732 -0.0170910507440567 -0.19397997856140137 -0.000903700478374958 0.008389642462134361 0 0 0 0
2333746816 -0.027486883103847504 -0.17158560454845428 -0.00019902735948562622 0.008152616210281849 0 0 0 0
2337468900 -0.0325857549905777 -0.14736726880073547 0.0007163872942328453 0.00796270091086626 0 0 0 0
2341190984 -0.03293789550662041 -0.12190444022417068 0.0017041852697730064 0.0075584230944514275 0 0 0 0
2344913068 -0.03309527039527893 -0.09419985860586166 0.002446266822516918 0.006726562045514584 0 0 0 0
2348635152 -0.023914994671940804 -0.06929250806570053 0.002791447564959526 0.005939917638897896 0 0 0 0
2352357236 -0.011646950617432594 -0.044637542217969894 0.0026517175137996674 0.00511203333735466 0 0 0 0
2356079320 0.005485024303197861 -0.022659962996840477 0.0028401175513863564 0.004681136459112167 0 0 0 0
2359801404 0.025923877954483032 -0.00375579297542572 0.0031915344297885895 0.004441985860466957 0 0 0 0
2363523488 0.05016465485095978 0.011101804673671722 0.003281182609498501 0.003699749708175659 0 0 0 0
2367245572 0.07673517614603043 0.02141919732093811 0.0029908427968621254 0.0033041415736079216 0 0 0 0
2370967656 0.10545021295547485 0.02560391277074814 0.0030293725430965424 0.002749131992459297 0 0 0 0
2374689740 0.1335000991821289 0.025806836783885956 0.003105231560766697 0.0026064738631248474 0 0 0 0
2378411824 0.16146795451641083 0.021086879074573517 0.0029892651364207268 0.002314693294465542 0 0 0 0
2382133908 0.18847545981407166 0.012520156800746918 0.002734566107392311 0.002057182602584362 0 0 0 0
2385855992 0.21192657947540283 -0.0015699639916419983 0.0026326635852456093 0.002073986455798149 0 0 0 0
2389578076 0.23503658175468445 -0.017923399806022644 0.002497163601219654 0.0019538970664143562 0 0 0 0
2393300160 0.2536238431930542 -0.039580076932907104 0.002181392163038254 0.002270377241075039 0 0 0 0
2397022244 0.2683429718017578 -0.06256023049354553 0.00248629879206419 0.0030414387583732605 0 0 0 0
2400744328 0.27842554450035095 -0.08999352902173996 0.0035827113315463066 0.003612321801483631 0 0 0 0
2404466412 0.28622469305992126 -0.1181599572300911 0.004964633844792843 0.0034315846860408783 0 0 0 0
2408188496 0.28869906067848206 -0.14617294073104858 0.006092584691941738 0.002629004418849945 0 0 0 0
2411910580 0.28703293204307556 -0.17556777596473694 0.006922072730958462 0.0014303987845778465 0 0 0 0
2415632664 0.28030693531036377 -0.20231768488883972 0.0074938200414180756 9.397882968187332e-05 0 0 0 0
2419354748 0.26940032839775085 -0.22714875638484955 0.007770734839141369 -0.0013485858216881752 0 0 0 0
2423076832 0.2549588680267334 -0.2495635598897934 0.00791885331273079 -0.0031997691839933395 0 0 0 0
2426798916 0.23813718557357788 -0.27044355869293213 0.00717910286039114 -0.004950308240950108 0 0 0 0
2430521000 0.21486961841583252 -0.28992074728012085 0.005919086746871471 -0.006277007050812244 0 0 0 0
2434243084 0.19399283826351166 -0.3048064112663269 0.004523373208940029 -0.006974221207201481 0 0 0 0
2437965168 0.1702795773744583 -0.31621935963630676 0.0035270173102617264 -0.007157532498240471 0 0 0 0
2441687252 0.1438017040491104 -0.32480812072753906 0.002656298689544201 -0.007523245178163052 0 0 0 0
2445409336 0.11505113542079926 -0.32952597737312317 0.0019070552662014961 -0.008172912523150444 0 0 0 0
2449131420 0.08497599512338638 -0.32885316014289856 0.00115123949944973 -0.008523400872945786 0 0 0 0
2452853504 0.0583469420671463 -0.32336485385894775 0.00015383586287498474 -0.009377765469253063 0 0 0 0
2456575588 0.027928197756409645 -0.31403082609176636 -0.001039915718138218 -0.009939797222614288 0 0 0 0
2460297672 0.0030686482787132263 -0.30027154088020325 -0.0025971736758947372 -0.010761708952486515 0 0 0 0
2464019756 -0.021936625242233276 -0.2819829285144806 -0.004960478283464909 -0.010896829888224602 0 0 0 0
2467741840 -0.04040118306875229 -0.26203832030296326 -0.00719783641397953 -0.010223310440778732 0 0 0 0
2471463924 -0.06045520305633545 -0.2385093867778778 -0.009181364439427853 -0.009109146893024445 0 0 0 0
2475186008 -0.07330138236284256 -0.21362586319446564 -0.010779286734759808 -0.007909787818789482 0 0 0 0
2478908092 -0.08366255462169647 -0.18501611053943634 -0.012629272416234016 -0.006195087917149067 0 0 0 0
2482630176 -0.08748522400856018 -0.1563216745853424 -0.01386532187461853 -0.004252529703080654 0 0 0 0
2486352260 -0.08929835259914398 -0.12668123841285706 -0.014849036000669003 -0.0021643592044711113 0 0 0 0
2490074344 -0.08628857880830765 -0.09695684909820557 -0.015533595345914364 0.00044548138976097107 0 0 0 0
2493796428 -0.07787716388702393 -0.06743178516626358 -0.015834545716643333 0.0033436892554163933 0 0 0 0
2497518512 -0.06589102745056152 -0.03908223658800125 -0.015302714891731739 0.006480967625975609 0 0 0 0
2501240596 -0.04815171658992767 -0.013301370665431023 -0.014079498127102852 0.008941804990172386 0 0 0 0
2504962680 -0.026569074019789696 0.009074541740119457 -0.012831608764827251 0.01119572389870882 0 0 0 0
2508684764 -0.0021565379574894905 0.027925560250878334 -0.011196398176252842 0.013683704659342766 0 0 0 0
2512406848 0.02537451684474945 0.04160016030073166 -0.008437535725533962 0.016243336722254753 0 0 0 0
2516128932 0.05524975806474686 0.050890035927295685 -0.00508534349501133 0.01807236112654209 0 0 0 0
2519851016 0.0852150022983551 0.0564999096095562 -0.001151607371866703 0.01869180239737034 0 0 0 0
2523573100 0.11612372100353241 0.053960081189870834 0.002613471820950508 0.018078763037919998 0 0 0 0
2527295184 0.14493224024772644 0.048087529838085175 0.0057569341734051704 0.017050517722964287 0 0 0 0
2531017268 0.17192679643630981 0.03602299839258194 0.0088272700086236 0.015522279776632786 0 0 0 0
2534739352 0.1939670741558075 0.02199944108724594 0.011577661149203777 0.013325097039341927 0 0 0 0
2538461436 0.2145577073097229 0.004277914762496948 0.013669367879629135 0.01047520525753498 0 0 0 0
2542183520 0.23050974309444427 -0.013268675655126572 0.015162386931478977 0.00751069188117981 0 0 0 0
2545905604 0.24340908229351044 -0.035919755697250366 0.01601855829358101 0.003912551328539848 0 0 0 0
2549627688 0.2539726197719574 -0.057358626276254654 0.016376854851841927 0.000499100424349308 0 0 0 0
2553349772 0.259380578994751 -0.08103680610656738 0.015654420480132103 -0.0029850658029317856 0 0 0 0
2557071856 0.26535701751708984 -0.10241693258285522 0.01409069076180458 -0.006161295808851719 0 0 0 0
2560793940 0.26378440856933594 -0.12362708151340485 0.011622767895460129 -0.008382821455597878 0 0 0 0
2564516024 0.26031434535980225 -0.14877629280090332 0.00909089669585228 -0.009778429754078388 0 0 0 0
2568238108 0.25407058000564575 -0.16827183961868286 0.0067838579416275024 -0.010659614577889442 0 0 0 0
2571960192 0.24573718011379242 -0.1860281229019165 0.004660637117922306 -0.011048706248402596 0 0 0 0
2575682276 0.23384490609169006 -0.20291924476623535 0.00237108301371336 -0.01099013164639473 0 0 0 0
2579404360 0.21966159343719482 -0.21858179569244385 0.0006420193240046501 -0.010356999933719635 0 0 0 0
2583126444 0.20755276083946228 -0.2309950739145279 -0.0005547087639570236 -0.010008844546973705 0 0 0 0
2586848528 0.18859657645225525 -0.2430400848388672 -0.0018533719703555107 -0.009683365002274513 0 0 0 0
2590570612 0.1716846227645874 -0.24976283311843872 -0.003386668860912323 -0.009129662998020649 0 0 0 0
2594292696 0.15600797533988953 -0.2546199560165405 -0.004516794346272945 -0.008270948193967342 0 0 0 0
2598014780 0.1365654468536377 -0.25842100381851196 -0.005652069114148617 -0.0072065191343426704 0 0 0 0
2601736864 0.11856743693351746 -0.25782036781311035 -0.006688054651021957 -0.006004189141094685 0 0 0 0
2605458948 0.10148739814758301 -0.2557225823402405 -0.007340320385992527 -0.004565339535474777 0 0 0 0
2609181032 0.08214423060417175 -0.2507944703102112 -0.007670738734304905 -0.0028659729287028313 0 0 0 0
2612903116 0.06774614006280899 -0.24258877336978912 -0.007196607068181038 -0.0013716556131839752 0 0 0 0
2616625200 0.0546099990606308 -0.23127683997154236 -0.006719604134559631 -0.0003299415111541748 0 0 0 0
2620347284 0.042540185153484344 -0.21961195766925812 -0.0059956833720207214 0.0003736671060323715 0 0 0 0
2624069368 0.03182629123330116 -0.2061907798051834 -0.005192236974835396 0.0010585524141788483 0 0 0 0
2627791452 0.02686525136232376 -0.19062352180480957 -0.004207106307148933 0.0009874887764453888 0 0 0 0
2631513536 0.02252846211194992 -0.17530077695846558 -0.003943243995308876 0.0009179897606372833 0 0 0 0
2635235620 0.02239476889371872 -0.16107626259326935 -0.003895300440490246 0.000895623117685318 0 0 0 0
2638957704 0.023736588656902313 -0.14517498016357422 -0.0036828191950917244 0.001364186406135559 0 0 0 0
2642679788 0.028353251516819 -0.1322832554578781 -0.00339571014046669 0.0014798026531934738 0 0 0 0
2646401872 0.03444136306643486 -0.12085284292697906 -0.003015574999153614 0.0016464786604046822 0 0 0 0
2650123956 0.04244573041796684 -0.1106451228260994 -0.0027355505153536797 0.0014643967151641846 0 0 0 0
2653846040 0.05126139149069786 -0.10259000957012177 -0.00259518064558506 0.0013132700696587563 0 0 0 0
2657568124 0.06428468972444534 -0.09635641425848007 -0.002646499313414097 0.001047380268573761 0 0 0 0
2661290208 0.07659274339675903 -0.094361811876297 -0.0029371650889515877 0.00129786878824234 0 0 0 0
2665012292 0.08914099633693695 -0.09397156536579132 -0.003148745745420456 0.0016334811225533485 0 0 0 0
2668734376 0.09717677533626556 -0.09910273551940918 -0.003289797343313694 0.002258995547890663 0 0 0 0
2672456460 0.10736139118671417 -0.10305998474359512 -0.0032202349975705147 0.0030557988211512566 0 0 0 0
2676178544 0.11420067399740219 -0.11053973436355591 -0.002740553580224514 0.0037826141342520714 0 0 0 0
2679900628 0.1202433779835701 -0.1177305355668068 -0.002095757983624935 0.00438231136649847 0 0 0 0
2683622712 0.12413124740123749 -0.125557541847229 -0.0012750029563903809 0.004752980545163155 0 0 0 0
2687344796 0.12430232763290405 -0.13389989733695984 -0.00017432216554880142 0.004922826774418354 0 0 0 0
2691066880 0.12382197380065918 -0.14371377229690552 0.0006356909871101379 0.0045945243909955025 0 0 0 0
2694788964 0.1210593730211258 -0.1510118991136551 0.0012733321636915207 0.004538402892649174 0 0 0 0
2698511048 0.1170811653137207 -0.1590249240398407 0.002200390212237835 0.004454301670193672 0 0 0 0
2702233132 0.1130652129650116 -0.16600072383880615 0.0032420791685581207 0.003984556533396244 0 0 0 0
2705955216 0.1099524199962616 -0.17008818686008453 0.004281287081539631 0.003144429065287113 0 0 0 0
2709677300 0.10001946985721588 -0.1784113496541977 0.0050871893763542175 0.0018441984429955482 0 0 0 0
2713399384 0.08976607769727707 -0.18281635642051697 0.005093719810247421 0.00019764993339776993 0 0 0 0
2717121468 0.0805342048406601 -0.18362881243228912 0.004633797332644463 -0.0008825603872537613 0 0 0 0
2720843552 0.06957465410232544 -0.1858731508255005 0.003989312797784805 -0.0016675982624292374 0 0 0 0
2724565636 0.05604052543640137 -0.184199720621109 0.00320514477789402 -0.00224961806088686 0 0 0 0
2728287720 0.045376043766736984 -0.179862841963768 0.002509651705622673 -0.0025602299720048904 0 0 0 0
2732009804 0.03384287282824516 -0.17298968136310577 0.0020213061943650246 -0.002445632591843605 0 0 0 0
2735731888 0.024879664182662964 -0.16337470710277557 0.0016469648107886314 -0.002525842748582363 0 0 0 0
2739453972 0.015388749539852142 -0.15323445200920105 0.0013687210157513618 -0.002675805240869522 0 0 0 0
2743176056 0.006766786798834801 -0.14014339447021484 0.0011289715766906738 -0.00277884304523468 0 0 0 0
2746898140 0.001842740923166275 -0.1251368224620819 0.0009408416226506233 -0.0027919821441173553 0 0 0 0
2750620224 -0.0001672208309173584 -0.10906510055065155 0.0007659066468477249 -0.0028690192848443985 0 0 0 0
2754342308 0.0011663660407066345 -0.09255770593881607 0.0007578646764159203 -0.003314731642603874 0 0 0 0
2758064392 0.0037431344389915466 -0.07701049745082855 0.00013396237045526505 -0.0038534915074706078 0 0 0 0
2761786476 0.010049419477581978 -0.06105397641658783 -0.0006698668003082275 -0.004063484258949757 0 0 0 0
2765508560 0.019045483320951462 -0.04569714516401291 -0.0014935135841369629 -0.0038440758362412453 0 0 0 0
2769230644 0.030829649418592453 -0.032153185456991196 -0.00228190328925848 -0.0032633068040013313 0 0 0 0
2772952728 0.045566294342279434 -0.019752491265535355 -0.0025757821276783943 -0.0026435833424329758 0 0 0 0
2776674812 0.06162145361304283 -0.011366533115506172 -0.002588014118373394 -0.0021052444353699684 0 0 0 0
2780396896 0.07942672818899155 -0.003894466906785965 -0.0027755945920944214 -0.0017565703019499779 0 0 0 0
2784118980 0.09766115993261337 -0.000674758106470108 -0.003029060550034046 -0.0012594284489750862 0 0 0 0
2787841064 0.11684136837720871 0.0015001166611909866 -0.0030121076852083206 -0.0006668698042631149 0 0 0 0
2791563148 0.13749726116657257 -0.000441073440015316 -0.0028116311877965927 -1.4338642358779907e-05 0 0 0 0
2795285232 0.15828318893909454 -0.0031497254967689514 -0.00239529088139534 0.0004208674654364586 0 0 0 0
2799007316 0.17921806871891022 -0.010825071483850479 -0.00187603197991848 0.0005448628216981888 0 0 0 0
2802729400 0.1973820924758911 -0.024640806019306183 -0.001417325809597969 0.0003937669098377228 0 0 0 0
2806451484 0.21547196805477142 -0.04049608111381531 -0.001487896777689457 0.00017584115266799927 0 0 0 0
2810173568 0.2288256734609604 -0.05763212591409683 -0.001773538999259472 0.00025313161313533783 0 0 0 0
2813895652 0.24116605520248413 -0.07728049159049988 -0.0017930474132299423 0.0007897866889834404 0 0 0 0
2817617736 0.24879086017608643 -0.09962829947471619 -0.0015043765306472778 0.001191721297800541 0 0 0 0
2821339820 0.25256356596946716 -0.12308067828416824 -0.0009315814822912216 0.0013077948242425919 0 0 0 0
2825061904 0.2528485655784607 -0.1482459306716919 -0.0005128961056470871 0.0013779643923044205 0 0 0 0
2828783988 0.250797301530838 -0.16956102848052979 -0.00026245228946208954 0.0012432411313056946 0 0 0 0
2832506072 0.24686487019062042 -0.19083626568317413 -4.31230291724205e-05 0.0011454857885837555 0 0 0 0
2836228156 0.23835128545761108 -0.2129921019077301 0.0002979375422000885 0.0011941809207201004 0 0 0 0
2839950240 0.22489233314990997 -0.23696525394916534 0.0006165839731693268 0.0009406376630067825 0 0 0 0
2843672324 0.2117052972316742 -0.2520205080509186 0.0008295606821775436 0.0005743307992815971 0 0 0 0
2847394408 0.19522346556186676 -0.2691439688205719 0.0008318591862916946 0.0002651158720254898 0 0 0 0
2851116492 0.17373567819595337 -0.28547191619873047 0.0007570190355181694 7.158517837524414e-05 0 0 0 0
2854838576 0.1578700691461563 -0.29634344577789307 0.0009107301011681557 -0.00015115085989236832 0 0 0 0
2858560660 0.14021816849708557 -0.3073607087135315 0.0009220382198691368 -0.0007524890825152397 0 0 0 0
2862282744 0.11129571497440338 -0.3150117099285126 0.0008201338350772858 -0.0008224602788686752 0 0 0 0
2866004828 0.09100741147994995 -0.31764620542526245 0.000673157162964344 -0.0007847649976611137 0 0 0 0
2869726912 0.06646961718797684 -0.31984806060791016 0.0006384039297699928 -0.0008808998391032219 0 0 0 0
2873448996 0.03903628885746002 -0.3170415163040161 0.0005258787423372269 -0.0009473292157053947 0 0 0 0
2877171080 0.012286156415939331 -0.3110870122909546 0.00043241772800683975 -0.001038137823343277 0 0 0 0
2880893164 -0.01159738004207611 -0.3034098148345947 0.00044798292219638824 -0.0011136019602417946 0 0 0 0
2884615248 -0.031684331595897675 -0.29075244069099426 0.00020701438188552856 -0.0013057300820946693 0 0 0 0
2888337332 -0.05345705896615982 -0.27520954608917236 0.00010607577860355377 -0.0013956651091575623 0 0 0 0
2892059416 -0.07208605855703354 -0.2579724192619324 -2.7213245630264282e-05 -0.0012953290715813637 0 0 0 0
2895781500 -0.08885340392589569 -0.23827271163463593 -0.00041165947914123535 -0.0011451924219727516 0 0 0 0
2899503584 -0.10359183698892593 -0.2137954831123352 -0.0005751932039856911 -0.0009346315637230873 0 0 0 0
2903225668 -0.11662527173757553 -0.18807241320610046 -0.000647728331387043 -0.0005695000290870667 0 0 0 0
2906947752 -0.12210545688867569 -0.16291508078575134 -0.0004982249811291695 -0.00023645814508199692 0 0 0 0
2910669836 -0.12504681944847107 -0.13578690588474274 -0.00025242380797863007 -0.00014526676386594772 0 0 0 0
2914391920 -0.12545084953308105 -0.10741326212882996 -7.809977978467941e-05 1.765415072441101e-05 0 0 0 0
2918114004 -0.12008259445428848 -0.08315487951040268 0.00012268684804439545 -0.00016707740724086761 0 0 0 0
2921836088 -0.11418957263231277 -0.058155883103609085 0.00015035271644592285 -0.00017401296645402908 0 0 0 0
2925558172 -0.10462271422147751 -0.03427121043205261 0.0003007417544722557 -0.00025334209203720093 0 0 0 0
2929280256 -0.09242118895053864 -0.011380232870578766 0.00022711418569087982 -0.00039574503898620605 0 0 0 0
2933002340 -0.07674381881952286 0.011128176003694534 0.0001613907516002655 -0.00044557638466358185 0 0 0 0
2936724424 -0.057789094746112823 0.030705494806170464 -0.00020979810506105423 -0.00022742990404367447 0 0 0 0
2940446508 -0.03726945072412491 0.047373123466968536 -0.0001401631161570549 -8.665770292282104e-05 0 0 0 0
2944168592 -0.014929002150893211 0.062037527561187744 -0.00017654802650213242 0.0003141053020954132 0 0 0 0
2947890676 0.011444274336099625 0.07367908954620361 -4.118122160434723e-05 0.0005862424150109291 0 0 0 0
2951612760 0.03790529444813728 0.0813412144780159 0.0002532927319407463 0.0009852675721049309 0 0 0 0
2955334844 0.06613078713417053 0.08483650535345078 0.0008860593661665916 0.0010235337540507317 0 0 0 0
2959056928 0.09386865049600601 0.08417919278144836 0.0011781957000494003 0.0010815579444169998 0 0 0 0
2962779012 0.12178417295217514 0.0796409547328949 0.0017224084585905075 0.0008717291057109833 0 0 0 0
2966501096 0.14685994386672974 0.07383545488119125 0.0022574858739972115 0.0007248921319842339 0 0 0 0
2970223180 0.17158450186252594 0.06099715456366539 0.002671649679541588 0.00015470851212739944 0 0 0 0
2973945264 0.19383350014686584 0.0460955947637558 0.002634652890264988 -0.0006515746936202049 0 0 0 0
2977667348 0.21453197300434113 0.0274508073925972 0.0024619530886411667 -0.0011379094794392586 0 0 0 0
2981389432 0.2322508692741394 0.009131252765655518 0.0022584758698940277 -0.0015699872747063637 0 0 0 0
2985111516 0.24682369828224182 -0.012782014906406403 0.002036820165812969 -0.0020288005471229553 0 0 0 0
2988833600 0.25790154933929443 -0.03704005479812622 0.0017120148986577988 -0.002211896702647209 0 0 0 0
2992555684 0.2643532454967499 -0.06241978704929352 0.0011625047773122787 -0.002281155437231064 0 0 0 0
2996277768 0.26905927062034607 -0.08389194309711456 0.0005930475890636444 -0.00220523402094841 0 0 0 0
2999999852 0.2690305709838867 -0.11117881536483765 0.00025161262601614 -0.0021763164550065994 0 0 0 0
