# HZ S RI R 50
1500000000 -0.14976832270622253 0.009994730353355408 0.07188652455806732 -0.03226400166749954 0 0 0 0
1503722084 -0.12229444086551666 0.04197010025382042 0.06379563361406326 -0.043834321200847626 0 0 0 0
1507444168 -0.09027121961116791 0.06923199445009232 0.05311606451869011 -0.054419711232185364 0 0 0 0
1511166252 -0.05247260630130768 0.0933275818824768 0.040073707699775696 -0.06198302283883095 0 0 0 0
1514888336 -0.008802328258752823 0.11081963777542114 0.02570284903049469 -0.06543713808059692 0 0 0 0
1518610420 0.03860419616103172 0.12011056393384933 0.012524126097559929 -0.06553179025650024 0 0 0 0
1522332504 0.08824489265680313 0.12022008746862411 0.0007652509957551956 -0.06333361566066742 0 0 0 0
1526054588 0.13695600628852844 0.11185859143733978 -0.010178454220294952 -0.05924346297979355 0 0 0 0
1529776672 0.18356049060821533 0.09503199905157089 -0.01910117082297802 -0.05343574285507202 0 0 0 0
1533498756 0.22875100374221802 0.07333096861839294 -0.02582167461514473 -0.04702802002429962 0 0 0 0
1537220840 0.2712562680244446 0.04020657390356064 -0.031211666762828827 -0.04005703330039978 0 0 0 0
1540942924 0.30770444869995117 0.0005335435271263123 -0.03492644801735878 -0.03290242329239845 0 0 0 0
1544665008 0.33654654026031494 -0.042041778564453125 -0.03717020899057388 -0.025709468871355057 0 0 0 0
1548387092 0.3593187928199768 -0.09334339946508408 -0.03842315822839737 -0.019028358161449432 0 0 0 0
1552109176 0.3735557198524475 -0.1446933150291443 -0.038633134216070175 -0.013004550710320473 0 0 0 0
1555831260 0.3812229037284851 -0.19683457911014557 -0.03797907382249832 -0.006890257820487022 0 0 0 0
1559553344 0.3801082372665405 -0.25268837809562683 -0.0364920012652874 -0.0012281723320484161 0 0 0 0
1563275428 0.36795589327812195 -0.31046897172927856 -0.034309860318899155 0.0036327727138996124 0 0 0 0
1566997512 0.3517654240131378 -0.3644663095474243 -0.03189624100923538 0.007349096238613129 0 0 0 0
1570719596 0.3246074914932251 -0.41678446531295776 -0.02901287190616131 0.010682323947548866 0 0 0 0
1574441680 0.28812897205352783 -0.4646608829498291 -0.02636396512389183 0.013030185364186764 0 0 0 0
1578163764 0.24201825261116028 -0.5071995258331299 -0.023861702531576157 0.015229973942041397 0 0 0 0
1581885848 0.1921834647655487 -0.5401179194450378 -0.021389171481132507 0.017441201955080032 0 0 0 0
1585607932 0.1435905247926712 -0.5644511580467224 -0.019025200977921486 0.01918657496571541 0 0 0 0
1589330016 0.0842166543006897 -0.5850380659103394 -0.016074443235993385 0.02086743339896202 0 0 0 0
1593052100 0.02596854232251644 -0.5960295796394348 -0.013424438424408436 0.021994471549987793 0 0 0 0
1596774184 -0.03481459617614746 -0.5984088778495789 -0.011143969371914864 0.022982988506555557 0 0 0 0
1600496268 -0.09692862629890442 -0.5912627577781677 -0.008670615032315254 0.024496247991919518 0 0 0 0
1604218352 -0.1570492833852768 -0.574340283870697 -0.005624228157103062 0.025900620967149734 0 0 0 0
1607940436 -0.21332526206970215 -0.5498950481414795 -0.0018938863649964333 0.02695174515247345 0 0 0 0
1611662520 -0.26850077509880066 -0.5166382789611816 0.002386743202805519 0.027374954894185066 0 0 0 0
1615384604 -0.3160969018936157 -0.4770165681838989 0.006592447869479656 0.026753149926662445 0 0 0 0
1619106688 -0.36010271310806274 -0.42987412214279175 0.010682041756808758 0.02568959631025791 0 0 0 0
1622828772 -0.3978937864303589 -0.3746025562286377 0.01495486032217741 0.024058615788817406 0 0 0 0
1626550856 -0.42528894543647766 -0.31756582856178284 0.019279787316918373 0.021453961730003357 0 0 0 0
1630272940 -0.4456387758255005 -0.2532862424850464 0.02291652001440525 0.017430247738957405 0 0 0 0
1633995024 -0.4591936767101288 -0.18463541567325592 0.025725610554218292 0.012770469300448895 0 0 0 0
1637717108 -0.46048545837402344 -0.11773022264242172 0.027352888137102127 0.007403802126646042 0 0 0 0
1641439192 -0.45306652784347534 -0.05119141936302185 0.027387777343392372 0.0017263004556298256 0 0 0 0
1645161276 -0.4352974593639374 0.020815923810005188 0.02601974830031395 -0.0032502179965376854 0 0 0 0
1648883360 -0.4094361662864685 0.08463878929615021 0.02424885705113411 -0.007104749791324139 0 0 0 0
1652605444 -0.37178850173950195 0.14781774580478668 0.022317783907055855 -0.010778620839118958 0 0 0 0
1656327528 -0.32462945580482483 0.20612195134162903 0.01971704140305519 -0.014170242473483086 0 0 0 0
1660049612 -0.2674005627632141 0.25655072927474976 0.016260333359241486 -0.017054889351129532 0 0 0 0
1663771696 -0.2044585943222046 0.2983202338218689 0.012413126416504383 -0.01894255168735981 0 0 0 0
1667493780 -0.13593602180480957 0.33163735270500183 0.008899541571736336 -0.01996970735490322 0 0 0 0
1671215864 -0.06057266891002655 0.3546745777130127 0.005197468213737011 -0.02103438600897789 0 0 0 0
1674937948 0.021238408982753754 0.36734339594841003 0.0007090093567967415 -0.021130871027708054 0 0 0 0
1678660032 0.10301295667886734 0.3662569522857666 -0.0036389920860528946 -0.019961390644311905 0 0 0 0
1682382116 0.1857539415359497 0.34965017437934875 -0.00741943996399641 -0.017692772671580315 0 0 0 0
1686104200 0.26593077182769775 0.3205028474330902 -0.010527772828936577 -0.014307191595435143 0 0 0 0
1689826284 0.3391963541507721 0.278884619474411 -0.011873757466673851 -0.010477304458618164 0 0 0 0
1693548368 0.4047934114933014 0.22443383932113647 -0.012003863230347633 -0.006610637530684471 0 0 0 0
1697270452 0.46105360984802246 0.15943261981010437 -0.010881008580327034 -0.0035155313089489937 0 0 0 0
1700992536 0.5049635171890259 0.08869411051273346 -0.008932801894843578 -0.0018949834629893303 0 0 0 0
1704714620 0.5359891653060913 0.010906994342803955 -0.007611219771206379 -0.0015537766739726067 0 0 0 0
1708436704 0.553923487663269 -0.06656934320926666 -0.007191352546215057 -0.0011362433433532715 0 0 0 0
1712158788 0.55991530418396 -0.14549802243709564 -0.006699581630527973 -0.00045568402856588364 0 0 0 0
1715880872 0.5529943704605103 -0.22513368725776672 -0.005910723470151424 0.0002577342092990875 0 0 0 0
1719602956 0.534762978553772 -0.3010505437850952 -0.004995266906917095 0.00032305624336004257 0 0 0 0
1723325040 0.5041705369949341 -0.37754884362220764 -0.0044351741671562195 0.00018701516091823578 0 0 0 0
1727047124 0.467223197221756 -0.4393291175365448 -0.0042996592819690704 -6.642192602157593e-06 0 0 0 0
1730769208 0.41292107105255127 -0.5013707876205444 -0.004108106717467308 -6.694439798593521e-05 0 0 0 0
1734491292 0.3549160957336426 -0.5532696843147278 -0.004201161675155163 -0.00020295847207307816 0 0 0 0
1738213376 0.29441142082214355 -0.5884503126144409 -0.004271282814443111 -0.00035762879997491837 0 0 0 0
1741935460 0.2293340265750885 -0.6178522109985352 -0.004667932167649269 -0.0002777324989438057 0 0 0 0
1745657544 0.15603592991828918 -0.6355009078979492 -0.004783543758094311 -0.0001748315989971161 0 0 0 0
1749379628 0.08483350276947021 -0.6423623561859131 -0.005087003111839294 -9.740516543388367e-05 0 0 0 0
1753101712 0.010696470737457275 -0.6369183659553528 -0.0055053215473890305 6.885267794132233e-05 0 0 0 0
1756823796 -0.05428324639797211 -0.6223178505897522 -0.006241455674171448 0.00030898861587047577 0 0 0 0
1760545880 -0.11763092875480652 -0.5956737995147705 -0.006940090097486973 0.0011295117437839508 0 0 0 0
1764267964 -0.1752355396747589 -0.560189425945282 -0.007498010061681271 0.002101820893585682 0 0 0 0
1767990048 -0.22329337894916534 -0.520049512386322 -0.00786280632019043 0.0034976638853549957 0 0 0 0
1771712132 -0.2637902498245239 -0.47345101833343506 -0.007591451518237591 0.004893969744443893 0 0 0 0
1775434216 -0.2999175488948822 -0.42279115319252014 -0.007318954914808273 0.005667984485626221 0 0 0 0
1779156300 -0.3244970440864563 -0.3692763149738312 -0.007249421440064907 0.006580841727554798 0 0 0 0
1782878384 -0.3445938527584076 -0.3135700821876526 -0.007672279141843319 0.007787836715579033 0 0 0 0
1786600468 -0.35688239336013794 -0.2555387318134308 -0.008143343962728977 0.009511489421129227 0 0 0 0
1790322552 -0.3604327440261841 -0.19563636183738708 -0.0077250078320503235 0.012407494708895683 0 0 0 0
1794044636 -0.35483384132385254 -0.13944478332996368 -0.006456497125327587 0.015435498207807541 0 0 0 0
1797766720 -0.34002554416656494 -0.08303049206733704 -0.004532439634203911 0.01846512034535408 0 0 0 0
1801488804 -0.3192651867866516 -0.0275130495429039 -0.001021568663418293 0.02161998488008976 0 0 0 0
1805210888 -0.2908695340156555 0.02119443565607071 0.004050142131745815 0.023917052894830704 0 0 0 0
1808932972 -0.25407296419143677 0.06870876997709274 0.010420288890600204 0.024475056678056717 0 0 0 0
1812655056 -0.20850232243537903 0.10882002115249634 0.01683630980551243 0.022570772096514702 0 0 0 0
1816377140 -0.1573735475540161 0.13986101746559143 0.02232261747121811 0.01965503953397274 0 0 0 0
1820099224 -0.10273058712482452 0.15960261225700378 0.0273742713034153 0.015357616357505322 0 0 0 0
1823821308 -0.04588283598423004 0.16993826627731323 0.03168369457125664 0.008912109769880772 0 0 0 0
1827543392 0.009680457413196564 0.17018042504787445 0.03377559036016464 0.0017719659954309464 0 0 0 0
1831265476 0.061606187373399734 0.1613379567861557 0.034100085496902466 -0.005902785807847977 0 0 0 0
1834987560 0.10998313874006271 0.14609035849571228 0.032060105353593826 -0.013635866343975067 0 0 0 0
1838709644 0.15419559180736542 0.1253194957971573 0.02824009396135807 -0.019731350243091583 0 0 0 0
1842431728 0.19453632831573486 0.09576787054538727 0.02315639704465866 -0.02461365982890129 0 0 0 0
1846153812 0.2279624342918396 0.06287180632352829 0.017857983708381653 -0.027866380289196968 0 0 0 0
1849875896 0.2554732859134674 0.027141578495502472 0.012560704723000526 -0.030397586524486542 0 0 0 0
1853597980 0.276050329208374 -0.012105989269912243 0.007199408486485481 -0.031411655247211456 0 0 0 0
1857320064 0.28960126638412476 -0.05248420685529709 0.0024291984736919403 -0.03163650259375572 0 0 0 0
1861042148 0.2962760031223297 -0.09501247853040695 -0.0018780305981636047 -0.03199789673089981 0 0 0 0
1864764232 0.29649463295936584 -0.13562045991420746 -0.007260976359248161 -0.03262965753674507 0 0 0 0
1868486316 0.2883196771144867 -0.17656205594539642 -0.013303399085998535 -0.032002076506614685 0 0 0 0
1872208400 0.27608197927474976 -0.2113197296857834 -0.019478565081954002 -0.02965257130563259 0 0 0 0
1875930484 0.26256585121154785 -0.2410319447517395 -0.024812573567032814 -0.026007477194070816 0 0 0 0
1879652568 0.24078771471977234 -0.2729688882827759 -0.029282521456480026 -0.02116904780268669 0 0 0 0
1883374652 0.2152900993824005 -0.2995151877403259 -0.033022139221429825 -0.015692446380853653 0 0 0 0
1887096736 0.18493688106536865 -0.32064294815063477 -0.035696133971214294 -0.009987455792725086 0 0 0 0
1890818820 0.15222574770450592 -0.33556169271469116 -0.03733741492033005 -0.0029052672907710075 0 0 0 0
1894540904 0.11712842434644699 -0.34332799911499023 -0.0375475212931633 0.0036750808358192444 0 0 0 0
1898262988 0.08461099117994308 -0.34352996945381165 -0.03654330223798752 0.010300190187990665 0 0 0 0
1901985072 0.0507580041885376 -0.3400385081768036 -0.03402172401547432 0.01681482419371605 0 0 0 0
1905707156 0.021511897444725037 -0.33210355043411255 -0.030807975679636 0.022247087210416794 0 0 0 0
1909429240 -0.0032718507573008537 -0.3168608248233795 -0.027187742292881012 0.02683432772755623 0 0 0 0
1913151324 -0.028566449880599976 -0.29965925216674805 -0.022914184257388115 0.032074153423309326 0 0 0 0
1916873408 -0.04773062467575073 -0.2795790135860443 -0.017319900915026665 0.036439429968595505 0 0 0 0
1920595492 -0.0659690797328949 -0.25452885031700134 -0.010044548660516739 0.039818234741687775 0 0 0 0
1924317576 -0.07649693638086319 -0.22770820558071136 -0.001661493442952633 0.04162537306547165 0 0 0 0
1928039660 -0.08267003297805786 -0.20062033832073212 0.0065416693687438965 0.04131104424595833 0 0 0 0
1931761744 -0.08497274667024612 -0.17432841658592224 0.015030045993626118 0.0389697402715683 0 0 0 0
1935483828 -0.08296798169612885 -0.14691127836704254 0.02205922268331051 0.03470827639102936 0 0 0 0
1939205912 -0.07724754512310028 -0.1199144721031189 0.028100257739424706 0.02896420657634735 0 0 0 0
1942927996 -0.06595827639102936 -0.09497593343257904 0.031603503972291946 0.022573312744498253 0 0 0 0
1946650080 -0.05119916424155235 -0.07135479897260666 0.034098152071237564 0.016588719561696053 0 0 0 0
1950372164 -0.030094768851995468 -0.051256246864795685 0.03588336706161499 0.011156379245221615 0 0 0 0
1954094248 -0.006310023367404938 -0.03486854210495949 0.03776603192090988 0.0049735382199287415 0 0 0 0
1957816332 0.020100994035601616 -0.023537173867225647 0.038781099021434784 -0.0019517941400408745 0 0 0 0
1961538416 0.049080219119787216 -0.017637131735682487 0.03773447498679161 -0.009723617695271969 0 0 0 0
1965260500 0.07765786349773407 -0.016760962083935738 0.0349021814763546 -0.016758162528276443 0 0 0 0
1968982584 0.10615807771682739 -0.023831412196159363 0.030643561854958534 -0.022841807454824448 0 0 0 0
1972704668 0.13228484988212585 -0.03428807109594345 0.025568991899490356 -0.027886226773262024 0 0 0 0
1976426752 0.15569265186786652 -0.04887479171156883 0.01991710439324379 -0.031786102801561356 0 0 0 0
1980148836 0.17615042626857758 -0.06881863623857498 0.013673820532858372 -0.03492620587348938 0 0 0 0
1983870920 0.19186493754386902 -0.09139789640903473 0.006473998539149761 -0.03676900640130043 0 0 0 0
1987593004 0.20308277010917664 -0.11641896516084671 -0.00020640529692173004 -0.036895185708999634 0 0 0 0
1991315088 0.20729689300060272 -0.1448463499546051 -0.00759256724268198 -0.03581000864505768 0 0 0 0
1995037172 0.20879295468330383 -0.16975706815719604 -0.014048288576304913 -0.033251166343688965 0 0 0 0
1998759256 0.20485836267471313 -0.1961146593093872 -0.019859345629811287 -0.0293943602591753 0 0 0 0
2002481340 0.19720274209976196 -0.22131066024303436 -0.024182483553886414 -0.024755112826824188 0 0 0 0
2006203424 0.18503497540950775 -0.24383006989955902 -0.02748100459575653 -0.019943293184041977 0 0 0 0
2009925508 0.1668131947517395 -0.26367756724357605 -0.03030029684305191 -0.015278810635209084 0 0 0 0
2013647592 0.15015588700771332 -0.2786122262477875 -0.03188948705792427 -0.009915553033351898 0 0 0 0
2017369676 0.12692517042160034 -0.2926137447357178 -0.03334427624940872 -0.0043611181899905205 0 0 0 0
2021091760 0.10225385427474976 -0.3021347224712372 -0.03409923240542412 0.0016528069972991943 0 0 0 0
2024813844 0.07928889244794846 -0.30836379528045654 -0.03369936719536781 0.007980839349329472 0 0 0 0
2028535928 0.052757665514945984 -0.3105032742023468 -0.031214451417326927 0.014248509891331196 0 0 0 0
2032258012 0.02893003821372986 -0.30789679288864136 -0.02790859155356884 0.019616559147834778 0 0 0 0
2035980096 -0.0031116753816604614 -0.3016393482685089 -0.02305728569626808 0.023947305977344513 0 0 0 0
2039702180 -0.02614041417837143 -0.28915804624557495 -0.018446531146764755 0.02668725699186325 0 0 0 0
2043424264 -0.050350360572338104 -0.27196693420410156 -0.013979069888591766 0.02870425023138523 0 0 0 0
2047146348 -0.06970556080341339 -0.25238358974456787 -0.009218104183673859 0.03052562102675438 0 0 0 0
2050868432 -0.08762241154909134 -0.22873035073280334 -0.00429177563637495 0.03148077428340912 0 0 0 0
2054590516 -0.09874676167964935 -0.20167510211467743 0.0006826762109994888 0.0319824144244194 0 0 0 0
2058312600 -0.1084517240524292 -0.1731221228837967 0.006203836761415005 0.031627219170331955 0 0 0 0
2062034684 -0.11379243433475494 -0.14194610714912415 0.011841916479170322 0.02960234507918358 0 0 0 0
2065756768 -0.11305786669254303 -0.11142168194055557 0.016580073162913322 0.027074454352259636 0 0 0 0
2069478852 -0.10806787014007568 -0.07986284792423248 0.02081138640642166 0.023531638085842133 0 0 0 0
2073200936 -0.0980532094836235 -0.04884031414985657 0.024275697767734528 0.019591569900512695 0 0 0 0
2076923020 -0.08174087107181549 -0.017931776121258736 0.026685282588005066 0.014883778989315033 0 0 0 0
2080645104 -0.06065262481570244 0.009064974263310432 0.02809923328459263 0.010223377496004105 0 0 0 0
2084367188 -0.03405197709798813 0.03328835964202881 0.02847060188651085 0.005648694932460785 0 0 0 0
2088089272 -0.002838006243109703 0.05201512947678566 0.02894129604101181 0.0019554561004042625 0 0 0 0
2091811356 0.03051203303039074 0.06527981162071228 0.029417650774121284 -0.0018961215391755104 0 0 0 0
2095533440 0.06624159961938858 0.07190343737602234 0.02946166880428791 -0.006848970428109169 0 0 0 0
2099255524 0.10257250815629959 0.07270359247922897 0.028518401086330414 -0.012323022820055485 0 0 0 0
2102977608 0.1371259242296219 0.06877286732196808 0.026463449001312256 -0.017823193222284317 0 0 0 0
2106699692 0.17201772332191467 0.05777047574520111 0.02293872833251953 -0.02274496853351593 0 0 0 0
2110421776 0.20531542599201202 0.04136381298303604 0.018136627972126007 -0.02692265436053276 0 0 0 0
2114143860 0.23483256995677948 0.019846908748149872 0.012736024335026741 -0.029758229851722717 0 0 0 0
2117865944 0.25894808769226074 -0.005504310131072998 0.007038608193397522 -0.03164016827940941 0 0 0 0
2121588028 0.2778445780277252 -0.035828277468681335 0.0010327072814106941 -0.032489292323589325 0 0 0 0
2125310112 0.2925892472267151 -0.0659540593624115 -0.005837220698595047 -0.03220592066645622 0 0 0 0
2129032196 0.301069051027298 -0.10083838552236557 -0.012362614274024963 -0.02996717020869255 0 0 0 0
2132754280 0.30427807569503784 -0.13376660645008087 -0.017868317663669586 -0.025867681950330734 0 0 0 0
2136476364 0.30282071232795715 -0.1663021743297577 -0.02189791575074196 -0.020931091159582138 0 0 0 0
2140198448 0.2952558994293213 -0.20152981579303741 -0.024388963356614113 -0.01566169783473015 0 0 0 0
2143920532 0.2851877212524414 -0.22946609556674957 -0.025410695001482964 -0.010969378054141998 0 0 0 0
2147642616 0.26576727628707886 -0.25885266065597534 -0.025689560920000076 -0.006359837017953396 0 0 0 0
2151364700 0.24610686302185059 -0.28204864263534546 -0.025251800194382668 -0.0024613207206130028 0 0 0 0
2155086784 0.2209189385175705 -0.3029134273529053 -0.02485290914773941 0.0011840201914310455 0 0 0 0
2158808868 0.19642682373523712 -0.3184637427330017 -0.024146083742380142 0.004651830531656742 0 0 0 0
2162530952 0.16510812938213348 -0.3312918245792389 -0.022589515894651413 0.008379565551877022 0 0 0 0
2166253036 0.13780438899993896 -0.335286021232605 -0.02100091241300106 0.010698150843381882 0 0 0 0
2169975120 0.10668026655912399 -0.3368191123008728 -0.019542120397090912 0.01349785178899765 0 0 0 0
2173697204 0.08058671653270721 -0.33350270986557007 -0.01798238791525364 0.016532639041543007 0 0 0 0
2177419288 0.049551814794540405 -0.32812392711639404 -0.015244690701365471 0.019873954355716705 0 0 0 0
2181141372 0.024610750377178192 -0.3164955973625183 -0.011563999578356743 0.02224378101527691 0 0 0 0
2184863456 -0.0004189535975456238 -0.3031478524208069 -0.007781612686812878 0.024068042635917664 0 0 0 0
2188585540 -0.02157842367887497 -0.285802960395813 -0.0037718582898378372 0.025339020416140556 0 0 0 0
2192307624 -0.04160534590482712 -0.26387840509414673 0.0007998477667570114 0.026129670441150665 0 0 0 0
2196029708 -0.05677373707294464 -0.24062369763851166 0.00585075281560421 0.02592785283923149 0 0 0 0
2199751792 -0.06927014142274857 -0.21528330445289612 0.01105295866727829 0.024576129391789436 0 0 0 0
2203473876 -0.07780815660953522 -0.18574559688568115 0.015648771077394485 0.02139376290142536 0 0 0 0
2207195960 -0.079503133893013 -0.15710504353046417 0.019237875938415527 0.01778819039463997 0 0 0 0
2210918044 -0.07769899070262909 -0.12688441574573517 0.021755291149020195 0.01304841972887516 0 0 0 0
2214640128 -0.07201754301786423 -0.0956130176782608 0.023254629224538803 0.008429213427007198 0 0 0 0
2218362212 -0.056935444474220276 -0.07031208276748657 0.023841895163059235 0.0036986665800213814 0 0 0 0
2222084296 -0.03924454376101494 -0.04648879915475845 0.023357098922133446 -0.0004213005304336548 0 0 0 0
2225806380 -0.018724732100963593 -0.02641783468425274 0.02210179716348648 -0.005058959126472473 0 0 0 0
2229528464 0.004344947636127472 -0.010560783557593822 0.020154638215899467 -0.00873607862740755 0 0 0 0
2233250548 0.029570773243904114 0.0013914396986365318 0.017676446586847305 -0.011759549379348755 0 0 0 0
2236972632 0.0559675358235836 0.008883682079613209 0.014726731926202774 -0.014546272344887257 0 0 0 0
2240694716 0.08308521658182144 0.010856546461582184 0.011447817087173462 -0.01652798056602478 0 0 0 0
2244416800 0.10969208180904388 0.01055544801056385 0.008302463218569756 -0.017715582624077797 0 0 0 0
2248138884 0.13517498970031738 0.003839789889752865 0.004779747687280178 -0.018440738320350647 0 0 0 0
2251860968 0.15956182777881622 -0.00873606652021408 0.0007468247786164284 -0.018708674237132072 0 0 0 0
2255583052 0.18181174993515015 -0.02085750177502632 -0.0025335922837257385 -0.018034588545560837 0 0 0 0
2259305136 0.20015233755111694 -0.04045078158378601 -0.005745870992541313 -0.01656939461827278 0 0 0 0
2263027220 0.21447812020778656 -0.06090502440929413 -0.008045931346714497 -0.014610778540372849 0 0 0 0
2266749304 0.22672368586063385 -0.07976929098367691 -0.00979609601199627 -0.012646716088056564 0 0 0 0
2270471388 0.23126181960105896 -0.10932551324367523 -0.01122031919658184 -0.01088213361799717 0 0 0 0
2274193472 0.2377263605594635 -0.1287212371826172 -0.012596189975738525 -0.008860962465405464 0 0 0 0
2277915556 0.2372717261314392 -0.15355360507965088 -0.013463707640767097 -0.006733848713338375 0 0 0 0
2281637640 0.22502774000167847 -0.18397404253482819 -0.014041468501091003 -0.00440595205873251 0 0 0 0
2285359724 0.21576686203479767 -0.20226408541202545 -0.01432783342897892 -0.0021873032674193382 0 0 0 0
2289081808 0.19849435985088348 -0.2233372926712036 -0.014322193339467049 0.0002539949491620064 0 0 0 0
2292803892 0.18256136775016785 -0.2369171679019928 -0.013768363744020462 0.002400076948106289 0 0 0 0
2296525976 0.16199178993701935 -0.24689331650733948 -0.012905254028737545 0.004124072380363941 0 0 0 0
2300248060 0.1446942687034607 -0.2535606622695923 -0.011996191926300526 0.005538070574402809 0 0 0 0
2303970144 0.12455427646636963 -0.2626664936542511 -0.010659162886440754 0.007348528131842613 0 0 0 0
2307692228 0.1021135225892067 -0.2621384263038635 -0.009450357407331467 0.00886855274438858 0 0 0 0
2311414312 0.0759584903717041 -0.2618146538734436 -0.007162297144532204 0.010162696242332458 0 0 0 0
2315136396 0.05401366204023361 -0.25545641779899597 -0.004540443420410156 0.010069015435874462 0 0 0 0
2318858480 0.03370354697108269 -0.2461734414100647 -0.0024891383945941925 0.00932027492672205 0 0 0 0
2322580564 0.009223908185958862 -0.23151367902755737 -0.001449250616133213 0.00852162018418312 0 0 0 0
2326302648 -0.005791477859020233 -0.21293498575687408 -0.0008679572492837906 0.007799417711794376 0 0 0 0
2330024732 -0.014706626534461975 -0.1926031857728958 -0.000699867494404316 0.007338708266615868 0 0 0 0
2333746816 -0.02838674932718277 -0.16908246278762817 -0.00032041221857070923 0.007025156170129776 0 0 0 0
2337468900 -0.03251073136925697 -0.14429587125778198 0.00017175264656543732 0.0070500802248716354 0 0 0 0
2341190984 -0.03387925773859024 -0.1183638870716095 0.0010429006069898605 0.006799953058362007 0 0 0 0
2344913068 -0.033220693469047546 -0.09047125279903412 0.0014693085104227066 0.006197735667228699 0 0 0 0
2348635152 -0.02286248467862606 -0.06546654552221298 0.001806158572435379 0.005609874613583088 0 0 0 0
2352357236 -0.00868997536599636 -0.042328812181949615 0.001898040995001793 0.005246291868388653 0 0 0 0
2356079320 0.008506988175213337 -0.02126290462911129 0.0019393544644117355 0.0050563933327794075 0 0 0 0
2359801404 0.029693469405174255 -0.003704371862113476 0.0023496467620134354 0.0049940431490540504 0 0 0 0
2363523488 0.053187377750873566 0.009523836895823479 0.0028562089428305626 0.004650442861020565 0 0 0 0
2367245572 0.07934151589870453 0.019778849557042122 0.002939055673778057 0.003994767554104328 0 0 0 0
2370967656 0.10737617313861847 0.023803826421499252 0.002916094847023487 0.0035345619544386864 0 0 0 0
2374689740 0.13541612029075623 0.024047812446951866 0.003054811619222164 0.003407759591937065 0 0 0 0
2378411824 0.1628943234682083 0.017470739781856537 0.003118394874036312 0.0027915174141526222 0 0 0 0
2382133908 0.18888281285762787 0.008828413672745228 0.0030070682987570763 0.002517852932214737 0 0 0 0
2385855992 0.21304193139076233 -0.004333779215812683 0.0027832146733999252 0.002387099899351597 0 0 0 0
2389578076 0.23443587124347687 -0.02274235337972641 0.0028429152444005013 0.00267034862190485 0 0 0 0
2393300160 0.25289103388786316 -0.040646992623806 0.002949558198451996 0.002788952551782131 0 0 0 0
2397022244 0.26560282707214355 -0.06673461943864822 0.0034275129437446594 0.0032227439805865288 0 0 0 0
2400744328 0.27594810724258423 -0.09183945506811142 0.004128170199692249 0.0032160207629203796 0 0 0 0
2404466412 0.2829327881336212 -0.11837045848369598 0.005486530251801014 0.002794685773551464 0 0 0 0
2408188496 0.28830137848854065 -0.1423005610704422 0.006502960808575153 0.001977951265871525 0 0 0 0
2411910580 0.28519487380981445 -0.17071303725242615 0.007052276283502579 0.0006522480398416519 0 0 0 0
2415632664 0.27903109788894653 -0.19799602031707764 0.007215811870992184 -0.0007362524047493935 0 0 0 0
2419354748 0.2677031457424164 -0.22429251670837402 0.007139626890420914 -0.0020387182012200356 0 0 0 0
2423076832 0.2529793977737427 -0.24807891249656677 0.007004137150943279 -0.003393937833607197 0 0 0 0
2426798916 0.2381451427936554 -0.2686614990234375 0.0066010188311338425 -0.004652718082070351 0 0 0 0
2430521000 0.21665114164352417 -0.2879234552383423 0.005475732497870922 -0.006042253226041794 0 0 0 0
2434243084 0.19462598860263824 -0.3021850883960724 0.004487181082367897 -0.0067054759711027145 0 0 0 0
2437965168 0.17161324620246887 -0.3143019676208496 0.003418835811316967 -0.007250968366861343 0 0 0 0
2441687252 0.1443617343902588 -0.3234724998474121 0.002610323019325733 -0.007663276977837086 0 0 0 0
2445409336 0.11474135518074036 -0.3289062976837158 0.0017692754045128822 -0.008022207766771317 0 0 0 0
2449131420 0.08541795611381531 -0.32852768898010254 0.0009567569941282272 -0.008429702371358871 0 0 0 0
2452853504 0.056267134845256805 -0.32431936264038086 -7.918104529380798e-05 -0.008941711857914925 0 0 0 0
2456575588 0.030083931982517242 -0.31495076417922974 -0.0011255638673901558 -0.009679781273007393 0 0 0 0
2460297672 0.0048552751541137695 -0.30241113901138306 -0.002657635137438774 -0.010396813973784447 0 0 0 0
2464019756 -0.01967281475663185 -0.28445684909820557 -0.004836684092879295 -0.010533454827964306 0 0 0 0
2467741840 -0.03966022655367851 -0.26433026790618896 -0.00682784803211689 -0.010068323463201523 0 0 0 0
2471463924 -0.05872735008597374 -0.24033218622207642 -0.008811889216303825 -0.00902672577649355 0 0 0 0
2475186008 -0.0725095197558403 -0.21487075090408325 -0.010548844933509827 -0.00793497171252966 0 0 0 0
2478908092 -0.08215360343456268 -0.18736256659030914 -0.012310638092458248 -0.006501886062324047 0 0 0 0
2482630176 -0.08961766213178635 -0.1569284349679947 -0.013885434716939926 -0.00440956000238657 0 0 0 0
2486352260 -0.09054678678512573 -0.1272469311952591 -0.01489216648042202 -0.0022569429129362106 0 0 0 0
2490074344 -0.08729318529367447 -0.0975678339600563 -0.015879569575190544 -1.3960525393486023e-05 0 0 0 0
2493796428 -0.07973720878362656 -0.06746143847703934 -0.016346460208296776 0.002988254651427269 0 0 0 0
2497518512 -0.06743242591619492 -0.03991483896970749 -0.015953809022903442 0.006000733934342861 0 0 0 0
2501240596 -0.04999899864196777 -0.014009112492203712 -0.014895066618919373 0.008730389177799225 0 0 0 0
2504962680 -0.028349999338388443 0.009437276050448418 -0.013489673845469952 0.011291168630123138 0 0 0 0
2508684764 -0.0029048239812254906 0.028606822714209557 -0.011759106069803238 0.013585668057203293 0 0 0 0
2512406848 0.024493461474776268 0.04321770370006561 -0.009506938979029655 0.016217492520809174 0 0 0 0
2516128932 0.05508411303162575 0.05219859257340431 -0.006067412905395031 0.018309077247977257 0 0 0 0
2519851016 0.08580439537763596 0.05684754252433777 -0.0021238960325717926 0.019383426755666733 0 0 0 0
2523573100 0.11714500933885574 0.05385516211390495 0.0020529115572571754 0.019068758934736252 0 0 0 0
2527295184 0.14546357095241547 0.04817740619182587 0.00547663401812315 0.017881516367197037 0 0 0 0
2531017268 0.1716199666261673 0.03653348237276077 0.008547790348529816 0.016091953963041306 0 0 0 0
2534739352 0.19429941475391388 0.0210961252450943 0.011387787759304047 0.014047015458345413 0 0 0 0
2538461436 0.2141076773405075 0.004071686416864395 0.013741811737418175 0.011661188676953316 0 0 0 0
2542183520 0.230341374874115 -0.015130734071135521 0.015720268711447716 0.008516920730471611 0 0 0 0
2545905604 0.24350139498710632 -0.03643880784511566 0.0168073158711195 0.00501168891787529 0 0 0 0
2549627688 0.25253552198410034 -0.06043267250061035 0.017222976312041283 0.001095293089747429 0 0 0 0
2553349772 0.2594059109687805 -0.08127842098474503 0.01653437502682209 -0.003037458285689354 0 0 0 0
2557071856 0.2632335126399994 -0.10231225192546844 0.014847392216324806 -0.006442737765610218 0 0 0 0
2560793940 0.2628135681152344 -0.12401195615530014 0.012107867747545242 -0.009049030020833015 0 0 0 0
2564516024 0.257646769285202 -0.1487044095993042 0.009195700287818909 -0.010582417249679565 0 0 0 0
2568238108 0.25409528613090515 -0.16490131616592407 0.006520116701722145 -0.011001753620803356 0 0 0 0
2571960192 0.24338121712207794 -0.18664194643497467 0.004236712120473385 -0.01111960131675005 0 0 0 0
2575682276 0.23419970273971558 -0.20174849033355713 0.002260178327560425 -0.010754712857306004 0 0 0 0
2579404360 0.22100049257278442 -0.21756505966186523 0.0007145609706640244 -0.010286031290888786 0 0 0 0
2583126444 0.20370759069919586 -0.23158763349056244 -0.0006745113059878349 -0.009815744124352932 0 0 0 0
2586848528 0.19009944796562195 -0.23999851942062378 -0.001837841235101223 -0.009601330384612083 0 0 0 0
2590570612 0.1725723147392273 -0.24939224123954773 -0.003104986622929573 -0.009195178747177124 0 0 0 0
2594292696 0.15258489549160004 -0.2552620768547058 -0.00447491742670536 -0.008394144475460052 0 0 0 0
2598014780 0.136990025639534 -0.2575969994068146 -0.005592864006757736 -0.007636630907654762 0 0 0 0
2601736864 0.11983677744865417 -0.25596335530281067 -0.0067284852266311646 -0.006206636317074299 0 0 0 0
2605458948 0.1008220836520195 -0.2544170320034027 -0.007564428262412548 -0.004641478881239891 0 0 0 0
2609181032 0.08447853475809097 -0.24971863627433777 -0.00777510367333889 -0.002910013310611248 0 0 0 0
2612903116 0.0679766908288002 -0.24263033270835876 -0.007484425790607929 -0.0014058127999305725 0 0 0 0
2616625200 0.05485321953892708 -0.2319280207157135 -0.006821365095674992 -0.00026657991111278534 0 0 0 0
2620347284 0.04328632354736328 -0.2200125753879547 -0.006125446408987045 0.0004608854651451111 0 0 0 0
2624069368 0.03301135450601578 -0.2069091796875 -0.00530219916254282 0.0011124806478619576 0 0 0 0
2627791452 0.027654148638248444 -0.19212064146995544 -0.004785660654306412 0.0014793435111641884 0 0 0 0
2631513536 0.022462770342826843 -0.176566481590271 -0.004444374702870846 0.0012804288417100906 0 0 0 0
2635235620 0.021109454333782196 -0.16122856736183167 -0.00427006371319294 0.001550101675093174 0 0 0 0
2638957704 0.022589966654777527 -0.14577844738960266 -0.0038145529106259346 0.0018184492364525795 0 0 0 0
2642679788 0.026457931846380234 -0.13280224800109863 -0.0031563863158226013 0.0020351428538560867 0 0 0 0
2646401872 0.034406039863824844 -0.12064210325479507 -0.0027604633942246437 0.0019330158829689026 0 0 0 0
2650123956 0.040884967893362045 -0.11117880046367645 -0.0022033052518963814 0.0015161847695708275 0 0 0 0
2653846040 0.05212334543466568 -0.10226409137248993 -0.002198179252445698 0.0011435244232416153 0 0 0 0
2657568124 0.06411438435316086 -0.09670063853263855 -0.0024167606607079506 0.0009585199877619743 0 0 0 0
2661290208 0.07531590014696121 -0.09470301121473312 -0.00276816263794899 0.0012008938938379288 0 0 0 0
2665012292 0.08840037137269974 -0.09412901848554611 -0.003074237145483494 0.001496942713856697 0 0 0 0
2668734376 0.09717568010091782 -0.09830151498317719 -0.0030945641919970512 0.002086043357849121 0 0 0 0
2672456460 0.10625836998224258 -0.10281743109226227 -0.0029889224097132683 0.002799157053232193 0 0 0 0
2676178544 0.11469296365976334 -0.10950198024511337 -0.0027913255617022514 0.0034384680911898613 0 0 0 0
2679900628 0.1193189024925232 -0.1177707388997078 -0.002131388522684574 0.004058267921209335 0 0 0 0
2683622712 0.12242060154676437 -0.12682795524597168 -0.0013427864760160446 0.0046286312863230705 0 0 0 0
2687344796 0.1244693249464035 -0.13398319482803345 -0.0005439743399620056 0.004690572619438171 0 0 0 0
2691066880 0.12417973577976227 -0.14175204932689667 0.0003291461616754532 0.004600804299116135 0 0 0 0
2694788964 0.12254305928945541 -0.15021535754203796 0.0012167906388640404 0.004608885385096073 0 0 0 0
2698511048 0.11937516182661057 -0.1576625108718872 0.0020979978144168854 0.004442109726369381 0 0 0 0
2702233132 0.11421561986207962 -0.16493934392929077 0.0032988637685775757 0.003863687627017498 0 0 0 0
2705955216 0.10817684233188629 -0.17094074189662933 0.004048292525112629 0.0029128752648830414 0 0 0 0
2709677300 0.10137876868247986 -0.17674431204795837 0.004545444622635841 0.0017277020961046219 0 0 0 0
2713399384 0.08989465236663818 -0.18267430365085602 0.004467339254915714 0.0003712289035320282 0 0 0 0
2717121468 0.08096905052661896 -0.18390920758247375 0.004164324142038822 -0.00038264598697423935 0 0 0 0
2720843552 0.06925937533378601 -0.18543845415115356 0.003717869520187378 -0.0011079749092459679 0 0 0 0
2724565636 0.057663045823574066 -0.18334388732910156 0.0033040419220924377 -0.0016794204711914062 0 0 0 0
2728287720 0.045057788491249084 -0.17984268069267273 0.0026869261637330055 -0.0020105568692088127 0 0 0 0
2732009804 0.03252270072698593 -0.17196576297283173 0.0023591844365000725 -0.0021608741953969 0 0 0 0
2735731888 0.023628268390893936 -0.16234280169010162 0.0021823374554514885 -0.0022788532078266144 0 0 0 0
2739453972 0.017546940594911575 -0.15228623151779175 0.0019294759258627892 -0.0027846861630678177 0 0 0 0
2743176056 0.00937066599726677 -0.13965129852294922 0.001462540589272976 -0.0029733385890722275 0 0 0 0
2746898140 0.003980761393904686 -0.12540188431739807 0.0008939635008573532 -0.002970748580992222 0 0 0 0
2750620224 0.0018107462674379349 -0.11036862432956696 0.0008161701261997223 -0.0030862614512443542 0 0 0 0
2754342308 0.0017168130725622177 -0.09556317329406738 0.0006538229063153267 -0.0031919656321406364 0 0 0 0
2758064392 0.003496970981359482 -0.07960610091686249 0.00036434922367334366 -0.003893350251019001 0 0 0 0
2761786476 0.010016374289989471 -0.06316132843494415 -0.0004269806668162346 -0.004227481782436371 0 0 0 0
2765508560 0.017412852495908737 -0.047645192593336105 -0.0014866376295685768 -0.00416136160492897 0 0 0 0
2769230644 0.029033683240413666 -0.032773613929748535 -0.002288105897605419 -0.003609125502407551 0 0 0 0
2772952728 0.043471865355968475 -0.020565127953886986 -0.0027563320472836494 -0.0028278371319174767 0 0 0 0
2776674812 0.05922677367925644 -0.011807287111878395 -0.0029940325766801834 -0.002117152325809002 0 0 0 0
2780396896 0.07746317237615585 -0.0037734033539891243 -0.003184662200510502 -0.001862209290266037 0 0 0 0
2784118980 0.09537145495414734 0.0010772906243801117 -0.003445584326982498 -0.0011204956099390984 0 0 0 0
2787841064 0.11577272415161133 0.0035462025552988052 -0.003270775079727173 -0.0002313842996954918 0 0 0 0
2791563148 0.13672831654548645 0.002209046855568886 -0.0027812086045742035 0.0004809238016605377 0 0 0 0
2795285232 0.15797708928585052 -0.0016170917078852654 -0.0021749185398221016 0.0008102497085928917 0 0 0 0
2799007316 0.17953643202781677 -0.01175381988286972 -0.001408340409398079 0.0008154641836881638 0 0 0 0
2802729400 0.19918900728225708 -0.023149866610765457 -0.0011727223172783852 0.000398918054997921 0 0 0 0
2806451484 0.21626006066799164 -0.03861498087644577 -0.0012282440438866615 -2.2756867110729218e-05 0 0 0 0
2810173568 0.23145756125450134 -0.05653639882802963 -0.0016538528725504875 0.0001712106168270111 0 0 0 0
2813895652 0.24295814335346222 -0.07563009113073349 -0.0017550336197018623 0.000525561161339283 0 0 0 0
2817617736 0.2492990493774414 -0.10003632307052612 -0.001417449675500393 0.0009919339790940285 0 0 0 0
2821339820 0.25483477115631104 -0.12428925186395645 -0.0008792765438556671 0.0014160806313157082 0 0 0 0
2825061904 0.25530704855918884 -0.14728312194347382 -0.000390038825571537 0.001292126253247261 0 0 0 0
2828783988 0.2515321373939514 -0.17256273329257965 -0.00015518628060817719 0.00107634998857975 0 0 0 0
2832506072 0.24917437136173248 -0.19310753047466278 9.194295853376389e-05 0.0009689014405012131 0 0 0 0
2836228156 0.23849673569202423 -0.21633289754390717 0.0003674859181046486 0.0008443892002105713 0 0 0 0
2839950240 0.22726288437843323 -0.23704487085342407 0.0006152018904685974 0.0006089480593800545 0 0 0 0
2843672324 0.20996379852294922 -0.25549963116645813 0.0007753903046250343 0.00026962440460920334 0 0 0 0
2847394408 0.19744908809661865 -0.2718063294887543 0.0006176512688398361 -0.00010635517537593842 0 0 0 0
2851116492 0.17451682686805725 -0.2885728180408478 0.0004768362268805504 -0.00031334441155195236 0 0 0 0
2854838576 0.15777587890625 -0.29790830612182617 0.0002649584785103798 -0.00032901205122470856 0 0 0 0
2858560660 0.13566449284553528 -0.3089064955711365 0.00030092988163232803 -0.0006117513403296471 0 0 0 0
2862282744 0.10938094556331635 -0.3164677619934082 0.0002347063273191452 -0.0005505001172423363 0 0 0 0
2866004828 0.086733877658844 -0.32020509243011475 0.00028843339532613754 -0.000296236015856266 0 0 0 0
2869726912 0.06150422245264053 -0.321024626493454 0.0005906159058213234 -0.00037438422441482544 0 0 0 0
2873448996 0.03635145723819733 -0.3179114758968353 0.0007376996800303459 -0.0006049573421478271 0 0 0 0
2877171080 0.013312436640262604 -0.31118449568748474 0.0008072163909673691 -0.0009708292782306671 0 0 0 0
2880893164 -0.011157490313053131 -0.30212312936782837 0.00048808101564645767 -0.0013178931549191475 0 0 0 0
2884615248 -0.03282656520605087 -0.2894531190395355 0.00021724216639995575 -0.0013725506141781807 0 0 0 0
2888337332 -0.05105563625693321 -0.2758618891239166 -1.5751458704471588e-05 -0.0012288382276892662 0 0 0 0
2892059416 -0.07424300909042358 -0.25674185156822205 -0.00033111032098531723 -0.0010785963386297226 0 0 0 0
2895781500 -0.09143896400928497 -0.23510028421878815 -0.0004996880888938904 -0.0007743164896965027 0 0 0 0
2899503584 -0.10509170591831207 -0.2117701768875122 -0.0005533741787075996 -0.00036576390266418457 0 0 0 0
2903225668 -0.11573782563209534 -0.18682077527046204 -0.0003164634108543396 -5.646795034408569e-05 0 0 0 0
2906947752 -0.12110229581594467 -0.16175131499767303 3.798678517341614e-05 7.152650505304337e-05 0 0 0 0
2910669836 -0.12445121258497238 -0.13529203832149506 0.0003511738032102585 -8.753873407840729e-05 0 0 0 0
2914391920 -0.12344945967197418 -0.10813008248806 0.0005015423521399498 -0.0001698862761259079 0 0 0 0
2918114004 -0.11881054192781448 -0.08317293226718903 0.0005764923989772797 -0.0002580862492322922 0 0 0 0
2921836088 -0.11274635046720505 -0.05903758853673935 0.0005848277360200882 -0.0004963651299476624 0 0 0 0
2925558172 -0.10414551943540573 -0.034020017832517624 0.0005972497165203094 -0.0006485385820269585 0 0 0 0
2929280256 -0.09188082814216614 -0.010375849902629852 0.0005323458462953568 -0.0008103856816887856 0 0 0 0
2933002340 -0.07601577788591385 0.010695655830204487 0.00027124304324388504 -0.0009261593222618103 0 0 0 0
2936724424 -0.05706823989748955 0.031063057482242584 -7.005408406257629e-06 -0.0008110366761684418 0 0 0 0
2940446508 -0.036694709211587906 0.047580841928720474 -0.00026204437017440796 -0.0005821771919727325 0 0 0 0
2944168592 -0.012981940060853958 0.06166844815015793 -0.0004205619916319847 -0.00040062330663204193 0 0 0 0
2947890676 0.011388460174202919 0.07301312685012817 -0.0003635622560977936 9.426567703485489e-05 0 0 0 0
2951612760 0.0374133326113224 0.08112037181854248 -6.119068711996078e-05 0.0004068249836564064 0 0 0 0
2955334844 0.06553393602371216 0.0843873843550682 0.00014374405145645142 0.0006875460967421532 0 0 0 0
2959056928 0.0929906815290451 0.08423037827014923 0.0006477814167737961 0.0008093342185020447 0 0 0 0
2962779012 0.12033268809318542 0.079445481300354 0.001051812432706356 0.0010940907523036003 0 0 0 0
2966501096 0.14778998494148254 0.07136725634336472 0.0017098840326070786 0.0008316896855831146 0 0 0 0
2970223180 0.1709824800491333 0.0614255927503109 0.0022539515048265457 0.0003082919865846634 0 0 0 0
2973945264 0.19359713792800903 0.046400249004364014 0.002471601590514183 -0.00025611091405153275 0 0 0 0
2977667348 0.21431387960910797 0.02921418845653534 0.0024768756702542305 -0.0010223304852843285 0 0 0 0
2981389432 0.23234786093235016 0.010307233780622482 0.002255183644592762 -0.0013829311355948448 0 0 0 0
2985111516 0.2474851757287979 -0.014082066714763641 0.001966264098882675 -0.0019244011491537094 0 0 0 0
2988833600 0.25659534335136414 -0.03888268396258354 0.0012774718925356865 -0.0019436664879322052 0 0 0 0
2992555684 0.26491838693618774 -0.06086381524801254 0.0006746621802449226 -0.0020168665796518326 0 0 0 0
2996277768 0.2688627541065216 -0.08462376147508621 0.00050331000238657 -0.0019273823127150536 0 0 0 0
2999999852 0.27059128880500793 -0.10926175117492676 0.0004883324727416039 -0.001687483862042427 0 0 0 0
