# HZ S RI R 50
1500000000 -0.12077362090349197 -0.06218121200799942 0.0529402457177639 -0.02946559526026249 0 0 0 0
1503722084 -0.11011697351932526 -0.0328463613986969 0.04509696736931801 -0.03615206480026245 0 0 0 0
1507444168 -0.09332696348428726 -0.0050954148173332214 0.037152230739593506 -0.04114548861980438 0 0 0 0
1511166252 -0.07091283798217773 0.02068423666059971 0.02947116084396839 -0.04446423798799515 0 0 0 0
1514888336 -0.043427105993032455 0.04314465820789337 0.02193083055317402 -0.04708098620176315 0 0 0 0
1518610420 -0.011088894680142403 0.06227683275938034 0.013966198079288006 -0.048799190670251846 0 0 0 0
1522332504 0.02681768871843815 0.07718358188867569 0.0055505502969026566 -0.04931297153234482 0 0 0 0
1526054588 0.07025378942489624 0.08499063551425934 -0.0025999322533607483 -0.04769579693675041 0 0 0 0
1529776672 0.11604369431734085 0.08458887040615082 -0.009211699478328228 -0.04468226060271263 0 0 0 0
1533498756 0.16309013962745667 0.07207977771759033 -0.014846974983811378 -0.04084233567118645 0 0 0 0
1537220840 0.20768757164478302 0.054894860833883286 -0.0195291880518198 -0.03778352960944176 0 0 0 0
1540942924 0.24998700618743896 0.02868807315826416 -0.02450639382004738 -0.03408665582537651 0 0 0 0
1544665008 0.2884083688259125 -0.007231354713439941 -0.02936738356947899 -0.02897040918469429 0 0 0 0
1548387092 0.32081905007362366 -0.050049059092998505 -0.03285445272922516 -0.022467661648988724 0 0 0 0
1552109176 0.3455367982387543 -0.09683482348918915 -0.03396572545170784 -0.015906644985079765 0 0 0 0
1555831260 0.3618009090423584 -0.14881078898906708 -0.033649660646915436 -0.010143068619072437 0 0 0 0
1559553344 0.36917948722839355 -0.20455186069011688 -0.03266298025846481 -0.005252284929156303 0 0 0 0
1563275428 0.3670128583908081 -0.26102688908576965 -0.03145129233598709 -0.0009941384196281433 0 0 0 0
1566997512 0.35642293095588684 -0.31802159547805786 -0.02957972139120102 0.0029589971527457237 0 0 0 0
1570719596 0.33824872970581055 -0.3703075349330902 -0.027425242587924004 0.005795217119157314 0 0 0 0
1574441680 0.3096424639225006 -0.42117220163345337 -0.02567579410970211 0.008414697833359241 0 0 0 0
1578163764 0.2786540687084198 -0.4652657210826874 -0.023945380002260208 0.010391690768301487 0 0 0 0
1581885848 0.23406954109668732 -0.5097370147705078 -0.022490229457616806 0.012496656738221645 0 0 0 0
1585607932 0.184043750166893 -0.5462551712989807 -0.02073707804083824 0.014972854405641556 0 0 0 0
1589330016 0.13016235828399658 -0.5744621753692627 -0.01875471882522106 0.01723315939307213 0 0 0 0
1593052100 0.06972578167915344 -0.5954357981681824 -0.016346067190170288 0.019420508295297623 0 0 0 0
1596774184 0.005473732948303223 -0.6042025089263916 -0.013498249463737011 0.020938679575920105 0 0 0 0
1600496268 -0.05632326006889343 -0.6039530038833618 -0.010778768919408321 0.022194698452949524 0 0 0 0
1604218352 -0.11817163228988647 -0.5947051048278809 -0.008107947185635567 0.02330014668405056 0 0 0 0
1607940436 -0.1793901026248932 -0.5766319632530212 -0.005254976451396942 0.024164045229554176 0 0 0 0
1611662520 -0.23941923677921295 -0.5509191751480103 -0.0021740440279245377 0.024991096928715706 0 0 0 0
1615384604 -0.2972984313964844 -0.5146410465240479 0.0009388392791152 0.025407124310731888 0 0 0 0
1619106688 -0.35155194997787476 -0.46937084197998047 0.004991739988327026 0.025614619255065918 0 0 0 0
1622828772 -0.3945807218551636 -0.41678616404533386 0.008948035538196564 0.02476201020181179 0 0 0 0
1626550856 -0.4329530596733093 -0.354241281747818 0.012664016336202621 0.023236189037561417 0 0 0 0
1630272940 -0.4573743939399719 -0.2930578887462616 0.016022970899939537 0.02150321751832962 0 0 0 0
1633995024 -0.4803561568260193 -0.2197137027978897 0.019879896193742752 0.019271310418844223 0 0 0 0
1637717108 -0.48927274346351624 -0.1468561589717865 0.023445792496204376 0.015886617824435234 0 0 0 0
1641439192 -0.4877292513847351 -0.06960153579711914 0.026169221848249435 0.011024968698620796 0 0 0 0
1645161276 -0.47259193658828735 0.008746355772018433 0.027597252279520035 0.005933887325227261 0 0 0 0
1648883360 -0.4448716640472412 0.08522264659404755 0.027940640226006508 0.0009510572999715805 0 0 0 0
1652605444 -0.404910147190094 0.156913161277771 0.027580995112657547 -0.0038165105506777763 0 0 0 0
1656327528 -0.35421478748321533 0.21997012197971344 0.02599480375647545 -0.00888163223862648 0 0 0 0
1660049612 -0.2918013036251068 0.27702879905700684 0.02339206635951996 -0.01338458526879549 0 0 0 0
1663771696 -0.21856941282749176 0.32399341464042664 0.020165544003248215 -0.016879580914974213 0 0 0 0
1667493780 -0.14173062145709991 0.35729891061782837 0.016303125768899918 -0.019653253257274628 0 0 0 0
1671215864 -0.05695574730634689 0.3791927099227905 0.01190011203289032 -0.021793855354189873 0 0 0 0
1674937948 0.02601383626461029 0.3857610821723938 0.00749367568641901 -0.022490937262773514 0 0 0 0
1678660032 0.11302980780601501 0.37897247076034546 0.0031168079003691673 -0.022188495844602585 0 0 0 0
1682382116 0.19392937421798706 0.36123090982437134 -0.0003980835899710655 -0.021176382899284363 0 0 0 0
1686104200 0.275216668844223 0.3276735842227936 -0.0035537220537662506 -0.019746558740735054 0 0 0 0
1689826284 0.34838807582855225 0.28318315744400024 -0.006086355075240135 -0.01814367063343525 0 0 0 0
1693548368 0.4133589267730713 0.22599533200263977 -0.008509654551744461 -0.01621060073375702 0 0 0 0
1697270452 0.46651366353034973 0.16258515417575836 -0.010337425395846367 -0.014104221016168594 0 0 0 0
1700992536 0.5106950998306274 0.08863888680934906 -0.011903529055416584 -0.011442628689110279 0 0 0 0
1704714620 0.5415667295455933 0.008947879076004028 -0.01272627804428339 -0.008694062009453773 0 0 0 0
1708436704 0.5587689876556396 -0.06961538642644882 -0.01268179900944233 -0.006064520217478275 0 0 0 0
1712158788 0.5650476813316345 -0.15070565044879913 -0.01201945636421442 -0.00396368745714426 0 0 0 0
1715880872 0.5570048689842224 -0.2309907078742981 -0.010965082794427872 -0.0024467622861266136 0 0 0 0
1719602956 0.5375951528549194 -0.3087505102157593 -0.010039255023002625 -0.0016955472528934479 0 0 0 0
1723325040 0.5061357617378235 -0.37986183166503906 -0.009216130711138248 -0.0014241375029087067 0 0 0 0
1727047124 0.4654660224914551 -0.4455242455005646 -0.008918304927647114 -0.0012572230771183968 0 0 0 0
1730769208 0.4150661528110504 -0.5029928684234619 -0.008932169526815414 -0.0011332230642437935 0 0 0 0
1734491292 0.35655754804611206 -0.5512272715568542 -0.009298551827669144 -0.0009857472032308578 0 0 0 0
1738213376 0.2925645112991333 -0.5915318131446838 -0.01001091580837965 -0.0005844905972480774 0 0 0 0
1741935460 0.22420747578144073 -0.617920458316803 -0.010776704177260399 0.0002629179507493973 0 0 0 0
1745657544 0.15406249463558197 -0.634242057800293 -0.011793047189712524 0.001414962112903595 0 0 0 0
1749379628 0.08027949929237366 -0.6403770446777344 -0.0123037900775671 0.0033908188343048096 0 0 0 0
1753101712 0.015421777963638306 -0.6325926780700684 -0.012166330590844154 0.005309377796947956 0 0 0 0
1756823796 -0.05033377557992935 -0.618870198726654 -0.011613104492425919 0.00723162479698658 0 0 0 0
1760545880 -0.11398355662822723 -0.5952121019363403 -0.010863294824957848 0.009192963130772114 0 0 0 0
1764267964 -0.16702347993850708 -0.5633336901664734 -0.009644322097301483 0.010745312087237835 0 0 0 0
1767990048 -0.21950393915176392 -0.5242663025856018 -0.008255919441580772 0.01212881039828062 0 0 0 0
1771712132 -0.26090100407600403 -0.47811174392700195 -0.00703705009073019 0.013469507917761803 0 0 0 0
1775434216 -0.2983781695365906 -0.4266582727432251 -0.005274788476526737 0.014820531941950321 0 0 0 0
1779156300 -0.3249761462211609 -0.3732655942440033 -0.0032584574073553085 0.015818161889910698 0 0 0 0
1782878384 -0.34437283873558044 -0.31824904680252075 -0.0012783622369170189 0.01645081862807274 0 0 0 0
1786600468 -0.35689714550971985 -0.25915461778640747 0.001061755232512951 0.01712392270565033 0 0 0 0
1790322552 -0.3610503375530243 -0.19944240152835846 0.0034347418695688248 0.01721027120947838 0 0 0 0
1794044636 -0.3566613793373108 -0.1421198844909668 0.005646049976348877 0.01685936190187931 0 0 0 0
1797766720 -0.3440747559070587 -0.08208562433719635 0.007466820068657398 0.016630005091428757 0 0 0 0
1801488804 -0.3216995596885681 -0.027095139026641846 0.009404665790498257 0.01694578118622303 0 0 0 0
1805210888 -0.29087403416633606 0.021460268646478653 0.012195211835205555 0.01745571382343769 0 0 0 0
1808932972 -0.25385844707489014 0.06525115668773651 0.016505427658557892 0.017493493854999542 0 0 0 0
1812655056 -0.2101542353630066 0.10217902809381485 0.0213678777217865 0.015755170956254005 0 0 0 0
1816377140 -0.16240528225898743 0.13329991698265076 0.025964710861444473 0.01213830802589655 0 0 0 0
1820099224 -0.1107291430234909 0.15579155087471008 0.029330063611268997 0.00724626611918211 0 0 0 0
1823821308 -0.05614462122321129 0.16949212551116943 0.03146326541900635 0.001347612589597702 0 0 0 0
1827543392 -0.0007519535720348358 0.1738353669643402 0.032575543969869614 -0.0044157132506370544 0 0 0 0
1831265476 0.05498642474412918 0.16798141598701477 0.03246837109327316 -0.011190302670001984 0 0 0 0
1834987560 0.10446743667125702 0.15477195382118225 0.031110072508454323 -0.01755412295460701 0 0 0 0
1838709644 0.15218482911586761 0.1334802806377411 0.02818669006228447 -0.024203933775424957 0 0 0 0
1842431728 0.19382962584495544 0.10726393759250641 0.023744381964206696 -0.030498364940285683 0 0 0 0
1846153812 0.23076260089874268 0.07520483434200287 0.01797506958246231 -0.03586424142122269 0 0 0 0
1849875896 0.26111340522766113 0.035218626260757446 0.010012823157012463 -0.03981281816959381 0 0 0 0
1853597980 0.2848569452762604 -0.004253651015460491 0.0012403670698404312 -0.041544776409864426 0 0 0 0
1857320064 0.30070486664772034 -0.04995027184486389 -0.007588597014546394 -0.04038560017943382 0 0 0 0
1861042148 0.30747541785240173 -0.0953616350889206 -0.014835037291049957 -0.03744834288954735 0 0 0 0
1864764232 0.30536988377571106 -0.13836446404457092 -0.020666617900133133 -0.03365864232182503 0 0 0 0
1868486316 0.2975543737411499 -0.1795826256275177 -0.026141032576560974 -0.02950911596417427 0 0 0 0
1872208400 0.2840292751789093 -0.21684502065181732 -0.030286431312561035 -0.024755213409662247 0 0 0 0
1875930484 0.2666664719581604 -0.25238803029060364 -0.0334787555038929 -0.019391510635614395 0 0 0 0
1879652568 0.2428758442401886 -0.282449871301651 -0.0363331139087677 -0.013909323140978813 0 0 0 0
1883374652 0.2143200784921646 -0.3089928925037384 -0.03898044675588608 -0.008312663994729519 0 0 0 0
1887096736 0.1833745241165161 -0.3282618820667267 -0.040886811912059784 -0.0017024977132678032 0 0 0 0
1890818820 0.14824193716049194 -0.34141600131988525 -0.04140191152691841 0.005649152211844921 0 0 0 0
1894540904 0.11306385695934296 -0.34866225719451904 -0.04067578166723251 0.013031830079853535 0 0 0 0
1898262988 0.08050836622714996 -0.3492836356163025 -0.03858169913291931 0.020724881440401077 0 0 0 0
1901985072 0.04773750901222229 -0.3454456329345703 -0.034766387194395065 0.028369557112455368 0 0 0 0
1905707156 0.017674461007118225 -0.33391910791397095 -0.02892502024769783 0.03506555035710335 0 0 0 0
1909429240 -0.01047595590353012 -0.3205650746822357 -0.022055037319660187 0.04038697108626366 0 0 0 0
1913151324 -0.03671438992023468 -0.3012756109237671 -0.013279115781188011 0.04410594329237938 0 0 0 0
1916873408 -0.05530393123626709 -0.2800803780555725 -0.004510384052991867 0.04549749568104744 0 0 0 0
1920595492 -0.07255412638187408 -0.2539975345134735 0.00400678813457489 0.04511892795562744 0 0 0 0
1924317576 -0.08171675354242325 -0.22706949710845947 0.011923554353415966 0.0427197590470314 0 0 0 0
1928039660 -0.08915652334690094 -0.19751499593257904 0.019128303974866867 0.03925861418247223 0 0 0 0
1931761744 -0.09096069633960724 -0.16992735862731934 0.025225188583135605 0.03533923998475075 0 0 0 0
1935483828 -0.08766230940818787 -0.1421516090631485 0.030803723260760307 0.030806001275777817 0 0 0 0
1939205912 -0.08011013269424438 -0.1138339564204216 0.036109231412410736 0.025455212220549583 0 0 0 0
1942927996 -0.06668268144130707 -0.08713018894195557 0.04095538333058357 0.01830260641872883 0 0 0 0
1946650080 -0.0486241914331913 -0.06348522007465363 0.04356168955564499 0.009819986298680305 0 0 0 0
1950372164 -0.02562716230750084 -0.04571232572197914 0.04413874074816704 0.0019118264317512512 0 0 0 0
1954094248 -0.0014907484874129295 -0.03197075054049492 0.04390135779976845 -0.006092647090554237 0 0 0 0
1957816332 0.024072960019111633 -0.022555289790034294 0.042196691036224365 -0.014272521249949932 0 0 0 0
1961538416 0.05173229053616524 -0.016981741413474083 0.039512909948825836 -0.021492162719368935 0 0 0 0
1965260500 0.08023427426815033 -0.016366681084036827 0.035047780722379684 -0.029258310794830322 0 0 0 0
1968982584 0.10867270827293396 -0.02251078188419342 0.028577513992786407 -0.03622850030660629 0 0 0 0
1972704668 0.13506101071834564 -0.033586081117391586 0.020318089053034782 -0.041743990033864975 0 0 0 0
1976426752 0.15882855653762817 -0.05042985454201698 0.010639066807925701 -0.04430045187473297 0 0 0 0
1980148836 0.1778223216533661 -0.07102367281913757 0.0011814320459961891 -0.04434581845998764 0 0 0 0
1983870920 0.19215935468673706 -0.09317534416913986 -0.006885450333356857 -0.04193870350718498 0 0 0 0
1987593004 0.20387588441371918 -0.11622275412082672 -0.01307709515094757 -0.03914890065789223 0 0 0 0
1991315088 0.20997388660907745 -0.14317810535430908 -0.01912255585193634 -0.036213699728250504 0 0 0 0
1995037172 0.2114015370607376 -0.17120574414730072 -0.025248399004340172 -0.0329027958214283 0 0 0 0
1998759256 0.207441046833992 -0.19865542650222778 -0.0311394352465868 -0.02787455916404724 0 0 0 0
2002481340 0.19847041368484497 -0.22366714477539062 -0.036290381103754044 -0.021984148770570755 0 0 0 0
2006203424 0.18355759978294373 -0.2477423995733261 -0.040237899869680405 -0.014084754511713982 0 0 0 0
2009925508 0.16763630509376526 -0.26584509015083313 -0.04209689423441887 -0.005815189331769943 0 0 0 0
2013647592 0.1451294720172882 -0.28262338042259216 -0.04168064519762993 0.0026489337906241417 0 0 0 0
2017369676 0.12271919846534729 -0.2936813533306122 -0.0396440252661705 0.010115605778992176 0 0 0 0
2021091760 0.09956097602844238 -0.3011123239994049 -0.036727435886859894 0.016873933374881744 0 0 0 0
2024813844 0.07357151806354523 -0.3050415515899658 -0.03225630149245262 0.023315653204917908 0 0 0 0
2028535928 0.04680321365594864 -0.303803026676178 -0.026766303926706314 0.028602082282304764 0 0 0 0
2032258012 0.026753872632980347 -0.29861608147621155 -0.021218661218881607 0.03234340250492096 0 0 0 0
2035980096 0.0027166008949279785 -0.2907654345035553 -0.01425094436854124 0.03524511307477951 0 0 0 0
2039702180 -0.01794123835861683 -0.2809344530105591 -0.007512751966714859 0.03644612431526184 0 0 0 0
2043424264 -0.0361962616443634 -0.26745545864105225 -0.0009080665186047554 0.03580877184867859 0 0 0 0
2047146348 -0.05726829916238785 -0.2516610026359558 0.0054316893219947815 0.03447197750210762 0 0 0 0
2050868432 -0.07346799969673157 -0.23121978342533112 0.011021231301128864 0.032335441559553146 0 0 0 0
2054590516 -0.08640672266483307 -0.21007466316223145 0.016048897057771683 0.02933194488286972 0 0 0 0
2058312600 -0.0975496768951416 -0.1844988763332367 0.020288225263357162 0.02500459924340248 0 0 0 0
2062034684 -0.10494905710220337 -0.1589614301919937 0.023314008489251137 0.020246993750333786 0 0 0 0
2065756768 -0.11047415435314178 -0.1301082819700241 0.025186384096741676 0.015496892854571342 0 0 0 0
2069478852 -0.10991278290748596 -0.09910288453102112 0.026077063754200935 0.010857443325221539 0 0 0 0
2073200936 -0.10509203374385834 -0.0662224143743515 0.026117609813809395 0.006709636189043522 0 0 0 0
2076923020 -0.0933396965265274 -0.0331321582198143 0.025780748575925827 0.0032175546512007713 0 0 0 0
2080645104 -0.07525107264518738 -0.0032128561288118362 0.025758033618330956 0.0004209717735648155 0 0 0 0
2084367188 -0.05147462338209152 0.025306155905127525 0.02590525709092617 -0.002843881957232952 0 0 0 0
2088089272 -0.021304365247488022 0.049570538103580475 0.02604834735393524 -0.0067073144018650055 0 0 0 0
2091811356 0.013394000008702278 0.06716739386320114 0.02533865161240101 -0.01127583533525467 0 0 0 0
2095533440 0.05013909190893173 0.07831516116857529 0.023365434259176254 -0.015891429036855698 0 0 0 0
2099255524 0.08922305703163147 0.08187603205442429 0.020352818071842194 -0.020636532455682755 0 0 0 0
2102977608 0.12808647751808167 0.07863882184028625 0.015376550145447254 -0.024774454534053802 0 0 0 0
2106699692 0.16437849402427673 0.06926114857196808 0.009644929319620132 -0.026710696518421173 0 0 0 0
2110421776 0.19830305874347687 0.05347047001123428 0.0039361752569675446 -0.02691510319709778 0 0 0 0
2114143860 0.22932860255241394 0.03439076989889145 -0.0006919028237462044 -0.02596757933497429 0 0 0 0
2117865944 0.25825974345207214 0.009005747735500336 -0.004464797675609589 -0.024690303951501846 0 0 0 0
2121588028 0.2815473973751068 -0.021912943571805954 -0.00830529909580946 -0.023494122549891472 0 0 0 0
2125310112 0.29896607995033264 -0.053981222212314606 -0.012266166508197784 -0.021553857252001762 0 0 0 0
2129032196 0.3109174370765686 -0.08950578421354294 -0.015805859118700027 -0.01889589987695217 0 0 0 0
2132754280 0.31646406650543213 -0.12612003087997437 -0.01853305846452713 -0.015141483396291733 0 0 0 0
2136476364 0.31490689516067505 -0.16519169509410858 -0.020237987861037254 -0.011067304760217667 0 0 0 0
2140198448 0.30690616369247437 -0.20016688108444214 -0.02072473242878914 -0.007399663329124451 0 0 0 0
2143920532 0.2908506691455841 -0.23403406143188477 -0.02086043916642666 -0.004088779911398888 0 0 0 0
2147642616 0.274030476808548 -0.2615474462509155 -0.021061323583126068 -0.001303117722272873 0 0 0 0
2151364700 0.25391697883605957 -0.2831774055957794 -0.02132541686296463 0.0014746543020009995 0 0 0 0
2155086784 0.2293185293674469 -0.3056057393550873 -0.021149471402168274 0.0054092127829790115 0 0 0 0
2158808868 0.20142021775245667 -0.32122108340263367 -0.01987573131918907 0.009297150187194347 0 0 0 0
2162530952 0.1731073409318924 -0.33294206857681274 -0.017425240948796272 0.012861094437539577 0 0 0 0
2166253036 0.14129891991615295 -0.34203553199768066 -0.01415346935391426 0.015598542988300323 0 0 0 0
2169975120 0.11066817492246628 -0.3457733988761902 -0.010550996288657188 0.017004165798425674 0 0 0 0
2173697204 0.08041170239448547 -0.3443034887313843 -0.00748781580477953 0.01768609508872032 0 0 0 0
2177419288 0.050253644585609436 -0.3365814685821533 -0.004588310606777668 0.017666779458522797 0 0 0 0
2181141372 0.020587652921676636 -0.325046181678772 -0.0019511105492711067 0.017793256789445877 0 0 0 0
2184863456 -0.004053425043821335 -0.3085119128227234 0.000932556577026844 0.017488373443484306 0 0 0 0
2188585540 -0.027226775884628296 -0.28923138976097107 0.003525014966726303 0.01675991900265217 0 0 0 0
2192307624 -0.04617287218570709 -0.26503074169158936 0.005853760987520218 0.015437331981956959 0 0 0 0
2196029708 -0.06182391196489334 -0.23882199823856354 0.007637282833456993 0.01399870403110981 0 0 0 0
2199751792 -0.0725436732172966 -0.21180090308189392 0.009237432852387428 0.012456108815968037 0 0 0 0
2203473876 -0.07630797475576401 -0.18288840353488922 0.010702744126319885 0.011014167219400406 0 0 0 0
2207195960 -0.08077199012041092 -0.15310420095920563 0.012235929258167744 0.009265147149562836 0 0 0 0
2210918044 -0.07706344127655029 -0.12543635070323944 0.013487782329320908 0.007718123495578766 0 0 0 0
2214640128 -0.06830720603466034 -0.09912583976984024 0.01517549343407154 0.005335013382136822 0 0 0 0
2218362212 -0.05832904204726219 -0.07171662151813507 0.016267329454421997 0.0021223612129688263 0 0 0 0
2222084296 -0.04130474850535393 -0.04780050739645958 0.01600203663110733 -0.0014009391888976097 0 0 0 0
2225806380 -0.021450379863381386 -0.026431139558553696 0.014745032414793968 -0.00466359406709671 0 0 0 0
2229528464 0.0017999280244112015 -0.00963367149233818 0.012483790516853333 -0.007188965566456318 0 0 0 0
2233250548 0.026806514710187912 0.0028228778392076492 0.010218702256679535 -0.00851765088737011 0 0 0 0
2236972632 0.05381936579942703 0.011432748287916183 0.008046980015933514 -0.009307917207479477 0 0 0 0
2240694716 0.0804927721619606 0.01516271848231554 0.005934388376772404 -0.009803690947592258 0 0 0 0
2244416800 0.10924579948186874 0.014268269762396812 0.004168759100139141 -0.009687175042927265 0 0 0 0
2248138884 0.13833975791931152 0.011345500126481056 0.0029456298798322678 -0.009680258110165596 0 0 0 0
2251860968 0.16560062766075134 -0.00029378384351730347 0.0014596916735172272 -0.009767072275280952 0 0 0 0
2255583052 0.18871600925922394 -0.022950708866119385 0.00045453570783138275 -0.00915580615401268 0 0 0 0
2259305136 0.2075696438550949 -0.040032025426626205 0.000397256575524807 -0.008626250550150871 0 0 0 0
2263027220 0.21973034739494324 -0.06701353192329407 0.00032872799783945084 -0.00912465900182724 0 0 0 0
2266749304 0.22605223953723907 -0.09169963002204895 -0.0007571382448077202 -0.010257807560265064 0 0 0 0
2270471388 0.23067991435527802 -0.11219672113656998 -0.002413392998278141 -0.010848936624825 0 0 0 0
2274193472 0.22896987199783325 -0.13899073004722595 -0.004327304661273956 -0.011031948029994965 0 0 0 0
2277915556 0.2266789674758911 -0.15736855566501617 -0.006308849900960922 -0.010949334129691124 0 0 0 0
2281637640 0.21906407177448273 -0.17939217388629913 -0.00868318323045969 -0.01032174564898014 0 0 0 0
2285359724 0.2088945358991623 -0.1986299753189087 -0.01080319844186306 -0.008565179072320461 0 0 0 0
2289081808 0.19968269765377045 -0.21192695200443268 -0.012156946584582329 -0.006115676835179329 0 0 0 0
2292803892 0.18526020646095276 -0.22757521271705627 -0.012560459785163403 -0.004141360521316528 0 0 0 0
2296525976 0.16458971798419952 -0.24188561737537384 -0.012638556770980358 -0.0026608072221279144 0 0 0 0
2300248060 0.15667827427387238 -0.24786701798439026 -0.01279192604124546 -0.0015703896060585976 0 0 0 0
2303970144 0.13151293992996216 -0.26257577538490295 -0.01314038597047329 0.00022665224969387054 0 0 0 0
2307692228 0.10675343126058578 -0.26435133814811707 -0.013362456113100052 0.0017486326396465302 0 0 0 0
2311414312 0.08359439671039581 -0.26337388157844543 -0.013571864925324917 0.0036099301651120186 0 0 0 0
2315136396 0.060127899050712585 -0.258476197719574 -0.013422594405710697 0.0054435087367892265 0 0 0 0
2318858480 0.03848496079444885 -0.251846045255661 -0.01301514357328415 0.0075300876051187515 0 0 0 0
2322580564 0.023110173642635345 -0.23773226141929626 -0.012050588615238667 0.009781358763575554 0 0 0 0
2326302648 0.0005636177957057953 -0.2222309708595276 -0.010161090642213821 0.011737821623682976 0 0 0 0
2330024732 -0.012866273522377014 -0.20434096455574036 -0.007963169366121292 0.013461444526910782 0 0 0 0
2333746816 -0.024250879883766174 -0.18383201956748962 -0.005681966431438923 0.014330312609672546 0 0 0 0
2337468900 -0.035414159297943115 -0.1596253663301468 -0.0032370025292038918 0.014966742135584354 0 0 0 0
2341190984 -0.03838135302066803 -0.1341991275548935 -0.0008402969688177109 0.015389250591397285 0 0 0 0
2344913068 -0.036423344165086746 -0.10847314447164536 0.0017771022394299507 0.014865117147564888 0 0 0 0
2348635152 -0.0335707888007164 -0.0816950723528862 0.004247669130563736 0.013275789096951485 0 0 0 0
2352357236 -0.024076608940958977 -0.05699897184967995 0.005591649562120438 0.011324753984808922 0 0 0 0
2356079320 -0.010653669014573097 -0.03266517072916031 0.005999418906867504 0.009731533005833626 0 0 0 0
2359801404 0.006337388418614864 -0.01122001651674509 0.006650366820394993 0.0085071362555027 0 0 0 0
2363523488 0.027504343539476395 0.007788090966641903 0.0074767181649804115 0.007709436118602753 0 0 0 0
2367245572 0.05214373767375946 0.024104494601488113 0.007925780490040779 0.006575952284038067 0 0 0 0
2370967656 0.08014701306819916 0.03561919182538986 0.008205030113458633 0.005696255713701248 0 0 0 0
2374689740 0.11149100214242935 0.04143257811665535 0.008687199093401432 0.004685672000050545 0 0 0 0
2378411824 0.14344972372055054 0.04259847477078438 0.009136991575360298 0.003666694276034832 0 0 0 0
2382133908 0.1761723756790161 0.03766525536775589 0.0094889672473073 0.0022651012986898422 0 0 0 0
2385855992 0.2061905860900879 0.023814866319298744 0.009666887111961842 0.0006978092715144157 0 0 0 0
2389578076 0.23472926020622253 0.009660415351390839 0.009427055716514587 -0.0007881931960582733 0 0 0 0
2393300160 0.258774995803833 -0.013519982807338238 0.009013853035867214 -0.002396463416516781 0 0 0 0
2397022244 0.2783968448638916 -0.0380413755774498 0.008095072582364082 -0.003783448599278927 0 0 0 0
2400744328 0.293420672416687 -0.0653601661324501 0.0067901527509093285 -0.004802596755325794 0 0 0 0
2404466412 0.3044397234916687 -0.09908425062894821 0.005515185184776783 -0.005397262051701546 0 0 0 0
2408188496 0.3127186894416809 -0.12656083703041077 0.004328007809817791 -0.0057794637978076935 0 0 0 0
2411910580 0.31285637617111206 -0.1618862897157669 0.003166685812175274 -0.005767933093011379 0 0 0 0
2415632664 0.30836430191993713 -0.1920509934425354 0.002065543085336685 -0.005442202091217041 0 0 0 0
2419354748 0.29806268215179443 -0.2227882742881775 0.001539887860417366 -0.004794160835444927 0 0 0 0
2423076832 0.28570035099983215 -0.25253674387931824 0.0015294775366783142 -0.004518537782132626 0 0 0 0
2426798916 0.261558473110199 -0.2818446159362793 0.0014677923172712326 -0.004690365865826607 0 0 0 0
2430521000 0.2417251467704773 -0.3027679920196533 0.0012445366010069847 -0.005235348828136921 0 0 0 0
2434243084 0.2131337672472 -0.32266247272491455 0.0013108626008033752 -0.0050647808238863945 0 0 0 0
2437965168 0.18268181383609772 -0.33833542466163635 -0.00012677256017923355 -0.005484624765813351 0 0 0 0
2441687252 0.1572820097208023 -0.3470677137374878 -0.0005438681691884995 -0.005816168151795864 0 0 0 0
2445409336 0.12222009152173996 -0.3536665439605713 -0.0012600310146808624 -0.005836143158376217 0 0 0 0
2449131420 0.089201420545578 -0.3535081744194031 -0.001866428181529045 -0.005755181424319744 0 0 0 0
2452853504 0.05776641517877579 -0.3469983637332916 -0.0028518931940197945 -0.005815080367028713 0 0 0 0
2456575588 0.023427017033100128 -0.33636972308158875 -0.003615904599428177 -0.005518915131688118 0 0 0 0
2460297672 -0.006263315677642822 -0.32307156920433044 -0.004518168047070503 -0.005068774335086346 0 0 0 0
2464019756 -0.03199375048279762 -0.30590662360191345 -0.005382560193538666 -0.004232161678373814 0 0 0 0
2467741840 -0.05704273283481598 -0.28435975313186646 -0.005598312243819237 -0.003435811959207058 0 0 0 0
2471463924 -0.07803376019001007 -0.2587412893772125 -0.005564909428358078 -0.002856111153960228 0 0 0 0
2475186008 -0.09680061042308807 -0.23012258112430573 -0.005920005030930042 -0.00256327074021101 0 0 0 0
2478908092 -0.10990047454833984 -0.19701647758483887 -0.006256498396396637 -0.0022576218470931053 0 0 0 0
2482630176 -0.11805865168571472 -0.16127902269363403 -0.006874603219330311 -0.0018493877723813057 0 0 0 0
2486352260 -0.11976157128810883 -0.12494777888059616 -0.00748547725379467 -0.001106596551835537 0 0 0 0
2490074344 -0.11516034603118896 -0.0881892591714859 -0.007901101373136044 -0.0002243565395474434 0 0 0 0
2493796428 -0.10342273116111755 -0.05201152339577675 -0.00838631484657526 0.0010840585455298424 0 0 0 0
2497518512 -0.08712077140808105 -0.0187066700309515 -0.008357950486242771 0.0025227274745702744 0 0 0 0
2501240596 -0.0637354776263237 0.009838959202170372 -0.008008071221411228 0.004120861180126667 0 0 0 0
2504962680 -0.037052348256111145 0.033773671835660934 -0.006871636025607586 0.005645124241709709 0 0 0 0
2508684764 -0.007238348945975304 0.05230371654033661 -0.0052582258358597755 0.006518304347991943 0 0 0 0
2512406848 0.023830467835068703 0.06733943521976471 -0.0035822736099362373 0.0067902496084570885 0 0 0 0
2516128932 0.0576641783118248 0.07590369880199432 -0.0023548752069473267 0.00658761989325285 0 0 0 0
2519851016 0.09291412681341171 0.07994699478149414 -0.0012043435126543045 0.0057712821289896965 0 0 0 0
2523573100 0.12779095768928528 0.07597791403532028 -0.000773061066865921 0.004929159767925739 0 0 0 0
2527295184 0.16028332710266113 0.06862829625606537 -0.0008936803787946701 0.0042045144364237785 0 0 0 0
2531017268 0.19060498476028442 0.05323681980371475 -0.0013182545080780983 0.003962242975831032 0 0 0 0
2534739352 0.216955304145813 0.03454239293932915 -0.001925421878695488 0.004352215677499771 0 0 0 0
2538461436 0.24098016321659088 0.013504382222890854 -0.0022614821791648865 0.005386144854128361 0 0 0 0
2542183520 0.259174108505249 -0.013078205287456512 -0.0016248244792222977 0.006771659478545189 0 0 0 0
2545905604 0.2718892991542816 -0.04123416543006897 -0.00010800547897815704 0.007636449299752712 0 0 0 0
2549627688 0.2806984782218933 -0.0676155835390091 0.0014782082289457321 0.007786962203681469 0 0 0 0
2553349772 0.28499937057495117 -0.09851446747779846 0.00289901252835989 0.007631268352270126 0 0 0 0
2557071856 0.2812005281448364 -0.1270853579044342 0.004172816872596741 0.007171281613409519 0 0 0 0
2560793940 0.276652455329895 -0.1525454968214035 0.005577020347118378 0.006822857074439526 0 0 0 0
2564516024 0.2672663629055023 -0.1751049906015396 0.006905500777065754 0.0059806788340210915 0 0 0 0
2568238108 0.2554965317249298 -0.19369858503341675 0.008580134250223637 0.004740444011986256 0 0 0 0
2571960192 0.23802104592323303 -0.2132633626461029 0.009827254340052605 0.0025744186714291573 0 0 0 0
2575682276 0.22123217582702637 -0.2298591434955597 0.010072492994368076 -7.38091766834259e-05 0 0 0 0
2579404360 0.20234480500221252 -0.24098904430866241 0.009249802678823471 -0.0025509772822260857 0 0 0 0
2583126444 0.18365827202796936 -0.24987243115901947 0.00775583740323782 -0.004213590174913406 0 0 0 0
2586848528 0.16531264781951904 -0.2546236515045166 0.006188457831740379 -0.0048534926027059555 0 0 0 0
2590570612 0.14544475078582764 -0.2569521963596344 0.005202369764447212 -0.004796219989657402 0 0 0 0
2594292696 0.12866955995559692 -0.2552643120288849 0.004833787679672241 -0.005259198136627674 0 0 0 0
2598014780 0.11119207739830017 -0.2535999119281769 0.00415477529168129 -0.0057089971378445625 0 0 0 0
2601736864 0.09399770200252533 -0.24743102490901947 0.003487955778837204 -0.005974657833576202 0 0 0 0
2605458948 0.07662031054496765 -0.24119433760643005 0.0030346903949975967 -0.006069354712963104 0 0 0 0
2609181032 0.06585660576820374 -0.2300601601600647 0.002864997833967209 -0.00627460703253746 0 0 0 0
2612903116 0.05431262031197548 -0.21900148689746857 0.002848212607204914 -0.007362673990428448 0 0 0 0
2616625200 0.045931652188301086 -0.20718111097812653 0.002018539234995842 -0.008744805119931698 0 0 0 0
2620347284 0.039044447243213654 -0.19457967579364777 0.0004539554938673973 -0.009883263148367405 0 0 0 0
2624069368 0.03523997962474823 -0.1810089498758316 -0.0013546617701649666 -0.010315103456377983 0 0 0 0
2627791452 0.03386533260345459 -0.1665111631155014 -0.003152756951749325 -0.009983766824007034 0 0 0 0
2631513536 0.03629452362656593 -0.15528209507465363 -0.0045369286090135574 -0.009682885371148586 0 0 0 0
2635235620 0.039553090929985046 -0.14403684437274933 -0.0060814134776592255 -0.009440671652555466 0 0 0 0
2638957704 0.04458922892808914 -0.13367070257663727 -0.0077963583171367645 -0.008660349994897842 0 0 0 0
2642679788 0.047996241599321365 -0.12592294812202454 -0.009632435627281666 -0.007848278619349003 0 0 0 0
2646401872 0.055405791848897934 -0.11835328489542007 -0.011221114546060562 -0.006555269472301006 0 0 0 0
2650123956 0.0630144402384758 -0.11193961650133133 -0.012752403505146503 -0.00467012170702219 0 0 0 0
2653846040 0.07050459831953049 -0.10816893726587296 -0.013689028099179268 -0.0023244600743055344 0 0 0 0
2657568124 0.08046238124370575 -0.1058100089430809 -0.014070946723222733 0.0003034733235836029 0 0 0 0
2661290208 0.0889231413602829 -0.10713315010070801 -0.014004480093717575 0.002667470835149288 0 0 0 0
2665012292 0.09527728706598282 -0.10919909179210663 -0.013737499713897705 0.005234847776591778 0 0 0 0
2668734376 0.1026173010468483 -0.11173032224178314 -0.012849888764321804 0.008149773813784122 0 0 0 0
2672456460 0.1088680550456047 -0.11522669345140457 -0.010808652266860008 0.010910341516137123 0 0 0 0
2676178544 0.11454706639051437 -0.12111248075962067 -0.008130474016070366 0.012978400103747845 0 0 0 0
2679900628 0.11861352622509003 -0.12663906812667847 -0.004886675626039505 0.013916046358644962 0 0 0 0
2683622712 0.12108074873685837 -0.13462191820144653 -0.001645151525735855 0.013979002833366394 0 0 0 0
2687344796 0.12026064842939377 -0.14225588738918304 0.0011553587391972542 0.013266091234982014 0 0 0 0
2691066880 0.12066127359867096 -0.14947573840618134 0.0035084644332528114 0.012203831225633621 0 0 0 0
2694788964 0.11954845488071442 -0.15676887333393097 0.0051528532058000565 0.010846076533198357 0 0 0 0
2698511048 0.11474008113145828 -0.1649351418018341 0.006736693903803825 0.009663118980824947 0 0 0 0
2702233132 0.1100432276725769 -0.17345118522644043 0.008161954581737518 0.007989463396370411 0 0 0 0
2705955216 0.1043524369597435 -0.17788644134998322 0.009230394847691059 0.006081194616854191 0 0 0 0
2709677300 0.09447050094604492 -0.18523263931274414 0.009777117520570755 0.004114773124456406 0 0 0 0
2713399384 0.08421756327152252 -0.18766391277313232 0.009816811420023441 0.0023026419803500175 0 0 0 0
2717121468 0.06934070587158203 -0.19051995873451233 0.009669320657849312 0.0007527284324169159 0 0 0 0
2720843552 0.05852483585476875 -0.18932518362998962 0.009865197353065014 -0.00037436001002788544 0 0 0 0
2724565636 0.045105915516614914 -0.1862139105796814 0.010043968446552753 -0.0018706992268562317 0 0 0 0
2728287720 0.03240635618567467 -0.17871429026126862 0.00990450568497181 -0.0036720559000968933 0 0 0 0
2732009804 0.020184176042675972 -0.17005746066570282 0.009396465495228767 -0.00567143689841032 0 0 0 0
2735731888 0.012006960809230804 -0.15786117315292358 0.008604409173130989 -0.007540978491306305 0 0 0 0
2739453972 0.006026609800755978 -0.14516104757785797 0.007321321405470371 -0.009459895081818104 0 0 0 0
2743176056 -0.001337338238954544 -0.1297987550497055 0.00516094733029604 -0.011371773667633533 0 0 0 0
2746898140 -0.0041836705058813095 -0.11350838094949722 0.0024199122563004494 -0.012516501359641552 0 0 0 0
2750620224 -0.003390345722436905 -0.09706346690654755 -0.0006470996886491776 -0.012605329975485802 0 0 0 0
2754342308 -0.00018365588039159775 -0.08067449182271957 -0.0032793832942843437 -0.012039710767567158 0 0 0 0
2758064392 0.004791737534105778 -0.06542080640792847 -0.005871455185115337 -0.01079163420945406 0 0 0 0
2761786476 0.012198897078633308 -0.04969446733593941 -0.007800390012562275 -0.008696443401277065 0 0 0 0
2765508560 0.02231581322848797 -0.03510204702615738 -0.008852148428559303 -0.006376815959811211 0 0 0 0
2769230644 0.03532660752534866 -0.02162015810608864 -0.009329494088888168 -0.004275869578123093 0 0 0 0
2772952728 0.05127336084842682 -0.00944813247770071 -0.009329973720014095 -0.002395870164036751 0 0 0 0
2776674812 0.07012204080820084 -0.0013675680384039879 -0.00879446230828762 -0.000699702650308609 0 0 0 0
2780396896 0.0909256786108017 0.003499940037727356 -0.008362481370568275 0.0005165534093976021 0 0 0 0
2784118980 0.11131424456834793 0.005114201456308365 -0.008145003579556942 0.001570049673318863 0 0 0 0
2787841064 0.131719708442688 0.002927817404270172 -0.007664640434086323 0.0028309421613812447 0 0 0 0
2791563148 0.1519138664007187 -0.002203226089477539 -0.006927816197276115 0.0042590731754899025 0 0 0 0
2795285232 0.17097200453281403 -0.010172940790653229 -0.0058027757331728935 0.005349324084818363 0 0 0 0
2799007316 0.18992924690246582 -0.020174741744995117 -0.004465301521122456 0.0061899954453110695 0 0 0 0
2802729400 0.20545676350593567 -0.034710466861724854 -0.0031670453026890755 0.006934944540262222 0 0 0 0
2806451484 0.21957974135875702 -0.05107264965772629 -0.0015662219375371933 0.007339383475482464 0 0 0 0
2810173568 0.23330672085285187 -0.0662289634346962 -0.00013027992099523544 0.007432352751493454 0 0 0 0
2813895652 0.24190323054790497 -0.08678318560123444 0.0016974136233329773 0.007220878265798092 0 0 0 0
2817617736 0.24867123365402222 -0.10865960270166397 0.0034771692007780075 0.006482422351837158 0 0 0 0
2821339820 0.25028178095817566 -0.13242694735527039 0.004883646033704281 0.00521477498114109 0 0 0 0
2825061904 0.252029150724411 -0.1535797119140625 0.005549679510295391 0.003520091064274311 0 0 0 0
2828783988 0.24909363687038422 -0.17459546029567719 0.005757888779044151 0.0021721376106142998 0 0 0 0
2832506072 0.23960858583450317 -0.19856946170330048 0.005780174396932125 0.001059461385011673 0 0 0 0
2836228156 0.23032796382904053 -0.21855737268924713 0.005953490734100342 -2.040434628725052e-05 0 0 0 0
2839950240 0.21932679414749146 -0.2389388233423233 0.005862667225301266 -0.0013349158689379692 0 0 0 0
2843672324 0.2037568986415863 -0.25685545802116394 0.005360977724194527 -0.002603459171950817 0 0 0 0
2847394408 0.18899153172969818 -0.27105289697647095 0.004406279884278774 -0.003880695439875126 0 0 0 0
2851116492 0.16803406178951263 -0.28749585151672363 0.003187519498169422 -0.004249094054102898 0 0 0 0
2854838576 0.14953628182411194 -0.29878687858581543 0.002261434681713581 -0.004415355622768402 0 0 0 0
2858560660 0.13613542914390564 -0.3062913715839386 0.0018787607550621033 -0.004688603803515434 0 0 0 0
2862282744 0.10419637709856033 -0.3150234818458557 0.00105275958776474 -0.004842015914618969 0 0 0 0
2866004828 0.08601807802915573 -0.3167526125907898 0.0004341602325439453 -0.004828173667192459 0 0 0 0
2869726912 0.059042513370513916 -0.3155640959739685 -0.00022503919899463654 -0.004761187359690666 0 0 0 0
2873448996 0.035258471965789795 -0.31289398670196533 -0.0008863313123583794 -0.004628287628293037 0 0 0 0
2877171080 0.017086155712604523 -0.30575472116470337 -0.001483316533267498 -0.00439674686640501 0 0 0 0
2880893164 -0.009979111142456532 -0.2972169518470764 -0.002168668434023857 -0.003994259051978588 0 0 0 0
2884615248 -0.02968616783618927 -0.28525418043136597 -0.002547028474509716 -0.0037675686180591583 0 0 0 0
2888337332 -0.05278573930263519 -0.27049508690834045 -0.003206503577530384 -0.003189551644027233 0 0 0 0
2892059416 -0.06974480301141739 -0.2534864544868469 -0.003726334311068058 -0.0025108931586146355 0 0 0 0
2895781500 -0.0880589485168457 -0.2327975034713745 -0.004041529260575771 -0.001769782043993473 0 0 0 0
2899503584 -0.09887070953845978 -0.21131068468093872 -0.004395226947963238 -0.0009111985564231873 0 0 0 0
2903225668 -0.11245772242546082 -0.186431422829628 -0.004322269931435585 0.00019458308815956116 0 0 0 0
2906947752 -0.11901186406612396 -0.16151617467403412 -0.0039807818830013275 0.001260370947420597 0 0 0 0
2910669836 -0.1212795227766037 -0.13718678057193756 -0.003357871435582638 0.002194812521338463 0 0 0 0
2914391920 -0.12145960330963135 -0.11112728714942932 -0.00266816932708025 0.0027209166437387466 0 0 0 0
2918114004 -0.11788106709718704 -0.08661893755197525 -0.001912437379360199 0.003219394013285637 0 0 0 0
2921836088 -0.11152903735637665 -0.06172862648963928 -0.001047646626830101 0.0034263338893651962 0 0 0 0
2925558172 -0.10462635010480881 -0.036454252898693085 -5.404278635978699e-05 0.003474913537502289 0 0 0 0
2929280256 -0.09345061331987381 -0.013542335480451584 0.0007206415757536888 0.0032198280096054077 0 0 0 0
2933002340 -0.0782356783747673 0.008842356503009796 0.0011208895593881607 0.0029646260663866997 0 0 0 0
2936724424 -0.05960964411497116 0.0294854287058115 0.0016987016424536705 0.002809375524520874 0 0 0 0
2940446508 -0.03944990411400795 0.04604101926088333 0.002353820949792862 0.002633645199239254 0 0 0 0
2944168592 -0.0163275096565485 0.06092415750026703 0.003013409674167633 0.0020599132403731346 0 0 0 0
2947890676 0.0075815171003341675 0.07269412279129028 0.00349996704608202 0.0015844441950321198 0 0 0 0
2951612760 0.03388694301247597 0.08126623928546906 0.00406353734433651 0.0009451434016227722 0 0 0 0
2955334844 0.0618680864572525 0.08573135733604431 0.004245398566126823 -0.00025800708681344986 0 0 0 0
2959056928 0.08936137706041336 0.0869259163737297 0.004014051519334316 -0.0010924572125077248 0 0 0 0
2962779012 0.11670831590890884 0.08506687730550766 0.0034875627607107162 -0.0016683461144566536 0 0 0 0
2966501096 0.14547979831695557 0.07493343204259872 0.0030467091128230095 -0.0020267199724912643 0 0 0 0
2970223180 0.17045897245407104 0.06318946927785873 0.0026703542098402977 -0.0022790180519223213 0 0 0 0
2973945264 0.19273501634597778 0.047547806054353714 0.002187197096645832 -0.0025567645207047462 0 0 0 0
2977667348 0.2120547592639923 0.03251311928033829 0.0017172032967209816 -0.0026433560997247696 0 0 0 0
2981389432 0.22963367402553558 0.014216102659702301 0.0013467306271195412 -0.0024594413116574287 0 0 0 0
2985111516 0.2461804449558258 -0.008838467299938202 0.0011066514998674393 -0.00233557540923357 0 0 0 0
2988833600 0.2581416666507721 -0.03215925768017769 0.0011652177199721336 -0.002473290078341961 0 0 0 0
2992555684 0.26723650097846985 -0.05508635193109512 0.001158180646598339 -0.0028133736923336983 0 0 0 0
2996277768 0.2716250419616699 -0.08203636109828949 0.0007470259442925453 -0.0033316249027848244 0 0 0 0
2999999852 0.27365344762802124 -0.10640943050384521 -0.0001750551164150238 -0.003517960198223591 0 0 0 0
