# HZ S RI R 50
1500000000 -0.15214130282402039 -0.0005128830671310425 0.0704825147986412 -0.032511673867702484 0 0 0 0
1503722084 -0.1284111589193344 0.033361539244651794 0.06271404027938843 -0.04424312338232994 0 0 0 0
1507444168 -0.09828810393810272 0.06355392187833786 0.051707033067941666 -0.05466360226273537 0 0 0 0
1511166252 -0.06172313168644905 0.08870748430490494 0.038935985416173935 -0.061718255281448364 0 0 0 0
1514888336 -0.020534813404083252 0.10829257220029831 0.02509542554616928 -0.06526321917772293 0 0 0 0
1518610420 0.026432117447257042 0.1216273233294487 0.011844062246382236 -0.0654483437538147 0 0 0 0
1522332504 0.07631772756576538 0.12523645162582397 0.0003449097275733948 -0.06300309300422668 0 0 0 0
1526054588 0.12736696004867554 0.12044704705476761 -0.01062910258769989 -0.058808501809835434 0 0 0 0
1529776672 0.17857445776462555 0.10670875757932663 -0.019117847084999084 -0.053284481167793274 0 0 0 0
1533498756 0.2270135134458542 0.08493384718894958 -0.02585649862885475 -0.04675890877842903 0 0 0 0
1537220840 0.27402234077453613 0.0512084886431694 -0.031258828938007355 -0.03934873640537262 0 0 0 0
1540942924 0.3137345612049103 0.010968625545501709 -0.03433917462825775 -0.03203319013118744 0 0 0 0
1544665008 0.34623169898986816 -0.03721402585506439 -0.03622486814856529 -0.025655675679445267 0 0 0 0
1548387092 0.36848223209381104 -0.09148326516151428 -0.037477631121873856 -0.01940036192536354 0 0 0 0
1552109176 0.38331419229507446 -0.14457368850708008 -0.03818853199481964 -0.013712822459638119 0 0 0 0
1555831260 0.38922086358070374 -0.2014603465795517 -0.038195207715034485 -0.007773823104798794 0 0 0 0
1559553344 0.38613370060920715 -0.2585918605327606 -0.03711562603712082 -0.0020280610769987106 0 0 0 0
1563275428 0.37461620569229126 -0.3162842392921448 -0.0349891260266304 0.00297750998288393 0 0 0 0
1566997512 0.3539537191390991 -0.3724927604198456 -0.032564677298069 0.007226705551147461 0 0 0 0
1570719596 0.32511475682258606 -0.42503106594085693 -0.029719026759266853 0.010690438561141491 0 0 0 0
1574441680 0.2889667749404907 -0.471693754196167 -0.026816902682185173 0.013358072377741337 0 0 0 0
1578163764 0.24332211911678314 -0.5132051706314087 -0.02418363280594349 0.015425652265548706 0 0 0 0
1581885848 0.18959254026412964 -0.546663761138916 -0.021686529740691185 0.017376506701111794 0 0 0 0
1585607932 0.13694894313812256 -0.5719737410545349 -0.019166454672813416 0.019255243241786957 0 0 0 0
1589330016 0.07545632123947144 -0.5892523527145386 -0.016456034034490585 0.020855361595749855 0 0 0 0
1593052100 0.018726646900177002 -0.5979839563369751 -0.014076387509703636 0.022090764716267586 0 0 0 0
1596774184 -0.04176262021064758 -0.598315954208374 -0.011873451992869377 0.02350381389260292 0 0 0 0
1600496268 -0.10375378280878067 -0.5896965861320496 -0.009089448489248753 0.025264963507652283 0 0 0 0
1604218352 -0.16491152346134186 -0.5700845718383789 -0.005446558818221092 0.026885613799095154 0 0 0 0
1607940436 -0.21929439902305603 -0.5440883636474609 -0.0014891689643263817 0.027676191180944443 0 0 0 0
1611662520 -0.26918843388557434 -0.5116895437240601 0.0027588028460741043 0.02773262932896614 0 0 0 0
1615384604 -0.31912779808044434 -0.4690965414047241 0.007125151343643665 0.027119550853967667 0 0 0 0
1619106688 -0.36238157749176025 -0.41874396800994873 0.011451609432697296 0.025834403932094574 0 0 0 0
1622828772 -0.39447301626205444 -0.36746111512184143 0.015573744662106037 0.024100197479128838 0 0 0 0
1626550856 -0.4202035665512085 -0.31185466051101685 0.02001604437828064 0.0213018748909235 0 0 0 0
1630272940 -0.44053441286087036 -0.24998900294303894 0.023775624111294746 0.01723979040980339 0 0 0 0
1633995024 -0.4525403380393982 -0.1867944896221161 0.026434149593114853 0.012261718511581421 0 0 0 0
1637717108 -0.45619404315948486 -0.12008866667747498 0.02787492610514164 0.00662034098058939 0 0 0 0
1641439192 -0.45109641551971436 -0.05306021124124527 0.027660032734274864 0.001085381954908371 0 0 0 0
1645161276 -0.43615981936454773 0.01784268021583557 0.02628421224653721 -0.0038542496040463448 0 0 0 0
1648883360 -0.40849965810775757 0.08572302758693695 0.024387255311012268 -0.008009632118046284 0 0 0 0
1652605444 -0.3708614706993103 0.1482451856136322 0.021917063742876053 -0.01188788004219532 0 0 0 0
1656327528 -0.32362326979637146 0.20539359748363495 0.018802059814333916 -0.015184610150754452 0 0 0 0
1660049612 -0.26593250036239624 0.2569696009159088 0.01517162099480629 -0.01771313138306141 0 0 0 0
1663771696 -0.2043677270412445 0.2967498004436493 0.011461416259407997 -0.019196312874555588 0 0 0 0
1667493780 -0.13218146562576294 0.33078014850616455 0.00759623758494854 -0.020339922979474068 0 0 0 0
1671215864 -0.05642444267868996 0.35360074043273926 0.0032353680580854416 -0.020900852978229523 0 0 0 0
1674937948 0.02302531898021698 0.3642105162143707 -0.0012143086642026901 -0.019870368763804436 0 0 0 0
1678660032 0.10572159290313721 0.36200517416000366 -0.004621760919690132 -0.01756545528769493 0 0 0 0
1682382116 0.1876918524503708 0.34463223814964294 -0.0069503262639045715 -0.01516603771597147 0 0 0 0
1686104200 0.26439857482910156 0.3163629174232483 -0.008687518537044525 -0.012636687606573105 0 0 0 0
1689826284 0.33634045720100403 0.27529603242874146 -0.00960202794522047 -0.01006166823208332 0 0 0 0
1693548368 0.4019154906272888 0.22076740860939026 -0.010166536085307598 -0.007696039043366909 0 0 0 0
1697270452 0.4566556215286255 0.15886162221431732 -0.01021676603704691 -0.005386488512158394 0 0 0 0
1700992536 0.5005109906196594 0.08590324223041534 -0.009597951546311378 -0.0033666007220745087 0 0 0 0
1704714620 0.5320172309875488 0.014950603246688843 -0.008887061849236488 -0.0019744383171200752 0 0 0 0
1708436704 0.5513809323310852 -0.0699799656867981 -0.008015424013137817 -0.0006924699991941452 0 0 0 0
1712158788 0.5585821270942688 -0.14659607410430908 -0.0069511812180280685 0.00010586250573396683 0 0 0 0
1715880872 0.5518651008605957 -0.22455690801143646 -0.006001506932079792 0.00039561744779348373 0 0 0 0
1719602956 0.5326359272003174 -0.3033868372440338 -0.005175224505364895 0.0006131324917078018 0 0 0 0
1723325040 0.503882884979248 -0.37552744150161743 -0.004542022943496704 0.0005699582397937775 0 0 0 0
1727047124 0.4644434452056885 -0.4410474896430969 -0.004251944832503796 0.00037540681660175323 0 0 0 0
1730769208 0.4138560891151428 -0.5002943277359009 -0.004209860228002071 0.00026889611035585403 0 0 0 0
1734491292 0.3562564551830292 -0.5487090945243835 -0.004072865471243858 0.00030201952904462814 0 0 0 0
1738213376 0.2930895984172821 -0.5896557569503784 -0.0039369771257042885 0.0002516545355319977 0 0 0 0
1741935460 0.22227101027965546 -0.6176945567131042 -0.004078464582562447 1.2893229722976685e-05 0 0 0 0
1745657544 0.15452976524829865 -0.6337782740592957 -0.004530974663794041 -0.00020465068519115448 0 0 0 0
1749379628 0.08572489023208618 -0.639777660369873 -0.005148748867213726 0.00022487808018922806 0 0 0 0
1753101712 0.015705853700637817 -0.6347857713699341 -0.00531981885433197 0.0008021034300327301 0 0 0 0
1756823796 -0.05236896872520447 -0.6197998523712158 -0.005346210673451424 0.0012634415179491043 0 0 0 0
1760545880 -0.11427907645702362 -0.5948841571807861 -0.005313578061759472 0.0016540829092264175 0 0 0 0
1764267964 -0.17215533554553986 -0.5613129138946533 -0.0053451526910066605 0.0018780482932925224 0 0 0 0
1767990048 -0.22110730409622192 -0.5211732983589172 -0.005678671412169933 0.0018822820857167244 0 0 0 0
1771712132 -0.2658264636993408 -0.4747128188610077 -0.006479101255536079 0.0020212512463331223 0 0 0 0
1775434216 -0.29811134934425354 -0.42439746856689453 -0.007836372591555119 0.0025598378852009773 0 0 0 0
1779156300 -0.32532185316085815 -0.36940109729766846 -0.009084188379347324 0.004134045913815498 0 0 0 0
1782878384 -0.3441249430179596 -0.313142865896225 -0.010106006637215614 0.006445466540753841 0 0 0 0
1786600468 -0.3540419042110443 -0.25603461265563965 -0.010505268350243568 0.00959034077823162 0 0 0 0
1790322552 -0.3572438359260559 -0.1975891888141632 -0.009919087402522564 0.013196386396884918 0 0 0 0
1794044636 -0.3525055944919586 -0.14003323018550873 -0.007699746638536453 0.016671575605869293 0 0 0 0
1797766720 -0.3393535614013672 -0.08443965017795563 -0.00479046069085598 0.019681675359606743 0 0 0 0
1801488804 -0.31907355785369873 -0.029149562120437622 -0.000583902932703495 0.022307464852929115 0 0 0 0
1805210888 -0.28975433111190796 0.020957566797733307 0.0043229153379797935 0.0238877534866333 0 0 0 0
1808932972 -0.25330984592437744 0.06714179366827011 0.010264581069350243 0.024358278140425682 0 0 0 0
1812655056 -0.20858240127563477 0.10518340021371841 0.016200389713048935 0.022752486169338226 0 0 0 0
1816377140 -0.15887634456157684 0.13590674102306366 0.021674511954188347 0.019708894193172455 0 0 0 0
1820099224 -0.10600988566875458 0.15618807077407837 0.026642225682735443 0.01532961055636406 0 0 0 0
1823821308 -0.04967218264937401 0.16847947239875793 0.03052283450961113 0.00932936929166317 0 0 0 0
1827543392 0.005785785615444183 0.1708381026983261 0.032205987721681595 0.0023004645481705666 0 0 0 0
1831265476 0.05846936255693436 0.1631510853767395 0.032406035810709 -0.003808477893471718 0 0 0 0
1834987560 0.10802458971738815 0.147353857755661 0.031320635229349136 -0.010327782481908798 0 0 0 0
1838709644 0.15354061126708984 0.12643247842788696 0.02941645123064518 -0.016326386481523514 0 0 0 0
1842431728 0.1934814751148224 0.09783028811216354 0.0260800551623106 -0.02212671749293804 0 0 0 0
1846153812 0.22641389071941376 0.0658101961016655 0.021491924300789833 -0.026749057695269585 0 0 0 0
1849875896 0.25403186678886414 0.02771082893013954 0.015802256762981415 -0.030270077288150787 0 0 0 0
1853597980 0.2755083739757538 -0.010411471128463745 0.009925492107868195 -0.03254404664039612 0 0 0 0
1857320064 0.29061269760131836 -0.05015675723552704 0.00465938076376915 -0.03385889530181885 0 0 0 0
1861042148 0.2983343005180359 -0.0938950702548027 -0.000723840668797493 -0.03481258824467659 0 0 0 0
1864764232 0.29734671115875244 -0.13632839918136597 -0.007105821743607521 -0.03519091382622719 0 0 0 0
1868486316 0.29180899262428284 -0.17466771602630615 -0.014369670301675797 -0.034006718546152115 0 0 0 0
1872208400 0.2803925573825836 -0.2108789086341858 -0.02049396187067032 -0.030854539945721626 0 0 0 0
1875930484 0.26158538460731506 -0.24705758690834045 -0.025700969621539116 -0.026508565992116928 0 0 0 0
1879652568 0.23899969458580017 -0.27653276920318604 -0.029690168797969818 -0.02178138494491577 0 0 0 0
1883374652 0.21245649456977844 -0.30264970660209656 -0.033416997641325 -0.01653948985040188 0 0 0 0
1887096736 0.18284203112125397 -0.3225693702697754 -0.03633654862642288 -0.011044909246265888 0 0 0 0
1890818820 0.14842741191387177 -0.337588369846344 -0.038409288972616196 -0.004231831058859825 0 0 0 0
1894540904 0.11667554825544357 -0.34425172209739685 -0.03936352953314781 0.00262591615319252 0 0 0 0
1898262988 0.08223982155323029 -0.3450222313404083 -0.03876418620347977 0.010236166417598724 0 0 0 0
1901985072 0.04829719662666321 -0.34083691239356995 -0.036077696830034256 0.017417261376976967 0 0 0 0
1905707156 0.021550025790929794 -0.3292715847492218 -0.0324147492647171 0.023222655057907104 0 0 0 0
1909429240 -0.006956898607313633 -0.31621959805488586 -0.027908533811569214 0.028492996469140053 0 0 0 0
1913151324 -0.0284537672996521 -0.29840368032455444 -0.023154491558670998 0.033239997923374176 0 0 0 0
1916873408 -0.049262501299381256 -0.27776455879211426 -0.016731787472963333 0.03758016973733902 0 0 0 0
1920595492 -0.06618284434080124 -0.25345268845558167 -0.009345639497041702 0.04076267033815384 0 0 0 0
1924317576 -0.07659432291984558 -0.22785353660583496 -0.0017543230205774307 0.04246486723423004 0 0 0 0
1928039660 -0.0834931880235672 -0.20100952684879303 0.007070978172123432 0.042296040803194046 0 0 0 0
1931761744 -0.0859665796160698 -0.1736525595188141 0.01580038294196129 0.03970154747366905 0 0 0 0
1935483828 -0.08480207622051239 -0.14650222659111023 0.02333376556634903 0.03503480181097984 0 0 0 0
1939205912 -0.07780330628156662 -0.1191924661397934 0.028667816892266273 0.029007593169808388 0 0 0 0
1942927996 -0.06572549790143967 -0.0929475873708725 0.03232951834797859 0.023015785962343216 0 0 0 0
1946650080 -0.049488816410303116 -0.06906120479106903 0.03514842689037323 0.016343172639608383 0 0 0 0
1950372164 -0.02792479656636715 -0.048710498958826065 0.03680010139942169 0.009835394099354744 0 0 0 0
1954094248 -0.0034802258014678955 -0.03375615179538727 0.03808550164103508 0.0036808066070079803 0 0 0 0
1957816332 0.02408110909163952 -0.02424679696559906 0.038725320249795914 -0.002969636581838131 0 0 0 0
1961538416 0.051550060510635376 -0.019795307889580727 0.037375591695308685 -0.010461830534040928 0 0 0 0
1965260500 0.07922932505607605 -0.020565282553434372 0.0338742621243 -0.017315300181508064 0 0 0 0
1968982584 0.10630547255277634 -0.02715718373656273 0.029827527701854706 -0.0228443406522274 0 0 0 0
1972704668 0.13107603788375854 -0.037212274968624115 0.02513761818408966 -0.02772008441388607 0 0 0 0
1976426752 0.153487429022789 -0.05156264454126358 0.0193661879748106 -0.03156110644340515 0 0 0 0
1980148836 0.17418557405471802 -0.07021293044090271 0.013271257281303406 -0.03464486822485924 0 0 0 0
1983870920 0.19066643714904785 -0.09222200512886047 0.006138850934803486 -0.036622077226638794 0 0 0 0
1987593004 0.202021524310112 -0.1188202053308487 -0.0011961981654167175 -0.03667137399315834 0 0 0 0
1991315088 0.2078130543231964 -0.14487633109092712 -0.007801275700330734 -0.035486169159412384 0 0 0 0
1995037172 0.20871767401695251 -0.17079363763332367 -0.014197318814694881 -0.03297887742519379 0 0 0 0
1998759256 0.20374935865402222 -0.19734209775924683 -0.01952166110277176 -0.028678223490715027 0 0 0 0
2002481340 0.19532853364944458 -0.22050660848617554 -0.02340703457593918 -0.024314118549227715 0 0 0 0
2006203424 0.1821015179157257 -0.24290251731872559 -0.026359394192695618 -0.01995512843132019 0 0 0 0
2009925508 0.16429902613162994 -0.26163768768310547 -0.029360761865973473 -0.01531157549470663 0 0 0 0
2013647592 0.14953778684139252 -0.27542179822921753 -0.031617410480976105 -0.011256487108767033 0 0 0 0
2017369676 0.12480726838111877 -0.29028642177581787 -0.03401505947113037 -0.0055561792105436325 0 0 0 0
2021091760 0.10340722650289536 -0.300270140171051 -0.035123661160469055 0.0007395241409540176 0 0 0 0
2024813844 0.08027467131614685 -0.305571049451828 -0.03492305055260658 0.00805397517979145 0 0 0 0
2028535928 0.052942730486392975 -0.3088321387767792 -0.03246289864182472 0.015104307793080807 0 0 0 0
2032258012 0.02808137983083725 -0.30507349967956543 -0.028367409482598305 0.02080182172358036 0 0 0 0
2035980096 0.001481587067246437 -0.298633337020874 -0.023147867992520332 0.025165660306811333 0 0 0 0
2039702180 -0.023553326725959778 -0.2874967157840729 -0.017810426652431488 0.02823333814740181 0 0 0 0
2043424264 -0.04543184116482735 -0.2719961106777191 -0.012559974566102028 0.029843302443623543 0 0 0 0
2047146348 -0.06712012737989426 -0.2527148127555847 -0.007645496167242527 0.03055388294160366 0 0 0 0
2050868432 -0.08308695256710052 -0.23026561737060547 -0.002606666646897793 0.03114139661192894 0 0 0 0
2054590516 -0.09729214012622833 -0.2051866203546524 0.0024549365043640137 0.030575061216950417 0 0 0 0
2058312600 -0.10626126080751419 -0.17721843719482422 0.007095488719642162 0.029839403927326202 0 0 0 0
2062034684 -0.11297820508480072 -0.14768651127815247 0.01176600344479084 0.027883458882570267 0 0 0 0
2065756768 -0.11378462612628937 -0.1161271408200264 0.016023404896259308 0.025072859600186348 0 0 0 0
2069478852 -0.1104688048362732 -0.08383867889642715 0.019816650077700615 0.0220011118799448 0 0 0 0
2073200936 -0.1003575325012207 -0.05203819274902344 0.022647522389888763 0.018176568672060966 0 0 0 0
2076923020 -0.08466115593910217 -0.01999109610915184 0.024679914116859436 0.01367667131125927 0 0 0 0
2080645104 -0.0632861852645874 0.008336594328284264 0.025654925033450127 0.009632442146539688 0 0 0 0
2084367188 -0.03672327101230621 0.03302579000592232 0.02615160308778286 0.00606323778629303 0 0 0 0
2088089272 -0.005326863378286362 0.05213383212685585 0.02662256360054016 0.002995775081217289 0 0 0 0
2091811356 0.02843213826417923 0.0654323548078537 0.027583185583353043 1.8943101167678833e-05 0 0 0 0
2095533440 0.06395608931779861 0.07331858575344086 0.02850480005145073 -0.0043874625116586685 0 0 0 0
2099255524 0.10034047067165375 0.07477336376905441 0.02890554443001747 -0.00963554996997118 0 0 0 0
2102977608 0.13666090369224548 0.06950937956571579 0.027357758954167366 -0.015847887843847275 0 0 0 0
2106699692 0.17122586071491241 0.06013994291424751 0.024073999375104904 -0.02150517702102661 0 0 0 0
2110421776 0.20452329516410828 0.04462359845638275 0.01958823949098587 -0.025986861437559128 0 0 0 0
2114143860 0.23451951146125793 0.021322138607501984 0.013556171208620071 -0.029329121112823486 0 0 0 0
2117865944 0.2594953775405884 -0.0039429496973752975 0.007984528318047523 -0.031222663819789886 0 0 0 0
2121588028 0.2784057855606079 -0.03349141776561737 0.0017910078167915344 -0.032296810299158096 0 0 0 0
2125310112 0.29414963722229004 -0.06370280683040619 -0.004510790109634399 -0.03194411098957062 0 0 0 0
2129032196 0.3036706745624542 -0.09815096855163574 -0.01135087851434946 -0.029825054109096527 0 0 0 0
2132754280 0.30761632323265076 -0.13353876769542694 -0.01706754043698311 -0.026143847033381462 0 0 0 0
2136476364 0.3064986765384674 -0.16605965793132782 -0.020514562726020813 -0.021721966564655304 0 0 0 0
2140198448 0.2982272803783417 -0.20026220381259918 -0.023211440071463585 -0.01649407297372818 0 0 0 0
2143920532 0.28529807925224304 -0.23120233416557312 -0.024586474522948265 -0.012000801041722298 0 0 0 0
2147642616 0.26696136593818665 -0.25977954268455505 -0.025164132937788963 -0.007636526599526405 0 0 0 0
2151364700 0.24917267262935638 -0.2807307839393616 -0.025245796889066696 -0.003887128084897995 0 0 0 0
2155086784 0.22334495186805725 -0.30304333567619324 -0.024994852021336555 -7.401593029499054e-05 0 0 0 0
2158808868 0.19486132264137268 -0.3198759853839874 -0.024401143193244934 0.0036779195070266724 0 0 0 0
2162530952 0.16709013283252716 -0.330005407333374 -0.023326409980654716 0.007142255082726479 0 0 0 0
2166253036 0.1365801990032196 -0.33747634291648865 -0.021809225901961327 0.01025498379021883 0 0 0 0
2169975120 0.10859409719705582 -0.33844491839408875 -0.020211249589920044 0.013062985613942146 0 0 0 0
2173697204 0.07906156778335571 -0.3363194763660431 -0.018591325730085373 0.016296982765197754 0 0 0 0
2177419288 0.049325767904520035 -0.3299028277397156 -0.015762925148010254 0.01968015357851982 0 0 0 0
2181141372 0.025750409811735153 -0.31995993852615356 -0.012445320375263691 0.022248435765504837 0 0 0 0
2184863456 0.0003310889005661011 -0.3055194914340973 -0.008572438731789589 0.02417636290192604 0 0 0 0
2188585540 -0.023156244307756424 -0.2877253293991089 -0.0045221587643027306 0.02562115155160427 0 0 0 0
2192307624 -0.0436105951666832 -0.2651331424713135 0.0004349369555711746 0.02648734860122204 0 0 0 0
2196029708 -0.06013825535774231 -0.24043238162994385 0.005719163455069065 0.02619738131761551 0 0 0 0
2199751792 -0.07092855870723724 -0.21356037259101868 0.011018933728337288 0.024611126631498337 0 0 0 0
2203473876 -0.08021791279315948 -0.1824486404657364 0.01590421050786972 0.021271176636219025 0 0 0 0
2207195960 -0.07967302203178406 -0.15594308078289032 0.019472934305667877 0.017309170216321945 0 0 0 0
2210918044 -0.0763433426618576 -0.12709955871105194 0.021723173558712006 0.01306196115911007 0 0 0 0
2214640128 -0.07055683434009552 -0.09800295531749725 0.022788338363170624 0.008252650499343872 0 0 0 0
2218362212 -0.05716920271515846 -0.07314062863588333 0.02292722277343273 0.003571346402168274 0 0 0 0
2222084296 -0.04338459670543671 -0.047202713787555695 0.02201790176331997 -0.0007785139605402946 0 0 0 0
2225806380 -0.023147568106651306 -0.02503897249698639 0.0203857384622097 -0.004100293852388859 0 0 0 0
2229528464 0.0007530739530920982 -0.007151677273213863 0.019148046150803566 -0.006859049201011658 0 0 0 0
2233250548 0.028076324611902237 0.006182588636875153 0.017606688663363457 -0.009693818166851997 0 0 0 0
2236972632 0.05626171454787254 0.012862119823694229 0.015550236217677593 -0.012785632163286209 0 0 0 0
2240694716 0.08455827832221985 0.01587701588869095 0.012577102519571781 -0.01565038040280342 0 0 0 0
2244416800 0.11290793865919113 0.012182772159576416 0.009186896495521069 -0.017433829605579376 0 0 0 0
2248138884 0.13927996158599854 0.007897339761257172 0.005846860818564892 -0.018389705568552017 0 0 0 0
2251860968 0.16481497883796692 -0.007664509117603302 0.0020247353240847588 -0.01891905628144741 0 0 0 0
2255583052 0.1880861222743988 -0.016749635338783264 -0.0016426937654614449 -0.018406957387924194 0 0 0 0
2259305136 0.20517048239707947 -0.04219994693994522 -0.0047430070117115974 -0.01679109036922455 0 0 0 0
2263027220 0.21853314340114594 -0.06307714432477951 -0.007275622338056564 -0.014954830519855022 0 0 0 0
2266749304 0.2295893430709839 -0.08562953770160675 -0.009265278466045856 -0.013106957077980042 0 0 0 0
2270471388 0.23523057997226715 -0.11241447925567627 -0.010821226984262466 -0.011296186596155167 0 0 0 0
2274193472 0.2362096905708313 -0.1378173828125 -0.012305720709264278 -0.009003939107060432 0 0 0 0
2277915556 0.23722362518310547 -0.15717041492462158 -0.012893741019070148 -0.007285472936928272 0 0 0 0
2281637640 0.22388149797916412 -0.18782810866832733 -0.013551188632845879 -0.005204292945563793 0 0 0 0
2285359724 0.21222029626369476 -0.2070615440607071 -0.013922974467277527 -0.003330005332827568 0 0 0 0
2289081808 0.1979266107082367 -0.22495174407958984 -0.014062149450182915 -0.0010798554867506027 0 0 0 0
2292803892 0.17663756012916565 -0.2417888194322586 -0.013924358412623405 0.0010685380548238754 0 0 0 0
2296525976 0.15839549899101257 -0.24959424138069153 -0.013348225504159927 0.003013378009200096 0 0 0 0
2300248060 0.1397208571434021 -0.25519078969955444 -0.012811237014830112 0.004838590510189533 0 0 0 0
2303970144 0.11752314865589142 -0.26319360733032227 -0.012063661590218544 0.006513900123536587 0 0 0 0
2307692228 0.09665580093860626 -0.2613489031791687 -0.010677733458578587 0.00885787047445774 0 0 0 0
2311414312 0.07535172253847122 -0.25851550698280334 -0.008598493412137032 0.010197973810136318 0 0 0 0
2315136396 0.0506795272231102 -0.2521592974662781 -0.00599408894777298 0.010590502060949802 0 0 0 0
2318858480 0.03350089490413666 -0.2424907088279724 -0.004169800318777561 0.01040861289948225 0 0 0 0
2322580564 0.013134323060512543 -0.2279483675956726 -0.0027495454996824265 0.00992153212428093 0 0 0 0
2326302648 -0.005188420414924622 -0.21098926663398743 -0.0015104934573173523 0.00953066349029541 0 0 0 0
2330024732 -0.013124249875545502 -0.19091615080833435 -0.0005192402750253677 0.008940339088439941 0 0 0 0
2333746816 -0.026705946773290634 -0.16870252788066864 0.0001455778256058693 0.008350241929292679 0 0 0 0
2337468900 -0.030373284593224525 -0.144198939204216 0.0007934430614113808 0.00810711458325386 0 0 0 0
2341190984 -0.032431710511446 -0.11858431994915009 0.0017114132642745972 0.007626091130077839 0 0 0 0
2344913068 -0.029464323073625565 -0.0921250656247139 0.002605197951197624 0.006744738668203354 0 0 0 0
2348635152 -0.023246927186846733 -0.06583931297063828 0.003030785359442234 0.005917416885495186 0 0 0 0
2352357236 -0.008630878292024136 -0.04302767664194107 0.003079550340771675 0.005260167643427849 0 0 0 0
2356079320 0.008629700168967247 -0.021520672366023064 0.0031672799959778786 0.004687763750553131 0 0 0 0
2359801404 0.029771991074085236 -0.004101833328604698 0.003122459165751934 0.004069177433848381 0 0 0 0
2363523488 0.053745485842227936 0.009680528193712234 0.0034054219722747803 0.003757549449801445 0 0 0 0
2367245572 0.07987306267023087 0.020110653713345528 0.003390504978597164 0.0032268865033984184 0 0 0 0
2370967656 0.10816403478384018 0.02355184219777584 0.003094838932156563 0.0027627991512417793 0 0 0 0
2374689740 0.13570597767829895 0.02307507023215294 0.0029880404472351074 0.0025068139657378197 0 0 0 0
2378411824 0.1622277945280075 0.01849599927663803 0.002994881011545658 0.0022678738459944725 0 0 0 0
2382133908 0.18782436847686768 0.010468907654285431 0.0027800090610980988 0.002256356179714203 0 0 0 0
2385855992 0.21141886711120605 -0.0039161816239356995 0.002581587992608547 0.002279338426887989 0 0 0 0
2389578076 0.2344076782464981 -0.020287364721298218 0.002602609805762768 0.0022444836795330048 0 0 0 0
2393300160 0.2521412670612335 -0.043029773980379105 0.0023538339883089066 0.002461145631968975 0 0 0 0
2397022244 0.2674607038497925 -0.06351236999034882 0.0025705983862280846 0.0030905278399586678 0 0 0 0
2400744328 0.2802474796772003 -0.09048647433519363 0.0035374099388718605 0.003571094013750553 0 0 0 0
2404466412 0.28485167026519775 -0.12027722597122192 0.005334607325494289 0.0033481260761618614 0 0 0 0
2408188496 0.28906428813934326 -0.14543980360031128 0.006403474137187004 0.002332530915737152 0 0 0 0
2411910580 0.2877129912376404 -0.1707935929298401 0.007164746522903442 0.0009581241756677628 0 0 0 0
2415632664 0.2780689001083374 -0.20355069637298584 0.007382162846624851 -0.00038327835500240326 0 0 0 0
2419354748 0.2704044580459595 -0.2249307781457901 0.007465953938663006 -0.001890452578663826 0 0 0 0
2423076832 0.25543689727783203 -0.24969887733459473 0.0073722368106245995 -0.003229983150959015 0 0 0 0
2426798916 0.23431143164634705 -0.2739568054676056 0.006766512058675289 -0.004873902536928654 0 0 0 0
2430521000 0.2171708047389984 -0.28856971859931946 0.0059121837839484215 -0.005951207131147385 0 0 0 0
2434243084 0.19188064336776733 -0.3073802590370178 0.0048461854457855225 -0.006846291944384575 0 0 0 0
2437965168 0.16860371828079224 -0.31727778911590576 0.0037589874118566513 -0.007602017372846603 0 0 0 0
2441687252 0.144003763794899 -0.32370904088020325 0.002748945727944374 -0.008174081332981586 0 0 0 0
2445409336 0.11249364167451859 -0.3303603529930115 0.0014743339270353317 -0.008536645211279392 0 0 0 0
2449131420 0.0846066027879715 -0.3280659019947052 0.0004400443285703659 -0.008987304754555225 0 0 0 0
2452853504 0.05580180138349533 -0.3210360109806061 -0.0006965165957808495 -0.009171731770038605 0 0 0 0
2456575588 0.02467108517885208 -0.31336140632629395 -0.001819683238863945 -0.009460164234042168 0 0 0 0
2460297672 0.0029532648622989655 -0.29760077595710754 -0.003231261856853962 -0.0097561189904809 0 0 0 0
2464019756 -0.02096761018037796 -0.280689001083374 -0.005035269074141979 -0.009873141534626484 0 0 0 0
2467741840 -0.04108253866434097 -0.2603341341018677 -0.0068885087966918945 -0.009550269693136215 0 0 0 0
2471463924 -0.05670446902513504 -0.23705439269542694 -0.00854309368878603 -0.008741830475628376 0 0 0 0
2475186008 -0.07270495593547821 -0.2115561068058014 -0.010377543978393078 -0.007763777859508991 0 0 0 0
2478908092 -0.08135253190994263 -0.18439728021621704 -0.012114481069147587 -0.006539594382047653 0 0 0 0
2482630176 -0.08794815838336945 -0.15547442436218262 -0.013792384415864944 -0.004562540911138058 0 0 0 0
2486352260 -0.08851755410432816 -0.1260894536972046 -0.015181107446551323 -0.002294684760272503 0 0 0 0
2490074344 -0.08517000079154968 -0.09601308405399323 -0.015876080840826035 0.0004570912569761276 0 0 0 0
2493796428 -0.07588768005371094 -0.06618916988372803 -0.016108190640807152 0.0034171417355537415 0 0 0 0
2497518512 -0.06364407390356064 -0.03890349715948105 -0.015350723639130592 0.0067017534747719765 0 0 0 0
2501240596 -0.04625926539301872 -0.013896793127059937 -0.014057278633117676 0.009298664517700672 0 0 0 0
2504962680 -0.025158310309052467 0.007413302548229694 -0.012718134559690952 0.011308769695460796 0 0 0 0
2508684764 -0.001481158658862114 0.025490641593933105 -0.010693322867155075 0.013779527507722378 0 0 0 0
2512406848 0.024247024208307266 0.04037937894463539 -0.008214283734560013 0.016081206500530243 0 0 0 0
2516128932 0.053440798074007034 0.05078403279185295 -0.005041179247200489 0.017980383709073067 0 0 0 0
2519851016 0.08330865204334259 0.056585803627967834 -0.0011442787945270538 0.018777739256620407 0 0 0 0
2523573100 0.11414691060781479 0.05504564940929413 0.0028659524396061897 0.01823042519390583 0 0 0 0
2527295184 0.14324839413166046 0.05053452029824257 0.006170058622956276 0.01698376052081585 0 0 0 0
2531017268 0.17123402655124664 0.038333769887685776 0.009018177166581154 0.015072355978190899 0 0 0 0
2534739352 0.1950439065694809 0.023355582728981972 0.01166117750108242 0.012640680186450481 0 0 0 0
2538461436 0.21634647250175476 0.007716022431850433 0.013624393381178379 0.010232005268335342 0 0 0 0
2542183520 0.23263895511627197 -0.012660093605518341 0.015210903249680996 0.006895015947520733 0 0 0 0
2545905604 0.24643270671367645 -0.035835057497024536 0.01587493158876896 0.0035471245646476746 0 0 0 0
2549627688 0.25659894943237305 -0.057703956961631775 0.015840955078601837 0.00035393424332141876 0 0 0 0
2553349772 0.2628660798072815 -0.08192340284585953 0.015105193480849266 -0.0031104274094104767 0 0 0 0
2557071856 0.26671990752220154 -0.10474086552858353 0.013313494622707367 -0.005928301252424717 0 0 0 0
2560793940 0.26453691720962524 -0.1256830245256424 0.010929039679467678 -0.007712820544838905 0 0 0 0
2564516024 0.2594568133354187 -0.14938649535179138 0.008698816411197186 -0.009030705317854881 0 0 0 0
2568238108 0.25262710452079773 -0.17003241181373596 0.00646450649946928 -0.009764713235199451 0 0 0 0
2571960192 0.2424442619085312 -0.18715029954910278 0.004808608442544937 -0.010160750709474087 0 0 0 0
2575682276 0.23056413233280182 -0.20616762340068817 0.0027607809752225876 -0.010245656594634056 0 0 0 0
2579404360 0.21951359510421753 -0.2179742455482483 0.0013329321518540382 -0.010005084797739983 0 0 0 0
2583126444 0.20556609332561493 -0.2307153195142746 0.00019629020243883133 -0.00973748229444027 0 0 0 0
2586848528 0.1876572221517563 -0.24286842346191406 -0.0013300562277436256 -0.009693125262856483 0 0 0 0
2590570612 0.17125830054283142 -0.248336061835289 -0.002946026623249054 -0.00921434722840786 0 0 0 0
2594292696 0.15399503707885742 -0.2532340884208679 -0.004311251454055309 -0.008179301396012306 0 0 0 0
2598014780 0.1372804343700409 -0.2563493847846985 -0.005400348454713821 -0.007160142995417118 0 0 0 0
2601736864 0.11840354651212692 -0.25636017322540283 -0.006216994486749172 -0.005890675820410252 0 0 0 0
2605458948 0.09699144959449768 -0.2548813819885254 -0.006692343391478062 -0.004542475566267967 0 0 0 0
2609181032 0.08234038203954697 -0.2487131953239441 -0.007149090059101582 -0.003206087276339531 0 0 0 0
2612903116 0.06612717360258102 -0.24072745442390442 -0.0070167044177651405 -0.0020774854347109795 0 0 0 0
2616625200 0.05197809264063835 -0.22876939177513123 -0.006550236605107784 -0.0008468525484204292 0 0 0 0
2620347284 0.043752651661634445 -0.21597632765769958 -0.00590774230659008 -6.082653999328613e-05 0 0 0 0
2624069368 0.032858800143003464 -0.20284534990787506 -0.00510486401617527 0.0004527149721980095 0 0 0 0
2627791452 0.027990330010652542 -0.18776367604732513 -0.0044432347640395164 0.0006756996735930443 0 0 0 0
2631513536 0.02627791464328766 -0.17340832948684692 -0.004312913864850998 0.0006104884669184685 0 0 0 0
2635235620 0.026511698961257935 -0.16018493473529816 -0.00421720277518034 0.000820050947368145 0 0 0 0
2638957704 0.027424193918704987 -0.1473379135131836 -0.004151972010731697 0.0011530471965670586 0 0 0 0
2642679788 0.03170101344585419 -0.1341855227947235 -0.0037171412259340286 0.001509159803390503 0 0 0 0
2646401872 0.03679453954100609 -0.12288457900285721 -0.003420737572014332 0.001833396963775158 0 0 0 0
2650123956 0.0439678356051445 -0.11311151832342148 -0.0029051601886749268 0.001941724680364132 0 0 0 0
2653846040 0.05275053530931473 -0.10475294291973114 -0.0026000263169407845 0.001695103943347931 0 0 0 0
2657568124 0.06436244398355484 -0.0980726033449173 -0.002595679834485054 0.001314082182943821 0 0 0 0
2661290208 0.07652334123849869 -0.09595208615064621 -0.0029161423444747925 0.001342599280178547 0 0 0 0
2665012292 0.08905591070652008 -0.09554033726453781 -0.003298405557870865 0.001668800599873066 0 0 0 0
2668734376 0.09805463999509811 -0.09982706606388092 -0.0034729307517409325 0.0022221868857741356 0 0 0 0
2672456460 0.10745470225811005 -0.10451705753803253 -0.0033887894824147224 0.0030649080872535706 0 0 0 0
2676178544 0.11458604782819748 -0.11118701100349426 -0.0028565265238285065 0.0037345029413700104 0 0 0 0
2679900628 0.11884233355522156 -0.11950084567070007 -0.002213532105088234 0.00438395980745554 0 0 0 0
2683622712 0.12226410210132599 -0.12732672691345215 -0.0013771355152130127 0.004928009584546089 0 0 0 0
2687344796 0.12327548861503601 -0.13481734693050385 -0.00022262614220380783 0.005146640352904797 0 0 0 0
2691066880 0.12255489826202393 -0.14264440536499023 0.0007178271189332008 0.0049453070387244225 0 0 0 0
2694788964 0.12018425017595291 -0.151156485080719 0.0016675600782036781 0.004652995616197586 0 0 0 0
2698511048 0.1184767335653305 -0.1570858210325241 0.0024944161996245384 0.0043502384796738625 0 0 0 0
2702233132 0.11395302414894104 -0.16363176703453064 0.003492964431643486 0.0036737918853759766 0 0 0 0
2705955216 0.10769045352935791 -0.1710273176431656 0.004195008426904678 0.002708040177822113 0 0 0 0
2709677300 0.10022393614053726 -0.17643816769123077 0.00452939048409462 0.00171759445220232 0 0 0 0
2713399384 0.09000523388385773 -0.18205343186855316 0.004622213542461395 0.0004727160558104515 0 0 0 0
2717121468 0.08083818852901459 -0.18291223049163818 0.004330554977059364 -0.0002223355695605278 0 0 0 0
2720843552 0.06772633641958237 -0.1852703094482422 0.004096299409866333 -0.0009486181661486626 0 0 0 0
2724565636 0.05632440000772476 -0.18283632397651672 0.003662773407995701 -0.0016715656965970993 0 0 0 0
2728287720 0.043934933841228485 -0.17756211757659912 0.003232262097299099 -0.0020853737369179726 0 0 0 0
2732009804 0.03382965922355652 -0.17042721807956696 0.00286000594496727 -0.0025609293952584267 0 0 0 0
2735731888 0.023349493741989136 -0.16087926924228668 0.00243200920522213 -0.002914655953645706 0 0 0 0
2739453972 0.01683170534670353 -0.15084463357925415 0.0020465031266212463 -0.003231876529753208 0 0 0 0
2743176056 0.010016188956797123 -0.1380028873682022 0.0016602352261543274 -0.0034260964021086693 0 0 0 0
2746898140 0.00506972149014473 -0.12432685494422913 0.0010816771537065506 -0.0036416444927453995 0 0 0 0
2750620224 0.004772409796714783 -0.11027507483959198 0.000729752704501152 -0.0036463234573602676 0 0 0 0
2754342308 0.004141408950090408 -0.0949329137802124 0.0004053376615047455 -0.004032446071505547 0 0 0 0
2758064392 0.005933813750743866 -0.08032747358083725 -0.0004646480083465576 -0.00427020899951458 0 0 0 0
2761786476 0.011654620058834553 -0.06431186199188232 -0.0013919025659561157 -0.004216184839606285 0 0 0 0
2765508560 0.018389884382486343 -0.04911118373274803 -0.002187974750995636 -0.003799324855208397 0 0 0 0
2769230644 0.02953329309821129 -0.03466114401817322 -0.0027886852622032166 -0.0031187841668725014 0 0 0 0
2772952728 0.043286241590976715 -0.022331710904836655 -0.00301443412899971 -0.0023540910333395004 0 0 0 0
2776674812 0.05847962573170662 -0.012701043859124184 -0.002981598488986492 -0.0017852447926998138 0 0 0 0
2780396896 0.07597227394580841 -0.005153493024408817 -0.002946915104985237 -0.0015176637098193169 0 0 0 0
2784118980 0.09468040615320206 0.0013090409338474274 -0.003299964591860771 -0.0010348018258810043 0 0 0 0
2787841064 0.11474497616291046 0.0027413517236709595 -0.003267125226557255 -0.0002313973382115364 0 0 0 0
2791563148 0.13545896112918854 0.0015301480889320374 -0.0030555659905076027 0.00048306677490472794 0 0 0 0
2795285232 0.15684598684310913 -0.0025441423058509827 -0.0026263147592544556 0.001002172939479351 0 0 0 0
2799007316 0.1789197325706482 -0.010845445096492767 -0.0019032247364521027 0.001313706859946251 0 0 0 0
2802729400 0.1980910748243332 -0.02276502549648285 -0.0012204265221953392 0.0010652225464582443 0 0 0 0
2806451484 0.21481555700302124 -0.03856680542230606 -0.000963856466114521 0.0007887911051511765 0 0 0 0
2810173568 0.22893643379211426 -0.056942474097013474 -0.0010786252096295357 0.0008750967681407928 0 0 0 0
2813895652 0.24181312322616577 -0.07713057100772858 -0.0008804332464933395 0.0010605985298752785 0 0 0 0
2817617736 0.2486557960510254 -0.10029135644435883 -0.00043008942157030106 0.0012022517621517181 0 0 0 0
2821339820 0.2536208927631378 -0.1247977614402771 8.483882993459702e-05 0.001096024177968502 0 0 0 0
2825061904 0.2541428208351135 -0.147874116897583 0.000345032662153244 0.0007304027676582336 0 0 0 0
2828783988 0.2524934411048889 -0.17104648053646088 0.0004155067726969719 0.000400506891310215 0 0 0 0
2832506072 0.248777836561203 -0.19238577783107758 0.0003406452015042305 3.3000484108924866e-05 0 0 0 0
2836228156 0.23966673016548157 -0.21593768894672394 0.00019752606749534607 -1.6735866665840149e-06 0 0 0 0
2839950240 0.22524067759513855 -0.23857934772968292 3.180932253599167e-05 -3.172643482685089e-05 0 0 0 0
2843672324 0.21227394044399261 -0.25433555245399475 0.00014231819659471512 2.278108149766922e-05 0 0 0 0
2847394408 0.1962539404630661 -0.2704620063304901 0.00012169592082500458 -4.637334495782852e-05 0 0 0 0
2851116492 0.1777098923921585 -0.2856164574623108 0.00013842526823282242 1.141522079706192e-05 0 0 0 0
2854838576 0.15563036501407623 -0.2980988621711731 0.00028983689844608307 1.2419186532497406e-05 0 0 0 0
2858560660 0.13884444534778595 -0.3081040382385254 0.0003920057788491249 -0.00034546852111816406 0 0 0 0
2862282744 0.10734042525291443 -0.31753772497177124 0.0005762437358498573 -0.0004887618124485016 0 0 0 0
2866004828 0.09068180620670319 -0.3180447220802307 0.0007529621943831444 -0.0005776816979050636 0 0 0 0
2869726912 0.0637650191783905 -0.3198035657405853 0.0008821869269013405 -0.0007759323343634605 0 0 0 0
2873448996 0.03843533992767334 -0.31798943877220154 0.0006206249818205833 -0.0010542692616581917 0 0 0 0
2877171080 0.01521934475749731 -0.3120723068714142 0.00045191310346126556 -0.0012135440483689308 0 0 0 0
2880893164 -0.009313315153121948 -0.30307114124298096 0.00021104980260133743 -0.0013753939419984818 0 0 0 0
2884615248 -0.03415191173553467 -0.28999829292297363 -6.58426433801651e-05 -0.0013590864837169647 0 0 0 0
2888337332 -0.05277704447507858 -0.2752123475074768 -0.00033258646726608276 -0.001209806650876999 0 0 0 0
2892059416 -0.06876680254936218 -0.25817009806632996 -0.00048075616359710693 -0.0010161986574530602 0 0 0 0
2895781500 -0.08644261956214905 -0.2387072592973709 -0.0006840741261839867 -0.0008103605359792709 0 0 0 0
2899503584 -0.1034529060125351 -0.21505436301231384 -0.0007564602419734001 -0.00044504180550575256 0 0 0 0
2903225668 -0.11514163017272949 -0.18956071138381958 -0.0006014835089445114 -5.495734512805939e-05 0 0 0 0
2906947752 -0.12225700914859772 -0.16362211108207703 -0.00023561064153909683 0.00019606389105319977 0 0 0 0
2910669836 -0.12483921647071838 -0.13782618939876556 0.0001621190458536148 0.0002451585605740547 0 0 0 0
2914391920 -0.12476573139429092 -0.10997943580150604 0.00027721934020519257 5.630031228065491e-05 0 0 0 0
2918114004 -0.12040407955646515 -0.08403512835502625 0.0005382001399993896 -0.00010403897613286972 0 0 0 0
2921836088 -0.1140318512916565 -0.05932668596506119 0.000560292974114418 -0.00021415762603282928 0 0 0 0
2925558172 -0.10564354062080383 -0.034864410758018494 0.0006528496742248535 -0.00046530459076166153 0 0 0 0
2929280256 -0.09329251945018768 -0.010133538395166397 0.0003805616870522499 -0.0006246753036975861 0 0 0 0
2933002340 -0.07697147130966187 0.01145765371620655 0.00012287870049476624 -0.0005545727908611298 0 0 0 0
2936724424 -0.058013059198856354 0.03148625046014786 1.6382895410060883e-05 -0.0003137318417429924 0 0 0 0
2940446508 -0.03796844929456711 0.04831857234239578 -7.092487066984177e-05 -0.00013520102947950363 0 0 0 0
2944168592 -0.015170605853199959 0.06225425750017166 -0.00010063312947750092 -2.985820174217224e-06 0 0 0 0
2947890676 0.010848388075828552 0.07424215972423553 6.379466503858566e-05 0.0004009408876299858 0 0 0 0
2951612760 0.037592142820358276 0.08282458037137985 0.0003018733114004135 0.0006107743829488754 0 0 0 0
2955334844 0.0656777173280716 0.08584586530923843 0.0008698347955942154 0.0008673500269651413 0 0 0 0
2959056928 0.09437413513660431 0.08480839431285858 0.0012727463617920876 0.0007541459053754807 0 0 0 0
2962779012 0.12206226587295532 0.08065830916166306 0.001559251919388771 0.000698920339345932 0 0 0 0
2966501096 0.14848372340202332 0.07144130766391754 0.0020225774496793747 0.0004502777010202408 0 0 0 0
2970223180 0.17150504887104034 0.060731206089258194 0.002657896839082241 -3.319326788187027e-05 0 0 0 0
2973945264 0.19345581531524658 0.045392684638500214 0.002609068527817726 -0.0007157530635595322 0 0 0 0
2977667348 0.2137051671743393 0.027920741587877274 0.0024500349536538124 -0.0013734949752688408 0 0 0 0
2981389432 0.23248818516731262 0.008289650082588196 0.0021572429686784744 -0.0018101586028933525 0 0 0 0
2985111516 0.24577347934246063 -0.013415850698947906 0.001893884502351284 -0.0020138947293162346 0 0 0 0
2988833600 0.2559949457645416 -0.03580418974161148 0.0013177208602428436 -0.002270991913974285 0 0 0 0
2992555684 0.264773428440094 -0.059494465589523315 0.0010666390880942345 -0.00242764875292778 0 0 0 0
2996277768 0.2685404419898987 -0.08596764504909515 0.0005229655653238297 -0.0025533586740493774 0 0 0 0
2999999852 0.27054810523986816 -0.10763096809387207 0.00015410687774419785 -0.0024728504940867424 0 0 0 0
