# HZ S RI R 50
1500000000 -0.1548132300376892 -0.005376160144805908 0.07157427817583084 -0.0338723324239254 0 0 0 0
1503722084 -0.13186070322990417 0.028968650847673416 0.06308552622795105 -0.045883700251579285 0 0 0 0
1507444168 -0.10160373151302338 0.06109035387635231 0.05164162814617157 -0.05640696734189987 0 0 0 0
1511166252 -0.06474346667528152 0.08745057880878448 0.0381910502910614 -0.06332412362098694 0 0 0 0
1514888336 -0.023094095289707184 0.10835778713226318 0.02372850477695465 -0.06654350459575653 0 0 0 0
1518610420 0.02391783893108368 0.12226863205432892 0.010568203404545784 -0.06630249321460724 0 0 0 0
1522332504 0.0761507898569107 0.12598377466201782 -0.00200069323182106 -0.063505157828331 0 0 0 0
1526054588 0.12778308987617493 0.12062475085258484 -0.012115485966205597 -0.0587378665804863 0 0 0 0
1529776672 0.1785571128129959 0.10671274363994598 -0.020626839250326157 -0.052825260907411575 0 0 0 0
1533498756 0.22776061296463013 0.08334137499332428 -0.027612481266260147 -0.04579611122608185 0 0 0 0
1537220840 0.2734219431877136 0.048808738589286804 -0.03278294950723648 -0.038099680095911026 0 0 0 0
1540942924 0.31199878454208374 0.007927797734737396 -0.035255316644907 -0.030314676463603973 0 0 0 0
1544665008 0.34212008118629456 -0.03880976140499115 -0.03640900179743767 -0.023563727736473083 0 0 0 0
1548387092 0.36506199836730957 -0.09073063731193542 -0.036950480192899704 -0.01809963956475258 0 0 0 0
1552109176 0.378429651260376 -0.14523309469223022 -0.03746699169278145 -0.012226101011037827 0 0 0 0
1555831260 0.38435420393943787 -0.20148396492004395 -0.03718709573149681 -0.006870669312775135 0 0 0 0
1559553344 0.3808998167514801 -0.25657376646995544 -0.03587913513183594 -0.0013001393526792526 0 0 0 0
1563275428 0.36979198455810547 -0.3124237656593323 -0.03394804894924164 0.0030933357775211334 0 0 0 0
1566997512 0.3510172367095947 -0.36676162481307983 -0.03160813823342323 0.0072240326553583145 0 0 0 0
1570719596 0.32463929057121277 -0.4195747375488281 -0.029119450598955154 0.010562198236584663 0 0 0 0
1574441680 0.2875913381576538 -0.4676074981689453 -0.026189161464571953 0.013198448345065117 0 0 0 0
1578163764 0.2453300952911377 -0.5075104832649231 -0.023700367659330368 0.015279672108590603 0 0 0 0
1581885848 0.19851501286029816 -0.5413835644721985 -0.021516194567084312 0.017115943133831024 0 0 0 0
1585607932 0.14119796454906464 -0.5677555799484253 -0.018803194165229797 0.019203975796699524 0 0 0 0
1589330016 0.08536764979362488 -0.5867111682891846 -0.016000980511307716 0.02085622027516365 0 0 0 0
1593052100 0.023495778441429138 -0.5965451598167419 -0.013422369956970215 0.02202817052602768 0 0 0 0
1596774184 -0.03917151689529419 -0.5984660387039185 -0.011013529263436794 0.023230496793985367 0 0 0 0
1600496268 -0.09948505461215973 -0.5905580520629883 -0.00812685489654541 0.024582257494330406 0 0 0 0
1604218352 -0.15797309577465057 -0.5732762217521667 -0.004934987053275108 0.02567143738269806 0 0 0 0
1607940436 -0.21255972981452942 -0.5478783249855042 -0.0013873511925339699 0.026242516934871674 0 0 0 0
1611662520 -0.26878297328948975 -0.5140298008918762 0.00240878202021122 0.02621835470199585 0 0 0 0
1615384604 -0.3196972608566284 -0.4723503589630127 0.006224022246897221 0.02577107399702072 0 0 0 0
1619106688 -0.35944849252700806 -0.42645740509033203 0.009738952852785587 0.02505260705947876 0 0 0 0
1622828772 -0.39613908529281616 -0.3742963671684265 0.01380663737654686 0.023958010599017143 0 0 0 0
1626550856 -0.42345044016838074 -0.31625378131866455 0.018096737563610077 0.02192726545035839 0 0 0 0
1630272940 -0.44524943828582764 -0.2512425184249878 0.022276122123003006 0.01839704066514969 0 0 0 0
1633995024 -0.4569392800331116 -0.18670466542243958 0.025385122746229172 0.014211407862603664 0 0 0 0
1637717108 -0.4600622057914734 -0.12102647125720978 0.027812311425805092 0.009088270366191864 0 0 0 0
1641439192 -0.45397302508354187 -0.05127623677253723 0.028601260855793953 0.0032664891332387924 0 0 0 0
1645161276 -0.4375714659690857 0.018893029540777206 0.028040386736392975 -0.0022197579964995384 0 0 0 0
1648883360 -0.40865644812583923 0.08923784643411636 0.026453139260411263 -0.0073605310171842575 0 0 0 0
1652605444 -0.37093594670295715 0.15082180500030518 0.024108557030558586 -0.011777887120842934 0 0 0 0
1656327528 -0.3232767879962921 0.2059822529554367 0.021026602014899254 -0.01560813095420599 0 0 0 0
1660049612 -0.26652202010154724 0.2564709484577179 0.017174357548356056 -0.01869034208357334 0 0 0 0
1663771696 -0.19940480589866638 0.2988744080066681 0.012675303034484386 -0.021141700446605682 0 0 0 0
1667493780 -0.13255231082439423 0.3293312191963196 0.00836824532598257 -0.022285843268036842 0 0 0 0
1671215864 -0.05745610594749451 0.35208743810653687 0.003389338031411171 -0.022768881171941757 0 0 0 0
1674937948 0.02395295351743698 0.36307471990585327 -0.0015701819211244583 -0.021549800410866737 0 0 0 0
1678660032 0.10443447530269623 0.3613823652267456 -0.005435350351035595 -0.0193488709628582 0 0 0 0
1682382116 0.18700765073299408 0.3454710841178894 -0.00848851352930069 -0.016598204150795937 0 0 0 0
1686104200 0.2641286253929138 0.31730666756629944 -0.010603271424770355 -0.013501739129424095 0 0 0 0
1689826284 0.3379085958003998 0.27471137046813965 -0.011671668849885464 -0.009952321648597717 0 0 0 0
1693548368 0.40277034044265747 0.22097036242485046 -0.011737874709069729 -0.006838769651949406 0 0 0 0
1697270452 0.45603352785110474 0.16022920608520508 -0.011154580861330032 -0.004146859981119633 0 0 0 0
1700992536 0.5008100271224976 0.09139715135097504 -0.01002148725092411 -0.0021674567833542824 0 0 0 0
1704714620 0.5331035852432251 0.012210470624268055 -0.008816085755825043 -0.0006789760664105415 0 0 0 0
1708436704 0.5520390868186951 -0.06721736490726471 -0.007447346113622189 0.00040522776544094086 0 0 0 0
1712158788 0.5597041845321655 -0.14621376991271973 -0.006125051528215408 0.0009588971734046936 0 0 0 0
1715880872 0.5515502691268921 -0.22662360966205597 -0.004988150671124458 0.0009350953623652458 0 0 0 0
1719602956 0.5315504670143127 -0.30593979358673096 -0.0041944049298763275 0.0007773973047733307 0 0 0 0
1723325040 0.5034526586532593 -0.37642815709114075 -0.00360717810690403 0.0003499947488307953 0 0 0 0
1727047124 0.46332404017448425 -0.44127294421195984 -0.003362225368618965 -0.00021013151854276657 0 0 0 0
1730769208 0.41453826427459717 -0.49895840883255005 -0.003595218062400818 -0.0005842400714755058 0 0 0 0
1734491292 0.3552204966545105 -0.5511541366577148 -0.003977634944021702 -0.000629303976893425 0 0 0 0
1738213376 0.29520007967948914 -0.5890644192695618 -0.004306033253669739 -0.0006582979112863541 0 0 0 0
1741935460 0.22357115149497986 -0.6173663139343262 -0.0046272240579128265 -0.00034777913242578506 0 0 0 0
1745657544 0.15271466970443726 -0.633719265460968 -0.005004259757697582 -0.0001908615231513977 0 0 0 0
1749379628 0.08202303946018219 -0.6405150294303894 -0.005404980853199959 0.00028521474450826645 0 0 0 0
1753101712 0.013399362564086914 -0.6356830596923828 -0.0055016325786709785 0.000986224040389061 0 0 0 0
1756823796 -0.05533568561077118 -0.6196389198303223 -0.005396347492933273 0.0013243500143289566 0 0 0 0
1760545880 -0.11425037682056427 -0.5947889089584351 -0.0055156853049993515 0.0015641599893569946 0 0 0 0
1764267964 -0.17351257801055908 -0.5605679750442505 -0.005581253208220005 0.0016530686989426613 0 0 0 0
1767990048 -0.22086220979690552 -0.5216248035430908 -0.006093544885516167 0.00180143304169178 0 0 0 0
1771712132 -0.2633974552154541 -0.473762571811676 -0.006922364234924316 0.0021234145388007164 0 0 0 0
1775434216 -0.29971733689308167 -0.42245036363601685 -0.008296020328998566 0.0031251804903149605 0 0 0 0
1779156300 -0.32256442308425903 -0.3692103624343872 -0.009310330264270306 0.005112134851515293 0 0 0 0
1782878384 -0.34298253059387207 -0.3128228783607483 -0.009811238385736942 0.007570059038698673 0 0 0 0
1786600468 -0.35363322496414185 -0.2558175027370453 -0.009636355563998222 0.01044242549687624 0 0 0 0
1790322552 -0.35635679960250854 -0.19845658540725708 -0.008570387959480286 0.013539603911340237 0 0 0 0
1794044636 -0.3527570366859436 -0.13948464393615723 -0.0063111502677202225 0.016656097024679184 0 0 0 0
1797766720 -0.3390533924102783 -0.08447059243917465 -0.003412548452615738 0.019219841808080673 0 0 0 0
1801488804 -0.3193485736846924 -0.03139358013868332 0.00020207557827234268 0.021548699587583542 0 0 0 0
1805210888 -0.2910248637199402 0.019054792821407318 0.004993190988898277 0.022938093170523643 0 0 0 0
1808932972 -0.25318366289138794 0.06829160451889038 0.010698314756155014 0.023069702088832855 0 0 0 0
1812655056 -0.20962949097156525 0.10645429790019989 0.016395002603530884 0.02169686183333397 0 0 0 0
1816377140 -0.15944799780845642 0.1378663182258606 0.02171475812792778 0.018886111676692963 0 0 0 0
1820099224 -0.10450202226638794 0.15984046459197998 0.026643747463822365 0.014674404636025429 0 0 0 0
1823821308 -0.048177339136600494 0.1701231598854065 0.030537839978933334 0.008588743396103382 0 0 0 0
1827543392 0.0076870396733284 0.17166316509246826 0.032414503395557404 0.0015749577432870865 0 0 0 0
1831265476 0.06104246899485588 0.1636255830526352 0.0324406735599041 -0.005265179090201855 0 0 0 0
1834987560 0.11189781129360199 0.1466616988182068 0.030778808519244194 -0.012330093421041965 0 0 0 0
1838709644 0.1560916006565094 0.12431888282299042 0.027954747900366783 -0.018101491034030914 0 0 0 0
1842431728 0.19560131430625916 0.09525968879461288 0.024100011214613914 -0.02303342893719673 0 0 0 0
1846153812 0.2282225787639618 0.06164756417274475 0.019719451665878296 -0.0266626738011837 0 0 0 0
1849875896 0.25439906120300293 0.022735893726348877 0.014493214897811413 -0.029993494972586632 0 0 0 0
1853597980 0.2747320830821991 -0.013498440384864807 0.009086954407393932 -0.03189779072999954 0 0 0 0
1857320064 0.2880506217479706 -0.053265105932950974 0.003923910669982433 -0.03263164684176445 0 0 0 0
1861042148 0.2950262725353241 -0.0955825001001358 -0.0011586900800466537 -0.03355023264884949 0 0 0 0
1864764232 0.29291006922721863 -0.13732662796974182 -0.007680704817175865 -0.03365190699696541 0 0 0 0
1868486316 0.28654858469963074 -0.17492082715034485 -0.014316054061055183 -0.03207068890333176 0 0 0 0
1872208400 0.27564001083374023 -0.20950335264205933 -0.02008523792028427 -0.02875971794128418 0 0 0 0
1875930484 0.25909990072250366 -0.2416219860315323 -0.02454506978392601 -0.024073859676718712 0 0 0 0
1879652568 0.23834481835365295 -0.2725479304790497 -0.028050467371940613 -0.019752083346247673 0 0 0 0
1883374652 0.21306967735290527 -0.29804304242134094 -0.03105335868895054 -0.014911516569554806 0 0 0 0
1887096736 0.18454790115356445 -0.31746169924736023 -0.03346603736281395 -0.009971978142857552 0 0 0 0
1890818820 0.15198534727096558 -0.33295419812202454 -0.035257890820503235 -0.004344194196164608 0 0 0 0
1894540904 0.12059208005666733 -0.3412070572376251 -0.0362345390021801 0.0014557288959622383 0 0 0 0
1898262988 0.0860121101140976 -0.34465110301971436 -0.03627574443817139 0.007760276086628437 0 0 0 0
1901985072 0.053311243653297424 -0.34127554297447205 -0.03499089926481247 0.014769996516406536 0 0 0 0
1905707156 0.022882569581270218 -0.33137261867523193 -0.03219547122716904 0.020880214869976044 0 0 0 0
1909429240 -0.004101328551769257 -0.31905344128608704 -0.02835407480597496 0.02677060291171074 0 0 0 0
1913151324 -0.030400380492210388 -0.30093756318092346 -0.023319460451602936 0.032125942409038544 0 0 0 0
1916873408 -0.04962247610092163 -0.2793692350387573 -0.017429715022444725 0.03640543296933174 0 0 0 0
1920595492 -0.06595856696367264 -0.25444719195365906 -0.010332022793591022 0.0398578904569149 0 0 0 0
1924317576 -0.07728017866611481 -0.2275949865579605 -0.002428673207759857 0.0416535958647728 0 0 0 0
1928039660 -0.08251483738422394 -0.19980046153068542 0.00632152333855629 0.0417235791683197 0 0 0 0
1931761744 -0.08555226027965546 -0.17262759804725647 0.015133331529796124 0.03894948586821556 0 0 0 0
1935483828 -0.08175413310527802 -0.14624007046222687 0.022216979414224625 0.03392595797777176 0 0 0 0
1939205912 -0.07461929321289062 -0.12030541151762009 0.026971157640218735 0.02810273878276348 0 0 0 0
1942927996 -0.06407678127288818 -0.09603763371706009 0.030159011483192444 0.02212805487215519 0 0 0 0
1946650080 -0.049146510660648346 -0.07309820502996445 0.032507821917533875 0.016751013696193695 0 0 0 0
1950372164 -0.029385071247816086 -0.05242147669196129 0.034409184008836746 0.011652372777462006 0 0 0 0
1954094248 -0.005807206034660339 -0.036165788769721985 0.03626701980829239 0.0066194962710142136 0 0 0 0
1957816332 0.020805828273296356 -0.02538146823644638 0.03772155940532684 0.00011830031871795654 0 0 0 0
1961538416 0.04784674942493439 -0.019849903881549835 0.03776753693819046 -0.007514478638768196 0 0 0 0
1965260500 0.07581235468387604 -0.01877114176750183 0.0354464128613472 -0.015210859477519989 0 0 0 0
1968982584 0.10342592000961304 -0.023615796118974686 0.0318160317838192 -0.02138528972864151 0 0 0 0
1972704668 0.1296822875738144 -0.03288033977150917 0.027383793145418167 -0.0265254657715559 0 0 0 0
1976426752 0.15382622182369232 -0.047500744462013245 0.021736273542046547 -0.03152447193861008 0 0 0 0
1980148836 0.17509041726589203 -0.06521038711071014 0.01568235456943512 -0.035178449004888535 0 0 0 0
1983870920 0.1926664263010025 -0.08871627599000931 0.008221442811191082 -0.03743655979633331 0 0 0 0
1987593004 0.20623481273651123 -0.11356896162033081 0.0009482698515057564 -0.03829116001725197 0 0 0 0
1991315088 0.2115546315908432 -0.14234326779842377 -0.0067460136488080025 -0.037313055247068405 0 0 0 0
1995037172 0.21220390498638153 -0.1702578067779541 -0.01375765260308981 -0.03462154418230057 0 0 0 0
1998759256 0.20695602893829346 -0.19877848029136658 -0.019847463816404343 -0.030266815796494484 0 0 0 0
2002481340 0.2004639357328415 -0.22222647070884705 -0.023971905931830406 -0.026005081832408905 0 0 0 0
2006203424 0.18538206815719604 -0.24626094102859497 -0.02744077518582344 -0.021111251786351204 0 0 0 0
2009925508 0.16763639450073242 -0.265198290348053 -0.030054409056901932 -0.016763143241405487 0 0 0 0
2013647592 0.14935830235481262 -0.28083738684654236 -0.032756954431533813 -0.011904332786798477 0 0 0 0
2017369676 0.12602999806404114 -0.29507964849472046 -0.03491166979074478 -0.0060944100841879845 0 0 0 0
2021091760 0.10330861806869507 -0.3042106032371521 -0.03623221069574356 0.0007915347814559937 0 0 0 0
2024813844 0.07801517844200134 -0.30949562788009644 -0.03584645316004753 0.008062276057898998 0 0 0 0
2028535928 0.052982449531555176 -0.31023895740509033 -0.03352539986371994 0.015110061503946781 0 0 0 0
2032258012 0.025264285504817963 -0.307452529668808 -0.029133301228284836 0.021067209541797638 0 0 0 0
2035980096 -0.0003637373447418213 -0.29950839281082153 -0.02409302443265915 0.025208555161952972 0 0 0 0
2039702180 -0.02661936730146408 -0.28830277919769287 -0.018829038366675377 0.028259707614779472 0 0 0 0
2043424264 -0.04803535342216492 -0.272116482257843 -0.01357661560177803 0.03044777922332287 0 0 0 0
2047146348 -0.06826647371053696 -0.25247231125831604 -0.008267740719020367 0.03143715858459473 0 0 0 0
2050868432 -0.08601304143667221 -0.22855091094970703 -0.0028435764834284782 0.03182407468557358 0 0 0 0
2054590516 -0.09877048432826996 -0.2030041515827179 0.0015153856948018074 0.03143349289894104 0 0 0 0
2058312600 -0.1106223538517952 -0.17344658076763153 0.00646582618355751 0.030687455087900162 0 0 0 0
2062034684 -0.11392529308795929 -0.14413729310035706 0.01130894385278225 0.029232490807771683 0 0 0 0
2065756768 -0.11336526274681091 -0.11306145787239075 0.016002681106328964 0.02711842581629753 0 0 0 0
2069478852 -0.10967137664556503 -0.08014431595802307 0.020452387630939484 0.024219049140810966 0 0 0 0
2073200936 -0.09957375377416611 -0.04741590470075607 0.02430730313062668 0.01963447593152523 0 0 0 0
2076923020 -0.08223149180412292 -0.017357032746076584 0.026693597435951233 0.015042770653963089 0 0 0 0
2080645104 -0.05954374745488167 0.010538441129028797 0.028147708624601364 0.010288296267390251 0 0 0 0
2084367188 -0.03258109092712402 0.034097716212272644 0.02849244326353073 0.006122062914073467 0 0 0 0
2088089272 -0.0012193042784929276 0.05161276459693909 0.029025450348854065 0.002400638535618782 0 0 0 0
2091811356 0.03286903351545334 0.06401222944259644 0.029715947806835175 -0.0015062037855386734 0 0 0 0
2095533440 0.06761551648378372 0.07025125622749329 0.03024960681796074 -0.006527363322675228 0 0 0 0
2099255524 0.10356263816356659 0.06950762867927551 0.02970469743013382 -0.012269267812371254 0 0 0 0
2102977608 0.13771826028823853 0.06512199342250824 0.027305210009217262 -0.018422532826662064 0 0 0 0
2106699692 0.17120255529880524 0.053964484483003616 0.022988473996520042 -0.02385985106229782 0 0 0 0
2110421776 0.20210474729537964 0.04000018537044525 0.01750325784087181 -0.027735941112041473 0 0 0 0
2114143860 0.23129892349243164 0.01760830730199814 0.011693639680743217 -0.030187014490365982 0 0 0 0
2117865944 0.2555444538593292 -0.005747556686401367 0.006071495823562145 -0.03140370175242424 0 0 0 0
2121588028 0.27523836493492126 -0.036193810403347015 -1.2976117432117462e-05 -0.03199746459722519 0 0 0 0
2125310112 0.29014861583709717 -0.06557817757129669 -0.0064239175990223885 -0.03149304538965225 0 0 0 0
2129032196 0.30019474029541016 -0.09689631313085556 -0.012840661220252514 -0.02903134748339653 0 0 0 0
2132754280 0.30388113856315613 -0.1314217448234558 -0.017947161570191383 -0.02493823692202568 0 0 0 0
2136476364 0.30346739292144775 -0.16539549827575684 -0.021483615040779114 -0.02008671686053276 0 0 0 0
2140198448 0.2968784272670746 -0.19799289107322693 -0.02356402762234211 -0.014767966233193874 0 0 0 0
2143920532 0.28376996517181396 -0.22936959564685822 -0.02446672134101391 -0.010129708796739578 0 0 0 0
2147642616 0.2668563723564148 -0.25763219594955444 -0.024509916082024574 -0.0060960473492741585 0 0 0 0
2151364700 0.24787482619285583 -0.2811881899833679 -0.024320753291249275 -0.0024873819202184677 0 0 0 0
2155086784 0.22274646162986755 -0.3024975061416626 -0.023816367611289024 0.0006929915398359299 0 0 0 0
2158808868 0.19730594754219055 -0.31848934292793274 -0.02316124178469181 0.00403441209346056 0 0 0 0
2162530952 0.17022831737995148 -0.3287937641143799 -0.022123144939541817 0.00697724986821413 0 0 0 0
2166253036 0.13695412874221802 -0.33701634407043457 -0.020875234156847 0.009963324293494225 0 0 0 0
2169975120 0.11069033294916153 -0.33845004439353943 -0.02007417194545269 0.012728102505207062 0 0 0 0
2173697204 0.07922165840864182 -0.3369872570037842 -0.018380561843514442 0.016102399677038193 0 0 0 0
2177419288 0.049494341015815735 -0.33119016885757446 -0.015530719421803951 0.019762014970183372 0 0 0 0
2181141372 0.024259846657514572 -0.3203026056289673 -0.011692816391587257 0.022399529814720154 0 0 0 0
2184863456 -0.0034064901992678642 -0.30676373839378357 -0.007559843361377716 0.024001844227313995 0 0 0 0
2188585540 -0.024899020791053772 -0.287459135055542 -0.0035862019285559654 0.025003844872117043 0 0 0 0
2192307624 -0.04472694918513298 -0.2641643285751343 0.0007395632565021515 0.025491833686828613 0 0 0 0
2196029708 -0.05966104567050934 -0.23864030838012695 0.0056549301370978355 0.025369251146912575 0 0 0 0
2199751792 -0.06899140775203705 -0.21103966236114502 0.010468478314578533 0.023821046575903893 0 0 0 0
2203473876 -0.07711835205554962 -0.1830749213695526 0.015087386593222618 0.021169964224100113 0 0 0 0
2207195960 -0.07712293416261673 -0.15614235401153564 0.018624136224389076 0.017587238922715187 0 0 0 0
2210918044 -0.07506784051656723 -0.12731152772903442 0.020959196612238884 0.01367576327174902 0 0 0 0
2214640128 -0.06882137805223465 -0.09905708581209183 0.02277282625436783 0.008708979934453964 0 0 0 0
2218362212 -0.05800800025463104 -0.07197406888008118 0.02315571904182434 0.0037893345579504967 0 0 0 0
2222084296 -0.04192143306136131 -0.04697800800204277 0.0223581213504076 -0.00023046880960464478 0 0 0 0
2225806380 -0.02154018171131611 -0.024764802306890488 0.0211271233856678 -0.003938106819987297 0 0 0 0
2229528464 0.003226619213819504 -0.007254204712808132 0.01970103569328785 -0.007244441658258438 0 0 0 0
2233250548 0.029907412827014923 0.004667023196816444 0.01776224747300148 -0.010545013472437859 0 0 0 0
2236972632 0.057547278702259064 0.012706968933343887 0.015528853982686996 -0.013466148637235165 0 0 0 0
2240694716 0.08725780993700027 0.015055112540721893 0.012691691517829895 -0.015876594930887222 0 0 0 0
2244416800 0.11530805379152298 0.009301643818616867 0.00948072038590908 -0.01766091212630272 0 0 0 0
2248138884 0.14122644066810608 0.0030640698969364166 0.005782118998467922 -0.018852602690458298 0 0 0 0
2251860968 0.16493943333625793 -0.009715285152196884 0.001630214974284172 -0.019325081259012222 0 0 0 0
2255583052 0.18557636439800262 -0.027448028326034546 -0.0017560413107275963 -0.018981896340847015 0 0 0 0
2259305136 0.2037956714630127 -0.04333735257387161 -0.004870971664786339 -0.017584828659892082 0 0 0 0
2263027220 0.21781891584396362 -0.0653059259057045 -0.007696936838328838 -0.01602175645530224 0 0 0 0
2266749304 0.2272641509771347 -0.08711113780736923 -0.009923779405653477 -0.014125671237707138 0 0 0 0
2270471388 0.2320338487625122 -0.11147623509168625 -0.011825792491436005 -0.01151592843234539 0 0 0 0
2274193472 0.2342604547739029 -0.13295304775238037 -0.013081863522529602 -0.009131968952715397 0 0 0 0
2277915556 0.23038987815380096 -0.16155332326889038 -0.014012139290571213 -0.006700639612972736 0 0 0 0
2281637640 0.22324013710021973 -0.18520322442054749 -0.014449220150709152 -0.00457262247800827 0 0 0 0
2285359724 0.21295708417892456 -0.2031417340040207 -0.014518964104354382 -0.0027436595410108566 0 0 0 0
2289081808 0.19364884495735168 -0.22533543407917023 -0.014821970835328102 -0.0003826618194580078 0 0 0 0
2292803892 0.18189705908298492 -0.23561318218708038 -0.014615349471569061 0.0017721587792038918 0 0 0 0
2296525976 0.16134774684906006 -0.24580605328083038 -0.013910174369812012 0.004030577838420868 0 0 0 0
2300248060 0.135678231716156 -0.25591006875038147 -0.012959552928805351 0.005915922112762928 0 0 0 0
2303970144 0.12249881029129028 -0.26037028431892395 -0.011334814131259918 0.00793791189789772 0 0 0 0
2307692228 0.09444373846054077 -0.2619509994983673 -0.009874632582068443 0.009344598278403282 0 0 0 0
2311414312 0.07730841636657715 -0.2589196562767029 -0.007764789275825024 0.0105194803327322 0 0 0 0
2315136396 0.05498366802930832 -0.2529466450214386 -0.005136397667229176 0.010814073495566845 0 0 0 0
2318858480 0.0308319553732872 -0.24448400735855103 -0.003504420630633831 0.010519832372665405 0 0 0 0
2322580564 0.011520206928253174 -0.23054075241088867 -0.002084452658891678 0.00993211567401886 0 0 0 0
2326302648 -0.0010635778307914734 -0.21272176504135132 -0.0007333653047680855 0.009342256933450699 0 0 0 0
2330024732 -0.019652560353279114 -0.1924997866153717 8.873175829648972e-05 0.008647503331303596 0 0 0 0
2333746816 -0.02462063543498516 -0.1706629991531372 0.0006034336984157562 0.008100316859781742 0 0 0 0
2337468900 -0.029356088489294052 -0.14662069082260132 0.0011989623308181763 0.0076513392850756645 0 0 0 0
2341190984 -0.03502718731760979 -0.11930390447378159 0.0020326953381299973 0.006972241215407848 0 0 0 0
2344913068 -0.030702468007802963 -0.0927073135972023 0.0026487307623028755 0.006016751751303673 0 0 0 0
2348635152 -0.023266561329364777 -0.06692074984312057 0.0027646124362945557 0.005307645536959171 0 0 0 0
2352357236 -0.011106671765446663 -0.042676977813243866 0.0028633205220103264 0.004520065151154995 0 0 0 0
2356079320 0.006963888183236122 -0.02117137983441353 0.0026435386389493942 0.0037932805716991425 0 0 0 0
2359801404 0.02853846736252308 -0.0026258165016770363 0.0022207023575901985 0.003621191717684269 0 0 0 0
2363523488 0.052363596856594086 0.011199637316167355 0.002271946519613266 0.003530235029757023 0 0 0 0
2367245572 0.07886667549610138 0.021396765485405922 0.0022179298102855682 0.0034141717478632927 0 0 0 0
2370967656 0.10614810883998871 0.025671619921922684 0.00245878379791975 0.0032752342522144318 0 0 0 0
2374689740 0.134810209274292 0.025945082306861877 0.0024768710136413574 0.0034341225400567055 0 0 0 0
2378411824 0.1616564840078354 0.02220945432782173 0.0026794513687491417 0.0032716402783989906 0 0 0 0
2382133908 0.18967358767986298 0.014115288853645325 0.003080122172832489 0.003096013329923153 0 0 0 0
2385855992 0.2150268703699112 -0.0013469867408275604 0.0032843314111232758 0.0027578184381127357 0 0 0 0
2389578076 0.23646581172943115 -0.020038478076457977 0.0032698027789592743 0.00243363156914711 0 0 0 0
2393300160 0.2553671598434448 -0.04135849326848984 0.0029315240681171417 0.0024380143731832504 0 0 0 0
2397022244 0.268888920545578 -0.0653940737247467 0.0031799105927348137 0.0029289303347468376 0 0 0 0
2400744328 0.2808340787887573 -0.09292685985565186 0.004066654480993748 0.0033606896176934242 0 0 0 0
2404466412 0.2868579030036926 -0.11939956992864609 0.005226087756454945 0.0031591374427080154 0 0 0 0
2408188496 0.28858238458633423 -0.146916925907135 0.006414410658180714 0.002236606553196907 0 0 0 0
2411910580 0.2884991765022278 -0.16943371295928955 0.007142217829823494 0.0011234814301133156 0 0 0 0
2415632664 0.28108465671539307 -0.20125721395015717 0.007440431043505669 -0.00047545041888952255 0 0 0 0
2419354748 0.26843732595443726 -0.2277163863182068 0.007706314325332642 -0.0018987003713846207 0 0 0 0
2423076832 0.2555491626262665 -0.24792076647281647 0.007332595065236092 -0.0031423820182681084 0 0 0 0
2426798916 0.23682266473770142 -0.2696489095687866 0.00664680078625679 -0.004664557054638863 0 0 0 0
2430521000 0.2160050868988037 -0.2878612279891968 0.005717817693948746 -0.0056600067764520645 0 0 0 0
2434243084 0.19480066001415253 -0.30430838465690613 0.0061388080939650536 -0.009000005200505257 0 0 0 0
2437965168 0.17103718221187592 -0.31378623843193054 0.0036814501509070396 -0.006879025138914585 0 0 0 0
2441687252 0.1436527967453003 -0.32400771975517273 0.0029369601979851723 -0.0074449991807341576 0 0 0 0
2445409336 0.11571995913982391 -0.32891738414764404 0.0021612709388136864 -0.007604935206472874 0 0 0 0
2449131420 0.08563826978206635 -0.3285178542137146 0.0014128061011433601 -0.008276708424091339 0 0 0 0
2452853504 0.056971773505210876 -0.3233583867549896 0.0005013188347220421 -0.008933900855481625 0 0 0 0
2456575588 0.03148161619901657 -0.31395357847213745 -0.0004974519833922386 -0.009687980636954308 0 0 0 0
2460297672 0.003018215298652649 -0.30097508430480957 -0.002132916823029518 -0.010402768850326538 0 0 0 0
2464019756 -0.016720429062843323 -0.28400546312332153 -0.0041405633091926575 -0.01062450185418129 0 0 0 0
2467741840 -0.039512746036052704 -0.2637763023376465 -0.006341819651424885 -0.010250670835375786 0 0 0 0
2471463924 -0.05882704257965088 -0.2404729127883911 -0.008411283604800701 -0.009431286714971066 0 0 0 0
2475186008 -0.07208937406539917 -0.21445806324481964 -0.01021516602486372 -0.008426567539572716 0 0 0 0
2478908092 -0.08027644455432892 -0.18713665008544922 -0.011951067484915257 -0.00704598892480135 0 0 0 0
2482630176 -0.08863801509141922 -0.15737789869308472 -0.01347657386213541 -0.0049942247569561005 0 0 0 0
2486352260 -0.08967047929763794 -0.12699799239635468 -0.01458220649510622 -0.0025769518688321114 0 0 0 0
2490074344 -0.08597511053085327 -0.09615103155374527 -0.015468125231564045 -0.00022212229669094086 0 0 0 0
2493796428 -0.07755064964294434 -0.06745058298110962 -0.015591474249958992 0.002759731374680996 0 0 0 0
2497518512 -0.06525501608848572 -0.04001816734671593 -0.015195312909781933 0.005509430542588234 0 0 0 0
2501240596 -0.04796609282493591 -0.015103256329894066 -0.014253981411457062 0.008162717334926128 0 0 0 0
2504962680 -0.027560165151953697 0.007427443750202656 -0.012843044474720955 0.01049808319658041 0 0 0 0
2508684764 -0.0034144632518291473 0.02691195160150528 -0.011251083575189114 0.01273602619767189 0 0 0 0
2512406848 0.023422224447131157 0.042052607983350754 -0.00924472976475954 0.0150583041831851 0 0 0 0
2516128932 0.05336180329322815 0.05209757387638092 -0.005955002270638943 0.01709500327706337 0 0 0 0
2519851016 0.08384134620428085 0.05806029587984085 -0.002099961042404175 0.01811615750193596 0 0 0 0
2523573100 0.11500684916973114 0.057182081043720245 0.001338975504040718 0.017672086134552956 0 0 0 0
2527295184 0.14555445313453674 0.05049692466855049 0.004449882544577122 0.016757173463702202 0 0 0 0
2531017268 0.17436878383159637 0.03866548836231232 0.007479960098862648 0.015580599196255207 0 0 0 0
2534739352 0.19805388152599335 0.022655649110674858 0.010220417752861977 0.013803079724311829 0 0 0 0
2538461436 0.21837788820266724 0.0047187358140945435 0.012652009725570679 0.011490004137158394 0 0 0 0
2542183520 0.23494336009025574 -0.015749730169773102 0.014543287456035614 0.008519377559423447 0 0 0 0
2545905604 0.24783357977867126 -0.037524737417697906 0.016042150557041168 0.0054189665243029594 0 0 0 0
2549627688 0.2569335401058197 -0.06257797032594681 0.016636531800031662 0.0018267575651407242 0 0 0 0
2553349772 0.2621307075023651 -0.08611642569303513 0.01654226705431938 -0.002095898613333702 0 0 0 0
2557071856 0.26209279894828796 -0.10770479589700699 0.014874839223921299 -0.006031722761690617 0 0 0 0
2560793940 0.26041722297668457 -0.13191761076450348 0.012101671658456326 -0.008853092789649963 0 0 0 0
2564516024 0.25712472200393677 -0.14982447028160095 0.009434238076210022 -0.010101832449436188 0 0 0 0
2568238108 0.249151811003685 -0.17107032239437103 0.006901388987898827 -0.01086152158677578 0 0 0 0
2571960192 0.24140408635139465 -0.18643584847450256 0.004727610386908054 -0.011142939329147339 0 0 0 0
2575682276 0.22791171073913574 -0.2052258849143982 0.002472170628607273 -0.011315937153995037 0 0 0 0
2579404360 0.21599096059799194 -0.21746543049812317 0.0006884504109621048 -0.010780182667076588 0 0 0 0
2583126444 0.20326869189739227 -0.22799572348594666 -0.0008380608633160591 -0.010368376970291138 0 0 0 0
2586848528 0.18774552643299103 -0.23840221762657166 -0.002374812960624695 -0.009944193065166473 0 0 0 0
2590570612 0.1698521077632904 -0.2472766637802124 -0.003883776254951954 -0.009133904241025448 0 0 0 0
2594292696 0.15320473909378052 -0.2515801787376404 -0.005107679404318333 -0.007851251401007175 0 0 0 0
2598014780 0.1340073198080063 -0.25665828585624695 -0.005829714238643646 -0.006857444532215595 0 0 0 0
2601736864 0.11934687197208405 -0.2554172873497009 -0.006629428826272488 -0.005726217292249203 0 0 0 0
2605458948 0.09975951910018921 -0.25240379571914673 -0.007267639972269535 -0.004157667048275471 0 0 0 0
2609181032 0.08162811398506165 -0.247267946600914 -0.0074638063088059425 -0.002775881439447403 0 0 0 0
2612903116 0.06721227616071701 -0.23831498622894287 -0.007018019445240498 -0.0013521621003746986 0 0 0 0
2616625200 0.055929359048604965 -0.22723135352134705 -0.0066001033410429955 -0.0002852044999599457 0 0 0 0
2620347284 0.042071692645549774 -0.2155226469039917 -0.005714253522455692 0.00046592671424150467 0 0 0 0
2624069368 0.03508027270436287 -0.2022361159324646 -0.004919273778796196 0.0007664384320378304 0 0 0 0
2627791452 0.02929120510816574 -0.1878652274608612 -0.004351847805082798 0.0009275740012526512 0 0 0 0
2631513536 0.026081964373588562 -0.17343278229236603 -0.0042756106704473495 0.0007833344861865044 0 0 0 0
2635235620 0.027158556506037712 -0.15908034145832062 -0.004390762187540531 0.0010945778340101242 0 0 0 0
2638957704 0.02923615649342537 -0.1463918536901474 -0.004219412803649902 0.0015643453225493431 0 0 0 0
2642679788 0.032183922827243805 -0.1354273557662964 -0.0038089677691459656 0.0021152570843696594 0 0 0 0
2646401872 0.03733571991324425 -0.1248217523097992 -0.0032828152179718018 0.002412889152765274 0 0 0 0
2650123956 0.04438651353120804 -0.11448197066783905 -0.0026165246963500977 0.0024853404611349106 0 0 0 0
2653846040 0.053262174129486084 -0.10533639043569565 -0.001890496350824833 0.002069684676826 0 0 0 0
2657568124 0.06360594928264618 -0.09966511279344559 -0.001761716790497303 0.0014936402440071106 0 0 0 0
2661290208 0.07410436868667603 -0.09787733107805252 -0.0023372089490294456 0.0012386254966259003 0 0 0 0
2665012292 0.08805868774652481 -0.09617000818252563 -0.0028229430317878723 0.0015768911689519882 0 0 0 0
2668734376 0.09680847823619843 -0.09941474348306656 -0.002954890951514244 0.0020883744582533836 0 0 0 0
2672456460 0.10586117953062057 -0.10389487445354462 -0.0027523376047611237 0.0026181479915976524 0 0 0 0
2676178544 0.1124296486377716 -0.11081455647945404 -0.002498558722436428 0.0032392488792538643 0 0 0 0
2679900628 0.11714896559715271 -0.11758608371019363 -0.002084186300635338 0.0038677211850881577 0 0 0 0
2683622712 0.12269347906112671 -0.12537023425102234 -0.0014258930459618568 0.004466094076633453 0 0 0 0
2687344796 0.1238568052649498 -0.1331566721200943 -0.0005116714164614677 0.004786600358784199 0 0 0 0
2691066880 0.12368766963481903 -0.14239932596683502 0.00034693721681833267 0.004737460985779762 0 0 0 0
2694788964 0.1215277686715126 -0.15096472203731537 0.0012291492894291878 0.0047427816316485405 0 0 0 0
2698511048 0.12000124156475067 -0.15892764925956726 0.0024397997185587883 0.004712051711976528 0 0 0 0
2702233132 0.11491277813911438 -0.16566012799739838 0.003709603101015091 0.003940656781196594 0 0 0 0
2705955216 0.10859360545873642 -0.17282891273498535 0.004557069391012192 0.002782232128083706 0 0 0 0
2709677300 0.10023675858974457 -0.1791132092475891 0.004970273934304714 0.001499425619840622 0 0 0 0
2713399384 0.09086205065250397 -0.18334920704364777 0.0048949867486953735 0.00010451767593622208 0 0 0 0
2717121468 0.07815593481063843 -0.18630194664001465 0.004484651610255241 -0.0010296553373336792 0 0 0 0
2720843552 0.06868450343608856 -0.18619683384895325 0.0038943756371736526 -0.0018446650356054306 0 0 0 0
2724565636 0.056097738444805145 -0.18408805131912231 0.0031112218275666237 -0.0025365911424160004 0 0 0 0
2728287720 0.04206381365656853 -0.17894670367240906 0.0023109465837478638 -0.0026830267161130905 0 0 0 0
2732009804 0.03211551159620285 -0.17136475443840027 0.0017607146874070168 -0.002682579681277275 0 0 0 0
2735731888 0.01946709305047989 -0.16195036470890045 0.001427842304110527 -0.002594590187072754 0 0 0 0
2739453972 0.013795671984553337 -0.1512220948934555 0.0013373922556638718 -0.002655317075550556 0 0 0 0
2743176056 0.008366994559764862 -0.137764573097229 0.0009971121326088905 -0.0028190715238451958 0 0 0 0
2746898140 0.002497222274541855 -0.12338891625404358 0.0006829453632235527 -0.0028679976239800453 0 0 0 0
2750620224 0.0014216583222150803 -0.10816636681556702 0.0005510617047548294 -0.002981215715408325 0 0 0 0
2754342308 0.0026377122849226 -0.09274090081453323 0.00027280114591121674 -0.0032235924154520035 0 0 0 0
2758064392 0.005046561360359192 -0.07721573859453201 -0.00023112259805202484 -0.0035066409036517143 0 0 0 0
2761786476 0.011253857985138893 -0.06169772893190384 -0.0009088292717933655 -0.0035466859117150307 0 0 0 0
2765508560 0.02022692747414112 -0.04573392495512962 -0.0015882141888141632 -0.0033017639070749283 0 0 0 0
2769230644 0.030933639034628868 -0.03224677965044975 -0.0021407222375273705 -0.002574901096522808 0 0 0 0
2772952728 0.04574953392148018 -0.019696414470672607 -0.0020239856094121933 -0.0021061981096863747 0 0 0 0
2776674812 0.06163765862584114 -0.01111927255988121 -0.002010536380112171 -0.001863161101937294 0 0 0 0
2780396896 0.07970099151134491 -0.004778528586030006 -0.002091430127620697 -0.0018742317333817482 0 0 0 0
2784118980 0.09811928868293762 -6.113946437835693e-05 -0.0026123840361833572 -0.0015260148793458939 0 0 0 0
2787841064 0.11799904704093933 0.0019011106342077255 -0.0028650201857089996 -0.0008036987856030464 0 0 0 0
2791563148 0.1380276381969452 0.00019826367497444153 -0.002652665600180626 -0.000254298560321331 0 0 0 0
2795285232 0.15875598788261414 -0.005459502339363098 -0.002239719033241272 0.0003881976008415222 0 0 0 0
2799007316 0.17915165424346924 -0.012206710875034332 -0.0015237266197800636 0.0005134576931595802 0 0 0 0
2802729400 0.19822925329208374 -0.026748256757855415 -0.001082031987607479 0.00022003985941410065 0 0 0 0
2806451484 0.21550501883029938 -0.040640998631715775 -0.0010300762951374054 -0.0001338459551334381 0 0 0 0
2810173568 0.22799640893936157 -0.060767777264118195 -0.0014047734439373016 -0.00014284532517194748 0 0 0 0
2813895652 0.24210168421268463 -0.07864536345005035 -0.0015957066789269447 0.00023008137941360474 0 0 0 0
2817617736 0.2486211061477661 -0.10095595568418503 -0.0014962954446673393 0.0006172256544232368 0 0 0 0
2821339820 0.25266700983047485 -0.1253894865512848 -0.0010343370959162712 0.0009355675429105759 0 0 0 0
2825061904 0.252682626247406 -0.14927618205547333 -0.0006511854007840157 0.0009787790477275848 0 0 0 0
2828783988 0.25113916397094727 -0.17246869206428528 -0.0004099970683455467 0.001022476702928543 0 0 0 0
2832506072 0.2451103925704956 -0.19420301914215088 -0.00021830294281244278 0.0007952200248837471 0 0 0 0
2836228156 0.23630112409591675 -0.2169400453567505 -4.139542579650879e-05 0.0007339809089899063 0 0 0 0
2839950240 0.22527344524860382 -0.23564516007900238 4.9865804612636566e-05 0.0005282191559672356 0 0 0 0
2843672324 0.21003471314907074 -0.25578397512435913 0.00018021930009126663 0.00045735109597444534 0 0 0 0
2847394408 0.19463521242141724 -0.2698958218097687 0.0002858331426978111 0.0004201345145702362 0 0 0 0
2851116492 0.17560476064682007 -0.2852289080619812 0.0003738449886441231 0.00036056432873010635 0 0 0 0
2854838576 0.15483933687210083 -0.2971652150154114 0.0004777638241648674 0.00023662392050027847 0 0 0 0
2858560660 0.13591986894607544 -0.30812448263168335 0.0007489901036024094 -0.00026053469628095627 0 0 0 0
2862282744 0.10997059941291809 -0.3154185116291046 0.000551820732653141 -0.00029138196259737015 0 0 0 0
2866004828 0.08594673871994019 -0.31908270716667175 0.0006465110927820206 -0.00035573262721300125 0 0 0 0
2869726912 0.06438357383012772 -0.31913459300994873 0.0008834730833768845 -0.0004244903102517128 0 0 0 0
2873448996 0.039555586874485016 -0.3171394467353821 0.0008529126644134521 -0.000697665847837925 0 0 0 0
2877171080 0.015347674489021301 -0.3113750219345093 0.0007215114310383797 -0.0009805569425225258 0 0 0 0
2880893164 -0.007807865738868713 -0.3030232787132263 0.0005937172099947929 -0.0011782711371779442 0 0 0 0
2884615248 -0.030264070257544518 -0.29186952114105225 0.0002740276977419853 -0.0012681493535637856 0 0 0 0
2888337332 -0.050722964107990265 -0.27728983759880066 2.9445625841617584e-05 -0.0011683758348226547 0 0 0 0
2892059416 -0.07085426896810532 -0.2597692608833313 -0.00013566762208938599 -0.001066373661160469 0 0 0 0
2895781500 -0.09090154618024826 -0.239141047000885 -0.00035107601433992386 -0.0008430304005742073 0 0 0 0
2899503584 -0.10355101525783539 -0.21527422964572906 -0.00035331863909959793 -0.000443226657807827 0 0 0 0
2903225668 -0.11497469246387482 -0.1898949295282364 -0.0003079026937484741 -0.00021332688629627228 0 0 0 0
2906947752 -0.12327718734741211 -0.16289964318275452 -1.7785467207431793e-05 -5.032680928707123e-05 0 0 0 0
2910669836 -0.1280575394630432 -0.13472624123096466 0.00012716464698314667 -0.00011817179620265961 0 0 0 0
2914391920 -0.1262231171131134 -0.10857847332954407 0.00018634460866451263 -0.00028063729405403137 0 0 0 0
2918114004 -0.12082991003990173 -0.08316826075315475 0.0003294888883829117 -0.00025693420320749283 0 0 0 0
2921836088 -0.11438585817813873 -0.05731716752052307 0.0003174981102347374 -0.0004179514944553375 0 0 0 0
2925558172 -0.10477294027805328 -0.03388578072190285 0.00030706916004419327 -0.000483502633869648 0 0 0 0
2929280256 -0.09285402297973633 -0.010380033403635025 0.00030834320932626724 -0.00043259933590888977 0 0 0 0
2933002340 -0.07671211659908295 0.012084897607564926 0.00014624465256929398 -0.0004026619717478752 0 0 0 0
2936724424 -0.05770576372742653 0.030784280970692635 5.003996193408966e-05 -0.0001847837120294571 0 0 0 0
2940446508 -0.03739706799387932 0.047245144844055176 3.435090184211731e-05 2.0386651158332825e-06 0 0 0 0
2944168592 -0.014370659366250038 0.06244904175400734 9.971857070922852e-05 0.0003544716164469719 0 0 0 0
2947890676 0.009894458577036858 0.07382622361183167 0.0002864105626940727 0.0005526253953576088 0 0 0 0
2951612760 0.03721056133508682 0.08282987028360367 0.0005197674036026001 0.0007636416703462601 0 0 0 0
2955334844 0.06583026051521301 0.08600446581840515 0.000937972217798233 0.0008555566892027855 0 0 0 0
2959056928 0.09350903332233429 0.0859416201710701 0.001357097178697586 0.0007301084697246552 0 0 0 0
2962779012 0.12258869409561157 0.07995989918708801 0.0018916623666882515 0.0006746016442775726 0 0 0 0
2966501096 0.14800478518009186 0.07256104052066803 0.0022675395011901855 0.0005276612937450409 0 0 0 0
2970223180 0.17163531482219696 0.0599852129817009 0.0026581548154354095 -0.00014297384768724442 0 0 0 0
2973945264 0.1935417205095291 0.04465566575527191 0.0027523888275027275 -0.0008372068405151367 0 0 0 0
2977667348 0.2140311449766159 0.027717020362615585 0.0026845429092645645 -0.0013575553894042969 0 0 0 0
2981389432 0.23187901079654694 0.007999487221240997 0.002315889112651348 -0.001759684644639492 0 0 0 0
2985111516 0.24621157348155975 -0.01467134989798069 0.001976597122848034 -0.002109987661242485 0 0 0 0
2988833600 0.25548386573791504 -0.03807365149259567 0.0016059493646025658 -0.0022994009777903557 0 0 0 0
2992555684 0.2646907567977905 -0.06008238345384598 0.0011007403954863548 -0.0025404226034879684 0 0 0 0
2996277768 0.2667694687843323 -0.08546937257051468 0.0007505649700760841 -0.002629869617521763 0 0 0 0
2999999852 0.27104923129081726 -0.10769622772932053 0.0003253445029258728 -0.002444969490170479 0 0 0 0
