# HZ S RI R 50
1500000000 -0.15353958308696747 0.005036039277911186 0.07146458327770233 -0.03256953880190849 0 0 0 0
1503722084 -0.12769116461277008 0.03824707865715027 0.0634065791964531 -0.0454123318195343 0 0 0 0
1507444168 -0.09563775360584259 0.06867823004722595 0.05182751268148422 -0.05614715442061424 0 0 0 0
1511166252 -0.05675993859767914 0.09330587834119797 0.03813169151544571 -0.06344692409038544 0 0 0 0
1514888336 -0.01352732814848423 0.11065798997879028 0.02353273332118988 -0.06663218140602112 0 0 0 0
1518610420 0.03417966514825821 0.12095491588115692 0.009670460596680641 -0.06619102507829666 0 0 0 0
1522332504 0.08383964002132416 0.12191856652498245 -0.0023842360824346542 -0.0627952441573143 0 0 0 0
1526054588 0.13251429796218872 0.11420052498579025 -0.012573270127177238 -0.05755859985947609 0 0 0 0
1529776672 0.18034549057483673 0.09934424608945847 -0.020105991512537003 -0.0515177845954895 0 0 0 0
1533498756 0.22582906484603882 0.07712488621473312 -0.02645188383758068 -0.04459090903401375 0 0 0 0
1537220840 0.269135057926178 0.04702918976545334 -0.03048282116651535 -0.03806735575199127 0 0 0 0
1540942924 0.3080905079841614 0.004286579787731171 -0.03381885588169098 -0.03101840801537037 0 0 0 0
1544665008 0.339026540517807 -0.03791248798370361 -0.0354926623404026 -0.02505863457918167 0 0 0 0
1548387092 0.36142048239707947 -0.0909750908613205 -0.036955345422029495 -0.018918871879577637 0 0 0 0
1552109176 0.3767712414264679 -0.14149802923202515 -0.03765325993299484 -0.013310532085597515 0 0 0 0
1555831260 0.38416197896003723 -0.19622434675693512 -0.037606727331876755 -0.007355258800089359 0 0 0 0
1559553344 0.37968114018440247 -0.2563270628452301 -0.03630926460027695 -0.0015470627695322037 0 0 0 0
1563275428 0.37204673886299133 -0.3105933666229248 -0.034142281860113144 0.0031959861516952515 0 0 0 0
1566997512 0.35459741950035095 -0.36571916937828064 -0.03164055198431015 0.00705913919955492 0 0 0 0
1570719596 0.325313001871109 -0.420632541179657 -0.02877979725599289 0.010402881540358067 0 0 0 0
1574441680 0.2895435690879822 -0.46812012791633606 -0.026030011475086212 0.012775248847901821 0 0 0 0
1578163764 0.2459326684474945 -0.510393500328064 -0.023635555058717728 0.014772601425647736 0 0 0 0
1581885848 0.19221842288970947 -0.5437115430831909 -0.021458406001329422 0.016685985028743744 0 0 0 0
1585607932 0.1398383229970932 -0.5686439275741577 -0.019073937088251114 0.01847907155752182 0 0 0 0
1589330016 0.08130691945552826 -0.5857440829277039 -0.016316980123519897 0.020096832886338234 0 0 0 0
1593052100 0.02073994278907776 -0.5956790447235107 -0.014066958799958229 0.021317802369594574 0 0 0 0
1596774184 -0.035063788294792175 -0.5963452458381653 -0.012131376191973686 0.02257726714015007 0 0 0 0
1600496268 -0.09852676093578339 -0.5890843272209167 -0.009701601229608059 0.024521494284272194 0 0 0 0
1604218352 -0.1532711237668991 -0.5731450915336609 -0.0064583998173475266 0.026226719841361046 0 0 0 0
1607940436 -0.21635180711746216 -0.5473849177360535 -0.002194426953792572 0.02733120135962963 0 0 0 0
1611662520 -0.26612210273742676 -0.5164950489997864 0.001769818365573883 0.02760435827076435 0 0 0 0
1615384604 -0.31474944949150085 -0.4747448265552521 0.006167031824588776 0.027109237387776375 0 0 0 0
1619106688 -0.3580167889595032 -0.4278598129749298 0.01048150286078453 0.026108911260962486 0 0 0 0
1622828772 -0.39261114597320557 -0.37585899233818054 0.014643426984548569 0.024624591693282127 0 0 0 0
1626550856 -0.42267248034477234 -0.31938424706459045 0.019117776304483414 0.022042136639356613 0 0 0 0
1630272940 -0.44580164551734924 -0.2543608546257019 0.023203426972031593 0.018034519627690315 0 0 0 0
1633995024 -0.45932215452194214 -0.19038230180740356 0.026008475571870804 0.01334716472774744 0 0 0 0
1637717108 -0.4641246795654297 -0.11982449889183044 0.028004871681332588 0.008035599254071712 0 0 0 0
1641439192 -0.4585989713668823 -0.051948174834251404 0.028567951172590256 0.002431148663163185 0 0 0 0
1645161276 -0.4410109519958496 0.020218178629875183 0.02769818902015686 -0.0031265970319509506 0 0 0 0
1648883360 -0.4134744703769684 0.08922959864139557 0.02589430846273899 -0.007969500496983528 0 0 0 0
1652605444 -0.3727826178073883 0.1545046716928482 0.023095805197954178 -0.01253923587501049 0 0 0 0
1656327528 -0.3247290551662445 0.21072253584861755 0.019603298977017403 -0.01585225760936737 0 0 0 0
1660049612 -0.2663673758506775 0.2615886330604553 0.01577475666999817 -0.018393633887171745 0 0 0 0
1663771696 -0.19946399331092834 0.30243682861328125 0.01154516264796257 -0.020227057859301567 0 0 0 0
1667493780 -0.1296328604221344 0.33344143629074097 0.007314583286643028 -0.021272126585245132 0 0 0 0
1671215864 -0.05614630877971649 0.3553699254989624 0.002892366610467434 -0.021478913724422455 0 0 0 0
1674937948 0.02432265505194664 0.3658098876476288 -0.0016554202884435654 -0.020269980654120445 0 0 0 0
1678660032 0.10765708982944489 0.36264753341674805 -0.005171440541744232 -0.0178047064691782 0 0 0 0
1682382116 0.1881781667470932 0.34605562686920166 -0.007525959052145481 -0.015195811167359352 0 0 0 0
1686104200 0.26557934284210205 0.31665927171707153 -0.009196429513394833 -0.012600569985806942 0 0 0 0
1689826284 0.3375292420387268 0.27528926730155945 -0.010043226182460785 -0.009677357040345669 0 0 0 0
1693548368 0.40299803018569946 0.22076648473739624 -0.010251522995531559 -0.007047059014439583 0 0 0 0
1697270452 0.4575153589248657 0.1599176526069641 -0.009894613176584244 -0.004918190650641918 0 0 0 0
1700992536 0.5010653138160706 0.09008372575044632 -0.009195642545819283 -0.0034127021208405495 0 0 0 0
1704714620 0.5336752533912659 0.010572701692581177 -0.008779674768447876 -0.0021119611337780952 0 0 0 0
1708436704 0.5530980229377747 -0.06536006927490234 -0.0081839794293046 -0.0008358648046851158 0 0 0 0
1712158788 0.5600612759590149 -0.14670661091804504 -0.007151042111217976 0.00030297692865133286 0 0 0 0
1715880872 0.5548490285873413 -0.22747015953063965 -0.006186972372233868 0.0009082555770874023 0 0 0 0
1719602956 0.5336020588874817 -0.304351806640625 -0.0048433998599648476 0.001199963502585888 0 0 0 0
1723325040 0.5051454305648804 -0.37707382440567017 -0.0038366569206118584 0.0009033791720867157 0 0 0 0
1727047124 0.4676488935947418 -0.4390718340873718 -0.0033597759902477264 0.0002206694334745407 0 0 0 0
1730769208 0.41557323932647705 -0.500302791595459 -0.003345055505633354 -0.00019143708050251007 0 0 0 0
1734491292 0.3565879464149475 -0.5518937110900879 -0.0034479591995477676 -0.0004890095442533493 0 0 0 0
1738213376 0.2942676842212677 -0.5882929563522339 -0.0037480732426047325 -0.0007953159511089325 0 0 0 0
1741935460 0.2246750146150589 -0.6176410913467407 -0.004214511252939701 -0.0009574843570590019 0 0 0 0
1745657544 0.15673084557056427 -0.6348996758460999 -0.0049139466136693954 -0.0009552314877510071 0 0 0 0
1749379628 0.08207909762859344 -0.6415343284606934 -0.005573417991399765 -0.0005401941016316414 0 0 0 0
1753101712 0.01367311179637909 -0.6363205313682556 -0.006018014624714851 0.00017435569316148758 0 0 0 0
1756823796 -0.054283902049064636 -0.6199051737785339 -0.006277222186326981 0.0006993254646658897 0 0 0 0
1760545880 -0.11557230353355408 -0.5955816507339478 -0.006525212898850441 0.0013086618855595589 0 0 0 0
1764267964 -0.17407715320587158 -0.5618297457695007 -0.0068495431914925575 0.0018822979182004929 0 0 0 0
1767990048 -0.22340081632137299 -0.5212790966033936 -0.007168653421103954 0.0025949329137802124 0 0 0 0
1771712132 -0.26751354336738586 -0.4730420708656311 -0.007644292898476124 0.0032431669533252716 0 0 0 0
1775434216 -0.3011738955974579 -0.4231051802635193 -0.008400283753871918 0.004275064915418625 0 0 0 0
1779156300 -0.3271142840385437 -0.36842080950737 -0.00898763258010149 0.005892564542591572 0 0 0 0
1782878384 -0.3456847071647644 -0.31341421604156494 -0.009488103911280632 0.007820602506399155 0 0 0 0
1786600468 -0.3564358353614807 -0.25691378116607666 -0.00956677459180355 0.010446667671203613 0 0 0 0
1790322552 -0.36037227511405945 -0.19561684131622314 -0.008743658661842346 0.013613804243505001 0 0 0 0
1794044636 -0.3548792600631714 -0.13782097399234772 -0.006912535987794399 0.016666004434227943 0 0 0 0
1797766720 -0.34114429354667664 -0.0812903493642807 -0.004380042664706707 0.019602855667471886 0 0 0 0
1801488804 -0.31983140110969543 -0.02676190808415413 -0.0004974771291017532 0.02242560125887394 0 0 0 0
1805210888 -0.29089605808258057 0.021338120102882385 0.004335901699960232 0.02453695423901081 0 0 0 0
1808932972 -0.2539895176887512 0.06756331771612167 0.010497692972421646 0.024919720366597176 0 0 0 0
1812655056 -0.20885641872882843 0.10706306248903275 0.016890931874513626 0.02376389130949974 0 0 0 0
1816377140 -0.1572757065296173 0.13805115222930908 0.02294478751718998 0.020709428936243057 0 0 0 0
1820099224 -0.10263845324516296 0.15843771398067474 0.02870916575193405 0.01565496437251568 0 0 0 0
1823821308 -0.04720527306199074 0.1685294210910797 0.03278389200568199 0.009208720177412033 0 0 0 0
1827543392 0.008257262408733368 0.17009508609771729 0.034786567091941833 0.0013690032064914703 0 0 0 0
1831265476 0.05997040122747421 0.16220200061798096 0.0344984345138073 -0.006279870867729187 0 0 0 0
1834987560 0.10961095988750458 0.1463337242603302 0.032405346632003784 -0.013760633766651154 0 0 0 0
1838709644 0.1531710922718048 0.1256672590970993 0.02902907133102417 -0.0197365153580904 0 0 0 0
1842431728 0.1938387155532837 0.09713360667228699 0.02450786903500557 -0.02513107657432556 0 0 0 0
1846153812 0.22766157984733582 0.06476356834173203 0.018922757357358932 -0.029151657596230507 0 0 0 0
1849875896 0.25440120697021484 0.027873843908309937 0.013008750975131989 -0.03183462843298912 0 0 0 0
1853597980 0.2756492793560028 -0.010601559653878212 0.00708739273250103 -0.03283776715397835 0 0 0 0
1857320064 0.29043176770210266 -0.05156160145998001 0.0018806885927915573 -0.03294282406568527 0 0 0 0
1861042148 0.2994467616081238 -0.09294265508651733 -0.003051169216632843 -0.03335908055305481 0 0 0 0
1864764232 0.29818975925445557 -0.13744597136974335 -0.008785856887698174 -0.03371931239962578 0 0 0 0
1868486316 0.2921887934207916 -0.17476025223731995 -0.015161741524934769 -0.032286498695611954 0 0 0 0
1872208400 0.2803369164466858 -0.21137824654579163 -0.02105366624891758 -0.029290195554494858 0 0 0 0
1875930484 0.2624250650405884 -0.2469073086977005 -0.026133349165320396 -0.024724680930376053 0 0 0 0
1879652568 0.23904064297676086 -0.2768327295780182 -0.02990731969475746 -0.01977016031742096 0 0 0 0
1883374652 0.21358619630336761 -0.30260783433914185 -0.032907597720623016 -0.014890267513692379 0 0 0 0
1887096736 0.18315047025680542 -0.3233298361301422 -0.03562347590923309 -0.009302179329097271 0 0 0 0
1890818820 0.14929598569869995 -0.337152898311615 -0.03735094517469406 -0.002856433391571045 0 0 0 0
1894540904 0.11544080823659897 -0.3444817066192627 -0.03786420449614525 0.003971629776060581 0 0 0 0
1898262988 0.08099484443664551 -0.3450103998184204 -0.03688177838921547 0.011043446138501167 0 0 0 0
1901985072 0.047842033207416534 -0.34025371074676514 -0.03429608792066574 0.017711248248815536 0 0 0 0
1905707156 0.020143020898103714 -0.32936060428619385 -0.03054337576031685 0.023188047111034393 0 0 0 0
1909429240 -0.008197774179279804 -0.31458580493927 -0.026146890595555305 0.027954524382948875 0 0 0 0
1913151324 -0.030744999647140503 -0.29689446091651917 -0.021570321172475815 0.03233075514435768 0 0 0 0
1916873408 -0.04842713475227356 -0.2758083641529083 -0.015689922496676445 0.03614828735589981 0 0 0 0
1920595492 -0.06322586536407471 -0.25246137380599976 -0.009197784587740898 0.039175573736429214 0 0 0 0
1924317576 -0.07419699430465698 -0.2267335206270218 -0.0014762114733457565 0.04097620025277138 0 0 0 0
1928039660 -0.08102686703205109 -0.20099148154258728 0.006951130926609039 0.040476761758327484 0 0 0 0
1931761744 -0.08410374820232391 -0.17443633079528809 0.01490506436675787 0.038145169615745544 0 0 0 0
1935483828 -0.0823274478316307 -0.14813540875911713 0.021778155118227005 0.03420056402683258 0 0 0 0
1939205912 -0.07713425159454346 -0.1214774027466774 0.027337169274687767 0.028568334877490997 0 0 0 0
1942927996 -0.0664464682340622 -0.09526867419481277 0.031113650649785995 0.022425297647714615 0 0 0 0
1946650080 -0.05125201493501663 -0.07163216918706894 0.03356048837304115 0.016472352668642998 0 0 0 0
1950372164 -0.030858321115374565 -0.05092788487672806 0.03548990190029144 0.011141898110508919 0 0 0 0
1954094248 -0.00653079804033041 -0.03418181091547012 0.03720952197909355 0.0054205358028411865 0 0 0 0
1957816332 0.019957441836595535 -0.02249109372496605 0.03839031234383583 -0.0018138391897082329 0 0 0 0
1961538416 0.04926929250359535 -0.016732215881347656 0.0374453142285347 -0.009062803350389004 0 0 0 0
1965260500 0.07849372923374176 -0.016676120460033417 0.035050857812166214 -0.01618688553571701 0 0 0 0
1968982584 0.10668519139289856 -0.022724665701389313 0.031355805695056915 -0.022158179432153702 0 0 0 0
1972704668 0.13262160122394562 -0.033809594810009 0.026650577783584595 -0.02775474265217781 0 0 0 0
1976426752 0.15661385655403137 -0.047845255583524704 0.021189618855714798 -0.03236088901758194 0 0 0 0
1980148836 0.1763504147529602 -0.0679885596036911 0.01381191611289978 -0.036248281598091125 0 0 0 0
1983870920 0.1931886523962021 -0.09089650213718414 0.006174088455736637 -0.03793089836835861 0 0 0 0
1987593004 0.2036585658788681 -0.11793398857116699 -0.001469569280743599 -0.03779391571879387 0 0 0 0
1991315088 0.20887988805770874 -0.14525453746318817 -0.008563026785850525 -0.036003388464450836 0 0 0 0
1995037172 0.20892247557640076 -0.17240111529827118 -0.015417659655213356 -0.033155687153339386 0 0 0 0
1998759256 0.20398055016994476 -0.19813412427902222 -0.02094043605029583 -0.02866591513156891 0 0 0 0
2002481340 0.19607514142990112 -0.22242754697799683 -0.024699848145246506 -0.023952025920152664 0 0 0 0
2006203424 0.18236923217773438 -0.24468670785427094 -0.027748683467507362 -0.01893257349729538 0 0 0 0
2009925508 0.16696937382221222 -0.26218003034591675 -0.03004874289035797 -0.014693064615130424 0 0 0 0
2013647592 0.14994288980960846 -0.2768779993057251 -0.03195112943649292 -0.009499683044850826 0 0 0 0
2017369676 0.12827068567276 -0.2922094464302063 -0.033416748046875 -0.004538486711680889 0 0 0 0
2021091760 0.10408908128738403 -0.30273348093032837 -0.034496087580919266 0.0015698475763201714 0 0 0 0
2024813844 0.07965172082185745 -0.30879247188568115 -0.03406922146677971 0.008158682845532894 0 0 0 0
2028535928 0.05209123343229294 -0.3113105297088623 -0.03213143348693848 0.014619288966059685 0 0 0 0
2032258012 0.02739865519106388 -0.3078685998916626 -0.02836252562701702 0.02046993561089039 0 0 0 0
2035980096 -0.0018179267644882202 -0.30054977536201477 -0.023442309349775314 0.024828054010868073 0 0 0 0
2039702180 -0.025289073586463928 -0.28939804434776306 -0.01849476434290409 0.028024349361658096 0 0 0 0
2043424264 -0.04870305955410004 -0.2714538276195526 -0.012675589881837368 0.03019852191209793 0 0 0 0
2047146348 -0.0694313496351242 -0.2515581548213959 -0.007229533977806568 0.03105073794722557 0 0 0 0
2050868432 -0.08565542101860046 -0.2287946194410324 -0.0025221286341547966 0.03125712275505066 0 0 0 0
2054590516 -0.09964634478092194 -0.2019595205783844 0.0021763965487480164 0.030980698764324188 0 0 0 0
2058312600 -0.10882706940174103 -0.17358453571796417 0.007007427513599396 0.030263997614383698 0 0 0 0
2062034684 -0.11343621462583542 -0.14376875758171082 0.012109119445085526 0.029005972668528557 0 0 0 0
2065756768 -0.1136171966791153 -0.11246093362569809 0.017135538160800934 0.026264477521181107 0 0 0 0
2069478852 -0.10939538478851318 -0.08026286959648132 0.021175894886255264 0.02232525870203972 0 0 0 0
2073200936 -0.09872190654277802 -0.04897712916135788 0.024211954325437546 0.01785646751523018 0 0 0 0
2076923020 -0.0824182778596878 -0.018452348187565804 0.02590843476355076 0.013006502762436867 0 0 0 0
2080645104 -0.06047777086496353 0.009770644828677177 0.026539692655205727 0.008609592914581299 0 0 0 0
2084367188 -0.033765003085136414 0.033450182527303696 0.026829887181520462 0.004718370735645294 0 0 0 0
2088089272 -0.0023206574842333794 0.052424002438783646 0.026731735095381737 0.0017551956698298454 0 0 0 0
2091811356 0.031162172555923462 0.06429778039455414 0.02754032053053379 -0.0013949498534202576 0 0 0 0
2095533440 0.06607748568058014 0.07100891321897507 0.028155189007520676 -0.005638686008751392 0 0 0 0
2099255524 0.10188154876232147 0.0723973959684372 0.027916276827454567 -0.010736479423940182 0 0 0 0
2102977608 0.1372147649526596 0.06786772608757019 0.026180922985076904 -0.016521399840712547 0 0 0 0
2106699692 0.17105507850646973 0.059057027101516724 0.022516515105962753 -0.021864840760827065 0 0 0 0
2110421776 0.2043149471282959 0.0423484742641449 0.017891524359583855 -0.02553880587220192 0 0 0 0
2114143860 0.23467303812503815 0.019137471914291382 0.012846685945987701 -0.028458544984459877 0 0 0 0
2117865944 0.2580546438694 -0.005995437502861023 0.007686609402298927 -0.030392995104193687 0 0 0 0
2121588028 0.27804046869277954 -0.03452172875404358 0.0016487939283251762 -0.03148063272237778 0 0 0 0
2125310112 0.2918023467063904 -0.06653867661952972 -0.005241255275905132 -0.030999107286334038 0 0 0 0
2129032196 0.3015129566192627 -0.09840301424264908 -0.010847203433513641 -0.028943806886672974 0 0 0 0
2132754280 0.3043738901615143 -0.1326640248298645 -0.016104448586702347 -0.02533569373190403 0 0 0 0
2136476364 0.3011833429336548 -0.16861526668071747 -0.02006923034787178 -0.02112492173910141 0 0 0 0
2140198448 0.29634934663772583 -0.19776032865047455 -0.02244541421532631 -0.01682719588279724 0 0 0 0
2143920532 0.28368714451789856 -0.2310362011194229 -0.024189651012420654 -0.012600899673998356 0 0 0 0
2147642616 0.2662988305091858 -0.25893634557724 -0.02536078542470932 -0.008093604817986488 0 0 0 0
2151364700 0.25030165910720825 -0.28091633319854736 -0.02578280121088028 -0.0037675416097044945 0 0 0 0
2155086784 0.2236321121454239 -0.3033217191696167 -0.025346901267766953 0.000225103460252285 0 0 0 0
2158808868 0.19643008708953857 -0.31941497325897217 -0.024679819121956825 0.003859870135784149 0 0 0 0
2162530952 0.16848337650299072 -0.3312453031539917 -0.023450413718819618 0.007615883834660053 0 0 0 0
2166253036 0.13822144269943237 -0.337158203125 -0.021863825619220734 0.010503271594643593 0 0 0 0
2169975120 0.10549638420343399 -0.33930516242980957 -0.020339688286185265 0.013439332135021687 0 0 0 0
2173697204 0.08237291127443314 -0.3350309729576111 -0.018801597878336906 0.016553040593862534 0 0 0 0
2177419288 0.049107834696769714 -0.3287850320339203 -0.015989482402801514 0.01987912692129612 0 0 0 0
2181141372 0.021882155910134315 -0.3180936276912689 -0.01219988614320755 0.022858766838908195 0 0 0 0
2184863456 -0.0010154247283935547 -0.30391865968704224 -0.00847537349909544 0.02498278021812439 0 0 0 0
2188585540 -0.021364323794841766 -0.2868134081363678 -0.004168710671365261 0.026513848453760147 0 0 0 0
2192307624 -0.04121498763561249 -0.26454153656959534 0.0013991789892315865 0.027155214920639992 0 0 0 0
2196029708 -0.058360755443573 -0.24073626101016998 0.006981993094086647 0.026333607733249664 0 0 0 0
2199751792 -0.06960500031709671 -0.2138228416442871 0.011698858812451363 0.024106420576572418 0 0 0 0
2203473876 -0.07787954807281494 -0.1853785514831543 0.01626969873905182 0.020777728408575058 0 0 0 0
2207195960 -0.07976783812046051 -0.15770688652992249 0.019292600452899933 0.017313357442617416 0 0 0 0
2210918044 -0.08025729656219482 -0.1255030632019043 0.021930888295173645 0.012638092041015625 0 0 0 0
2214640128 -0.07175043225288391 -0.09602689743041992 0.02347092516720295 0.00803386326879263 0 0 0 0
2218362212 -0.05809461697936058 -0.06913411617279053 0.02378852479159832 0.0027230195701122284 0 0 0 0
2222084296 -0.04138658940792084 -0.04402095079421997 0.02265538088977337 -0.0015222616493701935 0 0 0 0
2225806380 -0.019497836008667946 -0.023170920088887215 0.020932089537382126 -0.005347517319023609 0 0 0 0
2229528464 0.00540002528578043 -0.007511762902140617 0.018944697454571724 -0.008645935915410519 0 0 0 0
2233250548 0.03172235190868378 0.003271549940109253 0.016381733119487762 -0.011509171687066555 0 0 0 0
2236972632 0.058289069682359695 0.009895091876387596 0.013789227232336998 -0.01361122727394104 0 0 0 0
2240694716 0.08574856072664261 0.012032713741064072 0.01144450157880783 -0.015222364105284214 0 0 0 0
2244416800 0.11233241111040115 0.009165987372398376 0.008352171629667282 -0.01650875248014927 0 0 0 0
2248138884 0.1372336894273758 0.0015271976590156555 0.005119491368532181 -0.017521662637591362 0 0 0 0
2251860968 0.1615963876247406 -0.0077286288142204285 0.0017301440238952637 -0.018185097724199295 0 0 0 0
2255583052 0.18320083618164062 -0.022783413529396057 -0.001818666234612465 -0.017817672342061996 0 0 0 0
2259305136 0.20247934758663177 -0.040353916585445404 -0.004632314667105675 -0.016745921224355698 0 0 0 0
2263027220 0.2155122458934784 -0.06587787717580795 -0.007384356111288071 -0.014894395135343075 0 0 0 0
2266749304 0.22921016812324524 -0.08026769757270813 -0.00904833897948265 -0.013462088070809841 0 0 0 0
2270471388 0.23330412805080414 -0.1094483956694603 -0.011162209324538708 -0.011295026168227196 0 0 0 0
2274193472 0.23510627448558807 -0.13598942756652832 -0.012463457882404327 -0.009468937292695045 0 0 0 0
2277915556 0.23404082655906677 -0.15798617899417877 -0.013423768803477287 -0.007297988049685955 0 0 0 0
2281637640 0.22251459956169128 -0.18473410606384277 -0.014024253003299236 -0.0050264932215213776 0 0 0 0
2285359724 0.21265968680381775 -0.20291286706924438 -0.014577136375010014 -0.00290027167648077 0 0 0 0
2289081808 0.1964084953069687 -0.22004194557666779 -0.014735450968146324 -0.000509173609316349 0 0 0 0
2292803892 0.18092279136180878 -0.23440733551979065 -0.014516848139464855 0.0016625896096229553 0 0 0 0
2296525976 0.16262061893939972 -0.24442359805107117 -0.013840317726135254 0.003937171772122383 0 0 0 0
2300248060 0.14357034862041473 -0.25323623418807983 -0.012806173413991928 0.005951529368758202 0 0 0 0
2303970144 0.12217440456151962 -0.2618400454521179 -0.011121061630547047 0.0080088647082448 0 0 0 0
2307692228 0.09982439130544662 -0.2615348994731903 -0.009710375219583511 0.009660609997808933 0 0 0 0
2311414312 0.07823916524648666 -0.2599513828754425 -0.007324507459998131 0.010626901872456074 0 0 0 0
2315136396 0.05052740499377251 -0.2543734908103943 -0.0046058353036642075 0.010964244604110718 0 0 0 0
2318858480 0.03411336615681648 -0.2452358603477478 -0.002567215822637081 0.01026162039488554 0 0 0 0
2322580564 0.01434064656496048 -0.23006319999694824 -0.001082826405763626 0.009484061039984226 0 0 0 0
2326302648 -0.003587983548641205 -0.21250379085540771 -9.060557931661606e-05 0.008368901908397675 0 0 0 0
2330024732 -0.012346860021352768 -0.19292478263378143 0.00013452954590320587 0.007625626400113106 0 0 0 0
2333746816 -0.026834160089492798 -0.16985777020454407 0.00037149619311094284 0.007049166597425938 0 0 0 0
2337468900 -0.03172222152352333 -0.1459202766418457 0.0007852548733353615 0.006991676986217499 0 0 0 0
2341190984 -0.03336331993341446 -0.11985751986503601 0.0014339759945869446 0.006663504987955093 0 0 0 0
2344913068 -0.03175107762217522 -0.09309540688991547 0.0022550588473677635 0.005942091345787048 0 0 0 0
2348635152 -0.023563047870993614 -0.0672444999217987 0.0023870905861258507 0.005080476403236389 0 0 0 0
2352357236 -0.009985518641769886 -0.04420575499534607 0.00248008593916893 0.004517515189945698 0 0 0 0
2356079320 0.006673128344118595 -0.022579561918973923 0.002539237029850483 0.0042963819578289986 0 0 0 0
2359801404 0.0280093215405941 -0.004512184299528599 0.002590542659163475 0.0038002263754606247 0 0 0 0
2363523488 0.051761601120233536 0.010048910975456238 0.0027620242908596992 0.0034407954663038254 0 0 0 0
2367245572 0.07879091799259186 0.0200921930372715 0.002516339533030987 0.002937881276011467 0 0 0 0
2370967656 0.10586343705654144 0.024397846311330795 0.0021496256813406944 0.0028987517580389977 0 0 0 0
2374689740 0.13430537283420563 0.024872522801160812 0.002143888734281063 0.002977631986141205 0 0 0 0
2378411824 0.1613132357597351 0.01862689107656479 0.002256002277135849 0.0029180124402046204 0 0 0 0
2382133908 0.18763978779315948 0.009912170469760895 0.0021952474489808083 0.0028304681181907654 0 0 0 0
2385855992 0.21111232042312622 -0.0029983744025230408 0.0022916896268725395 0.002915065735578537 0 0 0 0
2389578076 0.23301833868026733 -0.019681118428707123 0.0023990441113710403 0.0029288912191987038 0 0 0 0
2393300160 0.25166910886764526 -0.039975568652153015 0.0023850351572036743 0.003185005858540535 0 0 0 0
2397022244 0.26699626445770264 -0.06283300369977951 0.002963096834719181 0.003779805265367031 0 0 0 0
2400744328 0.2789851725101471 -0.09175939112901688 0.003991508856415749 0.00397865753620863 0 0 0 0
2404466412 0.28592032194137573 -0.11766548454761505 0.005262997001409531 0.0038017434999346733 0 0 0 0
2408188496 0.28925400972366333 -0.14493316411972046 0.0063984589651227 0.002888008952140808 0 0 0 0
2411910580 0.28880301117897034 -0.17160984873771667 0.007371857762336731 0.0015913331881165504 0 0 0 0
2415632664 0.2807275652885437 -0.19980277121067047 0.007952004671096802 0.00032962020486593246 0 0 0 0
2419354748 0.26935604214668274 -0.22708696126937866 0.008114069700241089 -0.001237182877957821 0 0 0 0
2423076832 0.25605306029319763 -0.24848651885986328 0.008184138685464859 -0.003040601499378681 0 0 0 0
2426798916 0.23674306273460388 -0.27024877071380615 0.007552365772426128 -0.00492524728178978 0 0 0 0
2430521000 0.21606338024139404 -0.28867650032043457 0.00624750554561615 -0.0062978314235806465 0 0 0 0
2434243084 0.1909969449043274 -0.3046192526817322 0.004874249920248985 -0.007100981660187244 0 0 0 0
2437965168 0.1675487756729126 -0.3155399262905121 0.0036748582497239113 -0.0075873760506510735 0 0 0 0
2441687252 0.14320600032806396 -0.32340893149375916 0.0028788363561034203 -0.007847627624869347 0 0 0 0
2445409336 0.11362463235855103 -0.3288686275482178 0.002050846815109253 -0.008355380967259407 0 0 0 0
2449131420 0.08613590896129608 -0.3273223340511322 0.0014100493863224983 -0.008775963447988033 0 0 0 0
2452853504 0.05739281326532364 -0.3211439847946167 0.00033087749034166336 -0.009520787745714188 0 0 0 0
2456575588 0.026764918118715286 -0.3134917616844177 -0.001018124632537365 -0.01034320518374443 0 0 0 0
2460297672 0.00324268639087677 -0.30041709542274475 -0.0026384778320789337 -0.011072242632508278 0 0 0 0
2464019756 -0.020445868372917175 -0.2822644114494324 -0.004950560629367828 -0.011343181133270264 0 0 0 0
2467741840 -0.04140157997608185 -0.26235973834991455 -0.007414817810058594 -0.010655662044882774 0 0 0 0
2471463924 -0.05756803974509239 -0.23888933658599854 -0.009621835313737392 -0.009462108835577965 0 0 0 0
2475186008 -0.07254673540592194 -0.21372176706790924 -0.01135501079261303 -0.00827024970203638 0 0 0 0
2478908092 -0.08144941926002502 -0.18582922220230103 -0.01305285096168518 -0.006527984514832497 0 0 0 0
2482630176 -0.0878370851278305 -0.15651261806488037 -0.014561397954821587 -0.004108265973627567 0 0 0 0
2486352260 -0.08892867714166641 -0.1271868646144867 -0.015483281575143337 -0.0018932176753878593 0 0 0 0
2490074344 -0.0861893817782402 -0.09742774069309235 -0.016172124072909355 0.000591084361076355 0 0 0 0
2493796428 -0.0776420384645462 -0.06717938929796219 -0.016404295340180397 0.003573710098862648 0 0 0 0
2497518512 -0.06554233282804489 -0.040041230618953705 -0.01584988832473755 0.006715982221066952 0 0 0 0
2501240596 -0.048364412039518356 -0.013959399424493313 -0.01474365871399641 0.009490096010267735 0 0 0 0
2504962680 -0.02683960273861885 0.008611498400568962 -0.01306899543851614 0.011864879168570042 0 0 0 0
2508684764 -0.002413243055343628 0.02693914994597435 -0.011432395316660404 0.014242815785109997 0 0 0 0
2512406848 0.024698957800865173 0.04136190563440323 -0.008663074113428593 0.016748052090406418 0 0 0 0
2516128932 0.05364437401294708 0.051685914397239685 -0.00544346496462822 0.018708819523453712 0 0 0 0
2519851016 0.08427619934082031 0.05680869519710541 -0.0010448005050420761 0.01954866573214531 0 0 0 0
2523573100 0.11471287906169891 0.05506068468093872 0.002961595542728901 0.018971845507621765 0 0 0 0
2527295184 0.14433158934116364 0.04978949949145317 0.006493734195828438 0.017797023057937622 0 0 0 0
2531017268 0.17095458507537842 0.037785604596138 0.009690145030617714 0.015812603756785393 0 0 0 0
2534739352 0.1941368281841278 0.023220762610435486 0.012721627950668335 0.013293205760419369 0 0 0 0
2538461436 0.2145307958126068 0.006413872353732586 0.01471138745546341 0.010372258722782135 0 0 0 0
2542183520 0.2309490442276001 -0.01461535133421421 0.016166554763913155 0.006807131692767143 0 0 0 0
2545905604 0.24394547939300537 -0.03658217936754227 0.016745027154684067 0.003502707928419113 0 0 0 0
2549627688 0.25530511140823364 -0.056115373969078064 0.016896450892090797 -7.46268779039383e-05 0 0 0 0
2553349772 0.2611093521118164 -0.07999657094478607 0.01583915390074253 -0.003744239918887615 0 0 0 0
2557071856 0.2633936107158661 -0.1013885959982872 0.013933130539953709 -0.00697783287614584 0 0 0 0
2560793940 0.2643897831439972 -0.12450915575027466 0.011335834860801697 -0.009116524830460548 0 0 0 0
2564516024 0.25997206568717957 -0.1480257511138916 0.008653894998133183 -0.010272512212395668 0 0 0 0
2568238108 0.25518760085105896 -0.1672057956457138 0.006248374469578266 -0.010852161794900894 0 0 0 0
2571960192 0.2462186962366104 -0.1850498467683792 0.00413084402680397 -0.010952259413897991 0 0 0 0
2575682276 0.2327381670475006 -0.20419588685035706 0.0019849492236971855 -0.010778149589896202 0 0 0 0
2579404360 0.2206270396709442 -0.21881742775440216 0.00021505821496248245 -0.010155751369893551 0 0 0 0
2583126444 0.20542789995670319 -0.23059943318367004 -0.0007088528946042061 -0.009785985574126244 0 0 0 0
2586848528 0.19032570719718933 -0.24132823944091797 -0.0020896950736641884 -0.009457333013415337 0 0 0 0
2590570612 0.17124739289283752 -0.25026464462280273 -0.0035262135788798332 -0.008699764497578144 0 0 0 0
2594292696 0.154116690158844 -0.255229651927948 -0.004743196070194244 -0.007871736772358418 0 0 0 0
2598014780 0.13957470655441284 -0.2568705081939697 -0.005640195682644844 -0.006788928993046284 0 0 0 0
2601736864 0.11987053602933884 -0.25982823967933655 -0.006639259867370129 -0.005749598145484924 0 0 0 0
2605458948 0.10134381055831909 -0.2546716630458832 -0.007186640985310078 -0.00423609372228384 0 0 0 0
2609181032 0.08284077048301697 -0.24948546290397644 -0.00723098311573267 -0.0026724161580204964 0 0 0 0
2612903116 0.06714921444654465 -0.24180229008197784 -0.00686146505177021 -0.0012451233342289925 0 0 0 0
2616625200 0.054978467524051666 -0.23147204518318176 -0.006316803395748138 -0.00024055782705545425 0 0 0 0
2620347284 0.04227562993764877 -0.21945880353450775 -0.005571153946220875 0.0005153398960828781 0 0 0 0
2624069368 0.03169705718755722 -0.20523421466350555 -0.0047018444165587425 0.0010710153728723526 0 0 0 0
2627791452 0.02679447829723358 -0.19000712037086487 -0.003855867311358452 0.000951048918068409 0 0 0 0
2631513536 0.024999648332595825 -0.17497378587722778 -0.0035237716510891914 0.0006292182952165604 0 0 0 0
2635235620 0.02299158275127411 -0.16033534705638885 -0.003582822158932686 0.0005988869816064835 0 0 0 0
2638957704 0.024716299027204514 -0.1469694823026657 -0.003478214144706726 0.0009518740698695183 0 0 0 0
2642679788 0.02731640636920929 -0.13319437205791473 -0.003134755417704582 0.0011459914967417717 0 0 0 0
2646401872 0.03445674479007721 -0.1210079938173294 -0.0027468018233776093 0.0010834867134690285 0 0 0 0
2650123956 0.04350460320711136 -0.11075964570045471 -0.0027790404856204987 0.0009657153859734535 0 0 0 0
2653846040 0.05289711058139801 -0.10286102443933487 -0.0027577998116612434 0.0008277781307697296 0 0 0 0
2657568124 0.06498211622238159 -0.09670688956975937 -0.003111010417342186 0.0007036458700895309 0 0 0 0
2661290208 0.07706563919782639 -0.09365031123161316 -0.00357960257679224 0.0009850487112998962 0 0 0 0
2665012292 0.08916430175304413 -0.0950467512011528 -0.003881637006998062 0.0013243621215224266 0 0 0 0
2668734376 0.09862709045410156 -0.0987684428691864 -0.004161226563155651 0.002095259726047516 0 0 0 0
2672456460 0.10738932341337204 -0.10432616621255875 -0.003967979922890663 0.0032075317576527596 0 0 0 0
2676178544 0.11411312222480774 -0.11143515259027481 -0.0032494375482201576 0.004302828572690487 0 0 0 0
2679900628 0.11934970319271088 -0.11819886416196823 -0.002507678233087063 0.004812605679035187 0 0 0 0
2683622712 0.12300857901573181 -0.12632080912590027 -0.001324768178164959 0.005397449247539043 0 0 0 0
2687344796 0.121994249522686 -0.13428407907485962 -5.068443715572357e-05 0.005375424399971962 0 0 0 0
2691066880 0.12271583080291748 -0.14176112413406372 0.0009479550644755363 0.00497807189822197 0 0 0 0
2694788964 0.12060846388339996 -0.149924635887146 0.0018048044294118881 0.004629205912351608 0 0 0 0
2698511048 0.1169699877500534 -0.15753725171089172 0.0026304442435503006 0.0043664006516337395 0 0 0 0
2702233132 0.11431199312210083 -0.16442015767097473 0.0034842342138290405 0.0038589071482419968 0 0 0 0
2705955216 0.10936138033866882 -0.16970807313919067 0.004296573810279369 0.002924825996160507 0 0 0 0
2709677300 0.09890898317098618 -0.1782761961221695 0.004857025109231472 0.0016842149198055267 0 0 0 0
2713399384 0.09148021787405014 -0.18169888854026794 0.004935166798532009 0.0003070104867219925 0 0 0 0
2717121468 0.08087751269340515 -0.18316243588924408 0.004345475696027279 -0.0006947796791791916 0 0 0 0
2720843552 0.06866751611232758 -0.18525271117687225 0.0038766320794820786 -0.0014736959710717201 0 0 0 0
2724565636 0.05828224867582321 -0.18224644660949707 0.0033252350986003876 -0.001947714015841484 0 0 0 0
2728287720 0.04522087797522545 -0.17803074419498444 0.0027163103222846985 -0.002236688509583473 0 0 0 0
2732009804 0.03497444838285446 -0.17253127694129944 0.00224248506128788 -0.002317102625966072 0 0 0 0
2735731888 0.024530066177248955 -0.16274771094322205 0.0019304649904370308 -0.0025173909962177277 0 0 0 0
2739453972 0.016624249517917633 -0.1527804583311081 0.0016363076865673065 -0.002580082044005394 0 0 0 0
2743176056 0.00938214361667633 -0.13996246457099915 0.0014876769855618477 -0.0027452735230326653 0 0 0 0
2746898140 0.0038431137800216675 -0.12516874074935913 0.0012378664687275887 -0.0028959643095731735 0 0 0 0
2750620224 0.001988440752029419 -0.11038661748170853 0.0010732989758253098 -0.0031374944373965263 0 0 0 0
2754342308 0.002527739852666855 -0.094413623213768 0.0010305661708116531 -0.0034538116306066513 0 0 0 0
2758064392 0.005439005792140961 -0.07937093824148178 0.0005067279562354088 -0.004085974767804146 0 0 0 0
2761786476 0.010468937456607819 -0.06364970654249191 -0.0005100332200527191 -0.004573936574161053 0 0 0 0
2765508560 0.0173860564827919 -0.047676920890808105 -0.0017612874507904053 -0.004395213909447193 0 0 0 0
2769230644 0.029313387349247932 -0.03315123915672302 -0.0027348240837454796 -0.0037788506597280502 0 0 0 0
2772952728 0.0435749813914299 -0.020984463393688202 -0.003242344595491886 -0.002765069715678692 0 0 0 0
2776674812 0.05948760360479355 -0.011249713599681854 -0.003273504786193371 -0.002033739350736141 0 0 0 0
2780396896 0.07680059969425201 -0.003938170149922371 -0.0033078473061323166 -0.0012923423200845718 0 0 0 0
2784118980 0.09609165787696838 0.00119776651263237 -0.0032341936603188515 -0.0006501674652099609 0 0 0 0
2787841064 0.11578179150819778 0.002724801190197468 -0.002938495948910713 1.1427327990531921e-06 0 0 0 0
2791563148 0.13654261827468872 0.0015110746026039124 -0.0024047251790761948 0.0003308085724711418 0 0 0 0
2795285232 0.15758661925792694 -0.002350926399230957 -0.002057252451777458 0.0005719363689422607 0 0 0 0
2799007316 0.17829209566116333 -0.010740578174591064 -0.0014864252880215645 0.0005895588546991348 0 0 0 0
2802729400 0.19759152829647064 -0.023064933717250824 -0.0011989399790763855 0.00036040693521499634 0 0 0 0
2806451484 0.2153022140264511 -0.037209488451480865 -0.0013723401352763176 -8.80332663655281e-05 0 0 0 0
2810173568 0.2288917601108551 -0.055853769183158875 -0.001690274104475975 0.00019806716591119766 0 0 0 0
2813895652 0.24197787046432495 -0.07756847888231277 -0.001803840510547161 0.0006786314770579338 0 0 0 0
2817617736 0.24890339374542236 -0.09902284294366837 -0.0015687458217144012 0.0011536125093698502 0 0 0 0
2821339820 0.2539612650871277 -0.12276473641395569 -0.0009778346866369247 0.001482650637626648 0 0 0 0
2825061904 0.2560144066810608 -0.14480963349342346 -0.0004439791664481163 0.0013740174472332 0 0 0 0
2828783988 0.2529584765434265 -0.17041079699993134 2.151448279619217e-05 0.0011631185188889503 0 0 0 0
2832506072 0.24851234257221222 -0.19104455411434174 0.0002875998616218567 0.0009710351005196571 0 0 0 0
2836228156 0.2394706904888153 -0.2150178849697113 0.0003735143691301346 0.0006657624617218971 0 0 0 0
2839950240 0.22713594138622284 -0.23688776791095734 0.000451650470495224 0.000476200133562088 0 0 0 0
2843672324 0.21089643239974976 -0.25588974356651306 0.0005446905270218849 0.0002379491925239563 0 0 0 0
2847394408 0.19601555168628693 -0.2716403901576996 0.0005090469494462013 0.00018728338181972504 0 0 0 0
2851116492 0.17695993185043335 -0.28714144229888916 0.0004763863980770111 9.86047089099884e-05 0 0 0 0
2854838576 0.15661853551864624 -0.29955267906188965 0.0004130043089389801 3.714952617883682e-05 0 0 0 0
2858560660 0.13753627240657806 -0.31224358081817627 0.0006460230797529221 -0.00034357793629169464 0 0 0 0
2862282744 0.10861600935459137 -0.3194943368434906 0.0006192447617650032 -0.0004960689693689346 0 0 0 0
2866004828 0.08723726123571396 -0.3212723731994629 0.0007286984473466873 -0.00047508254647254944 0 0 0 0
2869726912 0.06396155059337616 -0.3218475878238678 0.000779448077082634 -0.0007497817277908325 0 0 0 0
2873448996 0.03776425123214722 -0.31874582171440125 0.0007467921823263168 -0.0009653978049755096 0 0 0 0
2877171080 0.015367835760116577 -0.311923086643219 0.0006136083975434303 -0.0011029336601495743 0 0 0 0
2880893164 -0.014228686690330505 -0.302761971950531 0.00024584587663412094 -0.0012401212006807327 0 0 0 0
2884615248 -0.03523806110024452 -0.29056286811828613 0.00015974603593349457 -0.0012145303189754486 0 0 0 0
2888337332 -0.05504393205046654 -0.27508479356765747 8.21240246295929e-06 -0.0010137883946299553 0 0 0 0
2892059416 -0.07349604368209839 -0.25700101256370544 -8.477922528982162e-05 -0.0009289244189858437 0 0 0 0
2895781500 -0.09212330728769302 -0.23577482998371124 -0.0001934841275215149 -0.0007454929873347282 0 0 0 0
2899503584 -0.10298030078411102 -0.21272645890712738 -0.0001752413809299469 -0.0006601689383387566 0 0 0 0
2903225668 -0.11539997160434723 -0.18786275386810303 -0.00016097817569971085 -0.00036936067044734955 0 0 0 0
2906947752 -0.12236882746219635 -0.16113638877868652 1.5636906027793884e-05 -0.0002396106719970703 0 0 0 0
2910669836 -0.12472192943096161 -0.1342756748199463 0.00017445068806409836 -0.0002056751400232315 0 0 0 0
2914391920 -0.12530206143856049 -0.10623332113027573 0.00037916749715805054 -0.00024947430938482285 0 0 0 0
2918114004 -0.11870793998241425 -0.08307870477437973 0.000408257357776165 -0.00040253903716802597 0 0 0 0
2921836088 -0.11248403787612915 -0.05757101997733116 0.0005340240895748138 -0.0004169084131717682 0 0 0 0
2925558172 -0.10309721529483795 -0.03431692346930504 0.0005880212411284447 -0.0006306404247879982 0 0 0 0
2929280256 -0.09152093529701233 -0.010548066347837448 0.0004042331129312515 -0.0007829358801245689 0 0 0 0
2933002340 -0.0762287899851799 0.011783121153712273 0.00011278316378593445 -0.0009638043120503426 0 0 0 0
2936724424 -0.0572853721678257 0.031227992847561836 -9.687244892120361e-05 -0.0008973404765129089 0 0 0 0
2940446508 -0.03692280873656273 0.0483228899538517 -0.0003669867292046547 -0.0006628846749663353 0 0 0 0
2944168592 -0.013668088242411613 0.06303535401821136 -0.000576668418943882 -0.0003849128261208534 0 0 0 0
2947890676 0.012525602243840694 0.07433375716209412 -0.0004863208159804344 0.00010672025382518768 0 0 0 0
2951612760 0.03837680444121361 0.08269621431827545 -0.00024159066379070282 0.0005601039156317711 0 0 0 0
2955334844 0.06692220270633698 0.0857274979352951 0.0001368476077914238 0.0008179331198334694 0 0 0 0
2959056928 0.09537152945995331 0.08430449664592743 0.00047278497368097305 0.0009391894564032555 0 0 0 0
2962779012 0.12227778136730194 0.0799587145447731 0.0010162033140659332 0.001060090959072113 0 0 0 0
2966501096 0.14810682833194733 0.07082666456699371 0.0016060089692473412 0.0009129997342824936 0 0 0 0
2970223180 0.17223817110061646 0.05925220623612404 0.00205311831086874 0.0004588477313518524 0 0 0 0
2973945264 0.19384914636611938 0.04365040361881256 0.002339438535273075 -5.778856575489044e-06 0 0 0 0
2977667348 0.2140825390815735 0.025263890624046326 0.002256634645164013 -0.0005215341225266457 0 0 0 0
2981389432 0.2320595383644104 0.005066215991973877 0.0021761907264590263 -0.0008629066869616508 0 0 0 0
2985111516 0.24448996782302856 -0.015945976600050926 0.002013053745031357 -0.001374843530356884 0 0 0 0
2988833600 0.25606387853622437 -0.03818277269601822 0.001785077154636383 -0.0018051639199256897 0 0 0 0
2992555684 0.26301395893096924 -0.061058856546878815 0.0013907728716731071 -0.0018299799412488937 0 0 0 0
2996277768 0.26666364073753357 -0.08417167514562607 0.0010097716003656387 -0.0017699049785733223 0 0 0 0
2999999852 0.26821208000183105 -0.10852819681167603 0.0006796782836318016 -0.0018953792750835419 0 0 0 0
