# HZ S RI R 50
1500000000 -0.15213444828987122 0.009531810879707336 0.07231230288743973 -0.03495127335190773 0 0 0 0
1503722084 -0.12477372586727142 0.041861165314912796 0.06365856528282166 -0.04689978435635567 0 0 0 0
1507444168 -0.09107998758554459 0.07178930193185806 0.051481544971466064 -0.05772533640265465 0 0 0 0
1511166252 -0.051922768354415894 0.0945083498954773 0.03812887892127037 -0.06468047201633453 0 0 0 0
1514888336 -0.0072369687259197235 0.11045050621032715 0.02318408340215683 -0.06788592785596848 0 0 0 0
1518610420 0.038872674107551575 0.11840309202671051 0.009205719456076622 -0.0673043429851532 0 0 0 0
1522332504 0.08805453032255173 0.1182108074426651 -0.0032180435955524445 -0.06397327780723572 0 0 0 0
1526054588 0.1348637342453003 0.10993367433547974 -0.01326712965965271 -0.058354124426841736 0 0 0 0
1529776672 0.18143519759178162 0.09382368624210358 -0.021512823179364204 -0.0519094355404377 0 0 0 0
1533498756 0.22655633091926575 0.07134249061346054 -0.027652565389871597 -0.04464803636074066 0 0 0 0
1537220840 0.2684212028980255 0.03972872346639633 -0.03183760493993759 -0.03732093796133995 0 0 0 0
1540942924 0.304831862449646 0.002405881881713867 -0.034433167427778244 -0.030364202335476875 0 0 0 0
1544665008 0.3346285820007324 -0.04115667566657066 -0.03573324903845787 -0.024261437356472015 0 0 0 0
1548387092 0.35807767510414124 -0.09071425348520279 -0.036920852959156036 -0.018742861226201057 0 0 0 0
1552109176 0.3733655512332916 -0.14235100150108337 -0.03778042644262314 -0.012759863398969173 0 0 0 0
1555831260 0.38187187910079956 -0.19571071863174438 -0.037648946046829224 -0.0071173058822751045 0 0 0 0
1559553344 0.3794231116771698 -0.2546144127845764 -0.03650708124041557 -0.0014929668977856636 0 0 0 0
1563275428 0.3680681884288788 -0.31022924184799194 -0.03435555100440979 0.0034595513716340065 0 0 0 0
1566997512 0.35075148940086365 -0.3644527792930603 -0.0318567231297493 0.00765498261898756 0 0 0 0
1570719596 0.3237570524215698 -0.4175589978694916 -0.02902655303478241 0.010909546166658401 0 0 0 0
1574441680 0.2884930968284607 -0.46381083130836487 -0.026102455332875252 0.013352097943425179 0 0 0 0
1578163764 0.244490385055542 -0.5049256086349487 -0.023661896586418152 0.015466282144188881 0 0 0 0
1581885848 0.19581517577171326 -0.539885401725769 -0.02121603675186634 0.017471712082624435 0 0 0 0
1585607932 0.14131397008895874 -0.5657317042350769 -0.01831231452524662 0.01928536407649517 0 0 0 0
1589330016 0.08407720923423767 -0.5845565795898438 -0.01565452665090561 0.02047707326710224 0 0 0 0
1593052100 0.024173349142074585 -0.5937700271606445 -0.013411209918558598 0.021328257396817207 0 0 0 0
1596774184 -0.03304266929626465 -0.5958549976348877 -0.011374566704034805 0.022425469011068344 0 0 0 0
1600496268 -0.09670189768075943 -0.5896249413490295 -0.009199857711791992 0.024167925119400024 0 0 0 0
1604218352 -0.1575196534395218 -0.5713426470756531 -0.005915987305343151 0.02589009888470173 0 0 0 0
1607940436 -0.21317295730113983 -0.5478224754333496 -0.0020438162609934807 0.027102192863821983 0 0 0 0
1611662520 -0.2642519176006317 -0.5154431462287903 0.002043047919869423 0.02731432020664215 0 0 0 0
1615384604 -0.3147253394126892 -0.4756208658218384 0.00659056194126606 0.026867631822824478 0 0 0 0
1619106688 -0.35511142015457153 -0.43017613887786865 0.010759111493825912 0.025630349293351173 0 0 0 0
1622828772 -0.39263099431991577 -0.37724822759628296 0.014747119508683681 0.023765256628394127 0 0 0 0
1626550856 -0.42246460914611816 -0.32073289155960083 0.0189028549939394 0.021136730909347534 0 0 0 0
1630272940 -0.443138062953949 -0.2603352665901184 0.02232249639928341 0.017416054382920265 0 0 0 0
1633995024 -0.46036648750305176 -0.19126445055007935 0.02495880052447319 0.012891283258795738 0 0 0 0
1637717108 -0.46505093574523926 -0.12313095480203629 0.026783447712659836 0.008152940310537815 0 0 0 0
1641439192 -0.46006515622138977 -0.05112525820732117 0.027629002928733826 0.0027364343404769897 0 0 0 0
1645161276 -0.4427671730518341 0.019013747572898865 0.02698284387588501 -0.002448245882987976 0 0 0 0
1648883360 -0.4145016670227051 0.08994807302951813 0.025339514017105103 -0.007511555217206478 0 0 0 0
1652605444 -0.37537258863449097 0.15349186956882477 0.02287808060646057 -0.011607775464653969 0 0 0 0
1656327528 -0.32539671659469604 0.21205464005470276 0.019467143341898918 -0.015049747191369534 0 0 0 0
1660049612 -0.2661040425300598 0.26209890842437744 0.01597931794822216 -0.017582351341843605 0 0 0 0
1663771696 -0.20151880383491516 0.30195096135139465 0.012052902020514011 -0.019534386694431305 0 0 0 0
1667493780 -0.12879590690135956 0.33427295088768005 0.008039516396820545 -0.020709261298179626 0 0 0 0
1671215864 -0.054484277963638306 0.35492682456970215 0.003741517663002014 -0.021223433315753937 0 0 0 0
1674937948 0.02342905104160309 0.3656226694583893 -0.0005784090608358383 -0.0202639177441597 0 0 0 0
1678660032 0.10827231407165527 0.36336594820022583 -0.004164869897067547 -0.018212348222732544 0 0 0 0
1682382116 0.18883587419986725 0.34637510776519775 -0.006843925453722477 -0.016038497909903526 0 0 0 0
1686104200 0.2651240825653076 0.31882524490356445 -0.009011069312691689 -0.013413933105766773 0 0 0 0
1689826284 0.33742856979370117 0.27803707122802734 -0.010306951589882374 -0.010401641950011253 0 0 0 0
1693548368 0.4038237929344177 0.22186553478240967 -0.010595100000500679 -0.007419758476316929 0 0 0 0
1697270452 0.45836639404296875 0.1578129529953003 -0.010086015798151493 -0.0048907240852713585 0 0 0 0
1700992536 0.5022997856140137 0.09059643745422363 -0.009132856503129005 -0.003272288478910923 0 0 0 0
1704714620 0.5345887541770935 0.012901067733764648 -0.008551456034183502 -0.0019481759518384933 0 0 0 0
1708436704 0.5540745258331299 -0.06623505055904388 -0.007788356393575668 -0.0006765304133296013 0 0 0 0
1712158788 0.5593091249465942 -0.14975149929523468 -0.006752303801476955 0.0002135084941983223 0 0 0 0
1715880872 0.5542857646942139 -0.22752392292022705 -0.00587664358317852 0.0005055228248238564 0 0 0 0
1719602956 0.5365291237831116 -0.3051557242870331 -0.004980298690497875 0.000929233618080616 0 0 0 0
1723325040 0.5041053295135498 -0.3787418603897095 -0.0040833596140146255 0.0007691821083426476 0 0 0 0
1727047124 0.46521300077438354 -0.44290879368782043 -0.003571540117263794 0.00036463141441345215 0 0 0 0
1730769208 0.415488600730896 -0.5013941526412964 -0.003441356122493744 -5.3301453590393066e-05 0 0 0 0
1734491292 0.3586099147796631 -0.5505250692367554 -0.0036114780232310295 -0.00042014289647340775 0 0 0 0
1738213376 0.29463475942611694 -0.59100341796875 -0.00399805698543787 -0.0006420416757464409 0 0 0 0
1741935460 0.2235184907913208 -0.6195849776268005 -0.0044742487370967865 -0.0007383190095424652 0 0 0 0
1745657544 0.15489937365055084 -0.6350176334381104 -0.005144855938851833 -0.0005744015797972679 0 0 0 0
1749379628 0.08219638466835022 -0.6416168212890625 -0.005857384763658047 -0.00015349965542554855 0 0 0 0
1753101712 0.011851578950881958 -0.6357827186584473 -0.006217554211616516 0.0004840455949306488 0 0 0 0
1756823796 -0.05686035007238388 -0.621515691280365 -0.006345878355205059 0.000977892428636551 0 0 0 0
1760545880 -0.11807222664356232 -0.5947381854057312 -0.006901035085320473 0.0016465568915009499 0 0 0 0
1764267964 -0.1743214726448059 -0.5597947835922241 -0.0073216743767261505 0.002497914247214794 0 0 0 0
1767990048 -0.22363251447677612 -0.5200624465942383 -0.007484897971153259 0.003410821780562401 0 0 0 0
1771712132 -0.2660890519618988 -0.4738432765007019 -0.007603632286190987 0.004338790662586689 0 0 0 0
1775434216 -0.3004981577396393 -0.42174452543258667 -0.00800812803208828 0.005463189445436001 0 0 0 0
1779156300 -0.32512813806533813 -0.3694781959056854 -0.008344009518623352 0.006763512268662453 0 0 0 0
1782878384 -0.34442660212516785 -0.31419646739959717 -0.008602090179920197 0.008624483831226826 0 0 0 0
1786600468 -0.3562304973602295 -0.2555480897426605 -0.008469291031360626 0.010988522320985794 0 0 0 0
1790322552 -0.35909032821655273 -0.19678471982479095 -0.007641613483428955 0.01365963090211153 0 0 0 0
1794044636 -0.3549383878707886 -0.13607442378997803 -0.00585072860121727 0.016430212184786797 0 0 0 0
1797766720 -0.34031206369400024 -0.08133654296398163 -0.003552297130227089 0.019038042053580284 0 0 0 0
1801488804 -0.31931182742118835 -0.028157174587249756 -0.00026662927120923996 0.021602844819426537 0 0 0 0
1805210888 -0.29057496786117554 0.02334706485271454 0.004463371820747852 0.02359553799033165 0 0 0 0
1808932972 -0.25404858589172363 0.06890912353992462 0.01049135997891426 0.024217668920755386 0 0 0 0
1812655056 -0.20797905325889587 0.10968557000160217 0.0166966263204813 0.022925356402993202 0 0 0 0
1816377140 -0.15736055374145508 0.13932394981384277 0.02238026261329651 0.020051684230566025 0 0 0 0
1820099224 -0.10215073823928833 0.15908947587013245 0.027624158188700676 0.015546774491667747 0 0 0 0
1823821308 -0.04518147185444832 0.16954949498176575 0.031830087304115295 0.009013036265969276 0 0 0 0
1827543392 0.00878756120800972 0.16961579024791718 0.03377978503704071 0.0017636725679039955 0 0 0 0
1831265476 0.061171092092990875 0.16142040491104126 0.03393174707889557 -0.006053093820810318 0 0 0 0
1834987560 0.11027175188064575 0.14563335478305817 0.031695522367954254 -0.013518214225769043 0 0 0 0
1838709644 0.1545083224773407 0.12417077273130417 0.02816014178097248 -0.019421804696321487 0 0 0 0
1842431728 0.19436755776405334 0.09552812576293945 0.023720823228359222 -0.024324504658579826 0 0 0 0
1846153812 0.22757284343242645 0.061902426183223724 0.018478356301784515 -0.02816053479909897 0 0 0 0
1849875896 0.2541566491127014 0.025855526328086853 0.012912789359688759 -0.0308363176882267 0 0 0 0
1853597980 0.2740637958049774 -0.013384327292442322 0.007107107900083065 -0.0320163369178772 0 0 0 0
1857320064 0.2888893187046051 -0.053374096751213074 0.0018734410405158997 -0.032239753752946854 0 0 0 0
1861042148 0.2962438762187958 -0.09450423717498779 -0.0028517618775367737 -0.03243507444858551 0 0 0 0
1864764232 0.29387181997299194 -0.1374271959066391 -0.007918218150734901 -0.032545916736125946 0 0 0 0
1868486316 0.2887129783630371 -0.17425431311130524 -0.014105064794421196 -0.03139016032218933 0 0 0 0
1872208400 0.27865108847618103 -0.2087191641330719 -0.019555365666747093 -0.029100684449076653 0 0 0 0
1875930484 0.26146993041038513 -0.24411052465438843 -0.024463176727294922 -0.025338556617498398 0 0 0 0
1879652568 0.23823867738246918 -0.27607956528663635 -0.02865203656256199 -0.021140946075320244 0 0 0 0
1883374652 0.21499276161193848 -0.2992345988750458 -0.032077617943286896 -0.016641592606902122 0 0 0 0
1887096736 0.1837223321199417 -0.3218233585357666 -0.03556229546666145 -0.010895553044974804 0 0 0 0
1890818820 0.1496303230524063 -0.3357312083244324 -0.03785896301269531 -0.0043919701129198074 0 0 0 0
1894540904 0.11635187268257141 -0.3434111475944519 -0.03872087225317955 0.0029319962486624718 0 0 0 0
1898262988 0.08417490124702454 -0.34437692165374756 -0.0382021963596344 0.00987498089671135 0 0 0 0
1901985072 0.0511888787150383 -0.3397586941719055 -0.035637740045785904 0.01711566001176834 0 0 0 0
1905707156 0.018850848078727722 -0.3292286992073059 -0.03151693940162659 0.0232860054820776 0 0 0 0
1909429240 -0.00509099755436182 -0.3158280551433563 -0.027394725009799004 0.02844254858791828 0 0 0 0
1913151324 -0.03046402335166931 -0.2982189953327179 -0.022007331252098083 0.033241771161556244 0 0 0 0
1916873408 -0.04826706647872925 -0.2776665687561035 -0.016545992344617844 0.03720105439424515 0 0 0 0
1920595492 -0.06420411914587021 -0.25410038232803345 -0.00922340527176857 0.040510453283786774 0 0 0 0
1924317576 -0.07498958706855774 -0.22788850963115692 -0.000990559346973896 0.04183438792824745 0 0 0 0
1928039660 -0.08131137490272522 -0.20245763659477234 0.007417970336973667 0.04159770533442497 0 0 0 0
1931761744 -0.08508660644292831 -0.1748010516166687 0.015624258667230606 0.03860481083393097 0 0 0 0
1935483828 -0.08267004042863846 -0.14735764265060425 0.022705573588609695 0.03382253646850586 0 0 0 0
1939205912 -0.07710007578134537 -0.12032286077737808 0.02780001237988472 0.027745231986045837 0 0 0 0
1942927996 -0.06561011075973511 -0.09515010565519333 0.0310105811804533 0.02190370485186577 0 0 0 0
1946650080 -0.05051828548312187 -0.07167015969753265 0.03323056176304817 0.016313478350639343 0 0 0 0
1950372164 -0.03044707328081131 -0.05106649920344353 0.03507666289806366 0.011041083373129368 0 0 0 0
1954094248 -0.006832395680248737 -0.034866876900196075 0.03692164644598961 0.005387544631958008 0 0 0 0
1957816332 0.020159542560577393 -0.0233570896089077 0.03828051686286926 -0.000889340415596962 0 0 0 0
1961538416 0.048875659704208374 -0.01691272109746933 0.037729330360889435 -0.008534529246389866 0 0 0 0
1965260500 0.07784254848957062 -0.01707577519118786 0.035165298730134964 -0.015515965409576893 0 0 0 0
1968982584 0.10652792453765869 -0.023256836459040642 0.03136125206947327 -0.022063471376895905 0 0 0 0
1972704668 0.13292507827281952 -0.034259092062711716 0.026868512853980064 -0.027540244162082672 0 0 0 0
1976426752 0.1558905392885208 -0.049448058009147644 0.021034877747297287 -0.03219037503004074 0 0 0 0
1980148836 0.17566385865211487 -0.06792426109313965 0.014540237374603748 -0.0357184037566185 0 0 0 0
1983870920 0.19308394193649292 -0.08997084200382233 0.006982604973018169 -0.03804471716284752 0 0 0 0
1987593004 0.20423384010791779 -0.1166064664721489 -0.0006228871643543243 -0.0381288044154644 0 0 0 0
1991315088 0.20871363580226898 -0.14495258033275604 -0.008159750141203403 -0.036862216889858246 0 0 0 0
1995037172 0.20919033885002136 -0.17144975066184998 -0.015241378918290138 -0.03424912318587303 0 0 0 0
1998759256 0.20456455647945404 -0.19867746531963348 -0.0211839210242033 -0.02957005985081196 0 0 0 0
2002481340 0.1968293935060501 -0.22144395112991333 -0.025190826505422592 -0.024498306214809418 0 0 0 0
2006203424 0.18332839012145996 -0.24445563554763794 -0.02816643752157688 -0.019489195197820663 0 0 0 0
2009925508 0.1672523468732834 -0.26330438256263733 -0.03038702718913555 -0.014666222035884857 0 0 0 0
2013647592 0.1483505666255951 -0.2789924740791321 -0.03186783194541931 -0.009651088155806065 0 0 0 0
2017369676 0.1268143355846405 -0.2929382622241974 -0.033533740788698196 -0.004364609718322754 0 0 0 0
2021091760 0.10508060455322266 -0.30267882347106934 -0.03424942120909691 0.0015603210777044296 0 0 0 0
2024813844 0.0793704092502594 -0.3084854185581207 -0.03388671949505806 0.008140871301293373 0 0 0 0
2028535928 0.05122072994709015 -0.3112172782421112 -0.031396977603435516 0.014375951141119003 0 0 0 0
2032258012 0.024076953530311584 -0.30830761790275574 -0.027641411870718002 0.019979024305939674 0 0 0 0
2035980096 -0.0011034011840820312 -0.30027422308921814 -0.023311473429203033 0.024125859141349792 0 0 0 0
2039702180 -0.027138203382492065 -0.28808096051216125 -0.018336698412895203 0.027375193312764168 0 0 0 0
2043424264 -0.0485275462269783 -0.2710056006908417 -0.013383885845541954 0.02912014350295067 0 0 0 0
2047146348 -0.06799560785293579 -0.25197380781173706 -0.008281414397060871 0.03063945658504963 0 0 0 0
2050868432 -0.08624318242073059 -0.22807690501213074 -0.0031258687376976013 0.030742980539798737 0 0 0 0
2054590516 -0.10130637884140015 -0.20052413642406464 0.0019080014899373055 0.030520539730787277 0 0 0 0
2058312600 -0.10789300501346588 -0.1732051521539688 0.006196118891239166 0.03004426881670952 0 0 0 0
2062034684 -0.11261673271656036 -0.1434684544801712 0.011040168814361095 0.028886307030916214 0 0 0 0
2065756768 -0.11264480650424957 -0.11179762333631516 0.01579219661653042 0.026583317667245865 0 0 0 0
2069478852 -0.10845401138067245 -0.07994776964187622 0.020209625363349915 0.02322957292199135 0 0 0 0
2073200936 -0.09757910668849945 -0.04853232949972153 0.023158123716711998 0.01947154849767685 0 0 0 0
2076923020 -0.08230480551719666 -0.018060145899653435 0.025436945259571075 0.015053159557282925 0 0 0 0
2080645104 -0.05993645265698433 0.009472010657191277 0.02694583870470524 0.010561690665781498 0 0 0 0
2084367188 -0.03350584954023361 0.03286333382129669 0.027867037802934647 0.006661882624030113 0 0 0 0
2088089272 -0.002496408298611641 0.05159493535757065 0.02847299352288246 0.0028557153418660164 0 0 0 0
2091811356 0.031311020255088806 0.0640498474240303 0.029180116951465607 -0.0010000243782997131 0 0 0 0
2095533440 0.06629174947738647 0.07105135172605515 0.02969992160797119 -0.005757412873208523 0 0 0 0
2099255524 0.10180298984050751 0.07215621322393417 0.02963106706738472 -0.011339075863361359 0 0 0 0
2102977608 0.13765737414360046 0.06779737025499344 0.027556393295526505 -0.01755661889910698 0 0 0 0
2106699692 0.17189589142799377 0.05710062384605408 0.023688292130827904 -0.022964786738157272 0 0 0 0
2110421776 0.20393504202365875 0.04276656359434128 0.018659256398677826 -0.027202941477298737 0 0 0 0
2114143860 0.23416940867900848 0.01873697154223919 0.013232225552201271 -0.03017222136259079 0 0 0 0
2117865944 0.25835007429122925 -0.005997106432914734 0.00729806162416935 -0.03197348117828369 0 0 0 0
2121588028 0.2784155607223511 -0.033488430082798004 0.0011223377659916878 -0.033268291503190994 0 0 0 0
2125310112 0.29136234521865845 -0.06791964173316956 -0.006363373249769211 -0.03241342678666115 0 0 0 0
2129032196 0.3009430170059204 -0.09890265762805939 -0.012537650763988495 -0.029790682718157768 0 0 0 0
2132754280 0.30477428436279297 -0.13346290588378906 -0.017847012728452682 -0.02592630498111248 0 0 0 0
2136476364 0.3021421432495117 -0.16862452030181885 -0.021923812106251717 -0.020860299468040466 0 0 0 0
2140198448 0.295107901096344 -0.19843851029872894 -0.024107463657855988 -0.015872180461883545 0 0 0 0
2143920532 0.2819329798221588 -0.2310948222875595 -0.0254460871219635 -0.01086795050650835 0 0 0 0
2147642616 0.2664158344268799 -0.25688299536705017 -0.025716479867696762 -0.006465159356594086 0 0 0 0
2151364700 0.2464970052242279 -0.27898797392845154 -0.025326896458864212 -0.0021807588636875153 0 0 0 0
2155086784 0.22218753397464752 -0.3026657998561859 -0.024729054421186447 0.0014697723090648651 0 0 0 0
2158808868 0.19448669254779816 -0.31770235300064087 -0.023631948977708817 0.004806458950042725 0 0 0 0
2162530952 0.1666746437549591 -0.3303276300430298 -0.022132569923996925 0.008157655596733093 0 0 0 0
2166253036 0.13779868185520172 -0.335041344165802 -0.02079349011182785 0.010511768981814384 0 0 0 0
2169975120 0.1077185571193695 -0.3375803828239441 -0.01946750469505787 0.013277534395456314 0 0 0 0
2173697204 0.07945321500301361 -0.3348872661590576 -0.01770002581179142 0.016496315598487854 0 0 0 0
2177419288 0.05082283914089203 -0.3283138871192932 -0.015185609459877014 0.019514385610818863 0 0 0 0
2181141372 0.023984670639038086 -0.3167528212070465 -0.01179508026689291 0.022084832191467285 0 0 0 0
2184863456 -3.183633089065552e-05 -0.3041605055332184 -0.00793126318603754 0.024052469059824944 0 0 0 0
2188585540 -0.02233070135116577 -0.28551265597343445 -0.003961404785513878 0.02556120790541172 0 0 0 0
2192307624 -0.04032127559185028 -0.263510525226593 0.000994277186691761 0.026248671114444733 0 0 0 0
2196029708 -0.05671470984816551 -0.23954080045223236 0.0064942073076963425 0.025747599080204964 0 0 0 0
2199751792 -0.06876040250062943 -0.21427859365940094 0.011348647065460682 0.023870917037129402 0 0 0 0
2203473876 -0.07755483686923981 -0.18413560092449188 0.015480962581932545 0.020677784457802773 0 0 0 0
2207195960 -0.07881283760070801 -0.15725497901439667 0.018663104623556137 0.01722092367708683 0 0 0 0
2210918044 -0.07629392296075821 -0.1274796426296234 0.021096181124448776 0.013082228600978851 0 0 0 0
2214640128 -0.06983936578035355 -0.09742147475481033 0.022669099271297455 0.009258320555090904 0 0 0 0
2218362212 -0.057246383279561996 -0.06952861696481705 0.023657377809286118 0.00360742025077343 0 0 0 0
2222084296 -0.04016345739364624 -0.04499583691358566 0.02302824705839157 -0.0008467994630336761 0 0 0 0
2225806380 -0.0186713095754385 -0.024140363559126854 0.021603457629680634 -0.004762660712003708 0 0 0 0
2229528464 0.006206892430782318 -0.008868458680808544 0.01994410902261734 -0.008093560114502907 0 0 0 0
2233250548 0.031741973012685776 0.001207767054438591 0.017733372747898102 -0.011454647406935692 0 0 0 0
2236972632 0.05793743580579758 0.008466975763440132 0.015252635814249516 -0.01396910846233368 0 0 0 0
2240694716 0.08489559590816498 0.010531466454267502 0.012188326567411423 -0.016250984743237495 0 0 0 0
2244416800 0.11151687800884247 0.008393853902816772 0.008652163669466972 -0.017978908494114876 0 0 0 0
2248138884 0.13652905821800232 0.0009438060224056244 0.00498628057539463 -0.018977828323841095 0 0 0 0
2251860968 0.1604398787021637 -0.009043240919709206 0.0007332321256399155 -0.019120095297694206 0 0 0 0
2255583052 0.18204426765441895 -0.027114950120449066 -0.0026704007759690285 -0.01845814846456051 0 0 0 0
2259305136 0.20162254571914673 -0.03948243707418442 -0.005732313729822636 -0.0169854573905468 0 0 0 0
2263027220 0.2168779969215393 -0.06086023151874542 -0.008171029388904572 -0.015051690861582756 0 0 0 0
2266749304 0.22529181838035583 -0.08864456415176392 -0.010085823014378548 -0.012895876541733742 0 0 0 0
2270471388 0.23465752601623535 -0.10688412189483643 -0.011374996043741703 -0.011196213774383068 0 0 0 0
2274193472 0.23834402859210968 -0.1305149346590042 -0.012832180596888065 -0.009199281223118305 0 0 0 0
2277915556 0.23261386156082153 -0.15880924463272095 -0.013861676678061485 -0.006844992749392986 0 0 0 0
2281637640 0.22380703687667847 -0.1847924441099167 -0.014601795934140682 -0.004260990768671036 0 0 0 0
2285359724 0.21489861607551575 -0.2036130428314209 -0.014849316328763962 -0.0021419133991003036 0 0 0 0
2289081808 0.19629259407520294 -0.2236192524433136 -0.014783591032028198 0.00011408515274524689 0 0 0 0
2292803892 0.18501408398151398 -0.23283810913562775 -0.014340847730636597 0.0023500556126236916 0 0 0 0
2296525976 0.16411393880844116 -0.2444496750831604 -0.013601625338196754 0.004360580816864967 0 0 0 0
2300248060 0.14239709079265594 -0.2529878616333008 -0.012564947828650475 0.006133208051323891 0 0 0 0
2303970144 0.12733086943626404 -0.25885918736457825 -0.01096839364618063 0.007984829135239124 0 0 0 0
2307692228 0.10056167095899582 -0.2608030438423157 -0.009293647482991219 0.009530111216008663 0 0 0 0
2311414312 0.0729966014623642 -0.2608623206615448 -0.006984936073422432 0.010636943392455578 0 0 0 0
2315136396 0.05457969382405281 -0.25415462255477905 -0.004479879513382912 0.010755850933492184 0 0 0 0
2318858480 0.0359482616186142 -0.24514470994472504 -0.0026261713355779648 0.010033831931650639 0 0 0 0
2322580564 0.015313705429434776 -0.23116540908813477 -0.0013528987765312195 0.009100179187953472 0 0 0 0
2326302648 -0.00024159252643585205 -0.21405372023582458 -0.0006335414946079254 0.008120824582874775 0 0 0 0
2330024732 -0.015412397682666779 -0.1930169016122818 -0.0004105959087610245 0.007304978556931019 0 0 0 0
2333746816 -0.025871220976114273 -0.16995243728160858 -0.00015597138553857803 0.007177081890404224 0 0 0 0
2337468900 -0.029968097805976868 -0.14639821648597717 0.00031223706901073456 0.007162933237850666 0 0 0 0
2341190984 -0.035727422684431076 -0.11898811906576157 0.0012589218094944954 0.006962447427213192 0 0 0 0
2344913068 -0.029867857694625854 -0.09392039477825165 0.0018544690683484077 0.006419875659048557 0 0 0 0
2348635152 -0.022320304065942764 -0.06821128726005554 0.002536557614803314 0.005566464737057686 0 0 0 0
2352357236 -0.010808919556438923 -0.044299736618995667 0.0026617497205734253 0.004865613766014576 0 0 0 0
2356079320 0.007239546626806259 -0.022755106911063194 0.002703426405787468 0.004256771877408028 0 0 0 0
2359801404 0.027610518038272858 -0.004257644526660442 0.0026160767301917076 0.003809897229075432 0 0 0 0
2363523488 0.05146496742963791 0.010351919569075108 0.002685542218387127 0.003525007516145706 0 0 0 0
2367245572 0.07791775465011597 0.021019885316491127 0.002585512585937977 0.003061707131564617 0 0 0 0
2370967656 0.1061650738120079 0.02496783435344696 0.0024019135162234306 0.002869216725230217 0 0 0 0
2374689740 0.13504311442375183 0.024972252547740936 0.0025355489924550056 0.0028770342469215393 0 0 0 0
2378411824 0.16189461946487427 0.01890454813838005 0.0024872682988643646 0.002544873394072056 0 0 0 0
2382133908 0.18886613845825195 0.01121460646390915 0.0023040715605020523 0.0023385751992464066 0 0 0 0
2385855992 0.21265855431556702 -0.0053371042013168335 0.002167636528611183 0.0024581179022789 0 0 0 0
2389578076 0.2341948300600052 -0.019894151017069817 0.0019693244248628616 0.0025753993541002274 0 0 0 0
2393300160 0.25268155336380005 -0.04087255150079727 0.0019071372225880623 0.002986302599310875 0 0 0 0
2397022244 0.2675815522670746 -0.0637236088514328 0.002343728207051754 0.0037360945716500282 0 0 0 0
2400744328 0.27822864055633545 -0.08922386169433594 0.00355407502502203 0.004191418178379536 0 0 0 0
2404466412 0.28607434034347534 -0.11700264364480972 0.005098232999444008 0.004159162752330303 0 0 0 0
2408188496 0.2885811924934387 -0.14509081840515137 0.006356886588037014 0.003314443863928318 0 0 0 0
2411910580 0.287692129611969 -0.17143934965133667 0.007285905070602894 0.0021773548796772957 0 0 0 0
2415632664 0.28192734718322754 -0.20071697235107422 0.008104104548692703 0.0008288482204079628 0 0 0 0
2419354748 0.2682373523712158 -0.2262580841779709 0.0085140997543931 -0.0008152378723025322 0 0 0 0
2423076832 0.25526881217956543 -0.24790272116661072 0.00873956736177206 -0.0028427261859178543 0 0 0 0
2426798916 0.23650449514389038 -0.2706774175167084 0.007945744320750237 -0.0049949465319514275 0 0 0 0
2430521000 0.21649618446826935 -0.2887689471244812 0.006647429428994656 -0.006381831131875515 0 0 0 0
2434243084 0.19449272751808167 -0.30373772978782654 0.005172385834157467 -0.007159433327615261 0 0 0 0
2437965168 0.17020981013774872 -0.3156607747077942 0.0038737300783395767 -0.0075616538524627686 0 0 0 0
2441687252 0.14090554416179657 -0.32648155093193054 0.0030267033725976944 -0.007937571965157986 0 0 0 0
2445409336 0.1142071932554245 -0.3305155336856842 0.0023883040994405746 -0.008279798552393913 0 0 0 0
2449131420 0.08486996591091156 -0.3293166160583496 0.0016606338322162628 -0.008892957121133804 0 0 0 0
2452853504 0.054624900221824646 -0.32324862480163574 0.0005525760352611542 -0.00965823233127594 0 0 0 0
2456575588 0.028261780738830566 -0.31215885281562805 -0.0008179601281881332 -0.010578615590929985 0 0 0 0
2460297672 0.0006975606083869934 -0.30037274956703186 -0.0025745872408151627 -0.011541085317730904 0 0 0 0
2464019756 -0.020534491166472435 -0.2823905646800995 -0.005055439658463001 -0.011815102770924568 0 0 0 0
2467741840 -0.04027955234050751 -0.262096643447876 -0.007364284247159958 -0.011195937171578407 0 0 0 0
2471463924 -0.05957929790019989 -0.238424152135849 -0.009709687903523445 -0.009987892583012581 0 0 0 0
2475186008 -0.07257284224033356 -0.21259035170078278 -0.011579683050513268 -0.008661664091050625 0 0 0 0
2478908092 -0.08172924816608429 -0.18516042828559875 -0.013393607921898365 -0.006881195120513439 0 0 0 0
2482630176 -0.08811219036579132 -0.15571972727775574 -0.015050447545945644 -0.004604953341186047 0 0 0 0
2486352260 -0.08903370797634125 -0.12678255140781403 -0.015997353941202164 -0.002079336903989315 0 0 0 0
2490074344 -0.08628717064857483 -0.09602893888950348 -0.01666267029941082 0.0007353583350777626 0 0 0 0
2493796428 -0.07768826186656952 -0.0670664981007576 -0.016771798953413963 0.003665592521429062 0 0 0 0
2497518512 -0.0654972568154335 -0.03856848180294037 -0.016048939898610115 0.0068336715921759605 0 0 0 0
2501240596 -0.047841500490903854 -0.013249697163701057 -0.014732426032423973 0.009582094848155975 0 0 0 0
2504962680 -0.026532579213380814 0.009323027916252613 -0.01344848982989788 0.01176078524440527 0 0 0 0
2508684764 -0.0017858706414699554 0.02772209793329239 -0.011751286685466766 0.014247048646211624 0 0 0 0
2512406848 0.025596793740987778 0.042185451835393906 -0.009033797308802605 0.016948798671364784 0 0 0 0
2516128932 0.05475923791527748 0.051915526390075684 -0.005777051672339439 0.018875597044825554 0 0 0 0
2519851016 0.08565464615821838 0.05601029098033905 -0.0014192266389727592 0.019834667444229126 0 0 0 0
2523573100 0.11557018011808395 0.05520951375365257 0.002639033831655979 0.01949307695031166 0 0 0 0
2527295184 0.14517386257648468 0.04717547073960304 0.006335899233818054 0.0182314645498991 0 0 0 0
2531017268 0.17112979292869568 0.03664475306868553 0.009594995528459549 0.01634477823972702 0 0 0 0
2534739352 0.19464978575706482 0.020637549459934235 0.012413428165018559 0.01400795578956604 0 0 0 0
2538461436 0.21406297385692596 0.004019234329462051 0.014693211764097214 0.01083516888320446 0 0 0 0
2542183520 0.22960443794727325 -0.014502659440040588 0.016178550198674202 0.007668846286833286 0 0 0 0
2545905604 0.2434389591217041 -0.036197640001773834 0.017313608899712563 0.0038639670237898827 0 0 0 0
2549627688 0.2542123794555664 -0.05723552405834198 0.01748461090028286 0.00014532357454299927 0 0 0 0
2553349772 0.2602609097957611 -0.07876792550086975 0.016633030027151108 -0.0036977576091885567 0 0 0 0
2557071856 0.2626599371433258 -0.10366108268499374 0.014660891145467758 -0.006933972239494324 0 0 0 0
2560793940 0.26231706142425537 -0.12516987323760986 0.011998112313449383 -0.00930936262011528 0 0 0 0
2564516024 0.259520947933197 -0.145738422870636 0.009365471079945564 -0.010484214872121811 0 0 0 0
2568238108 0.25360971689224243 -0.16646552085876465 0.0067867375910282135 -0.011432187631726265 0 0 0 0
2571960192 0.2458069920539856 -0.1827421486377716 0.00428853090852499 -0.011620484292507172 0 0 0 0
2575682276 0.2352994680404663 -0.20114311575889587 0.002022884786128998 -0.011356359347701073 0 0 0 0
2579404360 0.22249728441238403 -0.21607163548469543 0.0004432089626789093 -0.010722995735704899 0 0 0 0
2583126444 0.2077895700931549 -0.22920465469360352 -0.0007346561178565025 -0.01018985453993082 0 0 0 0
2586848528 0.19076848030090332 -0.24100351333618164 -0.0020459620282053947 -0.009918550960719585 0 0 0 0
2590570612 0.17283861339092255 -0.2495155781507492 -0.003540514037013054 -0.00927779171615839 0 0 0 0
2594292696 0.1558413952589035 -0.2545221745967865 -0.004907299764454365 -0.008182598277926445 0 0 0 0
2598014780 0.13558243215084076 -0.2599635124206543 -0.006034373305737972 -0.007085423916578293 0 0 0 0
2601736864 0.1217925101518631 -0.2592912018299103 -0.006789255887269974 -0.006095799617469311 0 0 0 0
2605458948 0.10071273893117905 -0.25582626461982727 -0.007487444207072258 -0.00445131678134203 0 0 0 0
2609181032 0.0837189108133316 -0.25061169266700745 -0.007750747725367546 -0.002870786003768444 0 0 0 0
2612903116 0.0671621635556221 -0.24212227761745453 -0.007450574077665806 -0.0012272801250219345 0 0 0 0
2616625200 0.05275502800941467 -0.23148687183856964 -0.006608912721276283 -5.803443491458893e-05 0 0 0 0
2620347284 0.0416746512055397 -0.2196660339832306 -0.00585394911468029 0.0006867395713925362 0 0 0 0
2624069368 0.031197987496852875 -0.20523101091384888 -0.005122559145092964 0.0012069158256053925 0 0 0 0
2627791452 0.0262349434196949 -0.19085955619812012 -0.004450075328350067 0.0013226158916950226 0 0 0 0
2631513536 0.024069473147392273 -0.17521682381629944 -0.004110618494451046 0.0011867713183164597 0 0 0 0
2635235620 0.021358992904424667 -0.16057448089122772 -0.003958095796406269 0.0012059630826115608 0 0 0 0
2638957704 0.024506941437721252 -0.14718441665172577 -0.0038182735443115234 0.0015830323100090027 0 0 0 0
2642679788 0.028749801218509674 -0.13403236865997314 -0.0034071756526827812 0.001953462138772011 0 0 0 0
2646401872 0.03381362557411194 -0.1223076730966568 -0.003046547994017601 0.00206666998565197 0 0 0 0
2650123956 0.042789481580257416 -0.11140033602714539 -0.002484044060111046 0.0019040899351239204 0 0 0 0
2653846040 0.05211932212114334 -0.10275676101446152 -0.0022209426388144493 0.0016910843551158905 0 0 0 0
2657568124 0.06279363483190536 -0.09737522900104523 -0.0022286148741841316 0.0013785641640424728 0 0 0 0
2661290208 0.07646286487579346 -0.09269075840711594 -0.002532857470214367 0.0012766765430569649 0 0 0 0
2665012292 0.08790737390518188 -0.09350728988647461 -0.002800016663968563 0.0014937417581677437 0 0 0 0
2668734376 0.09751595556735992 -0.09768799692392349 -0.003050748258829117 0.0018771886825561523 0 0 0 0
2672456460 0.10722583532333374 -0.10221006721258163 -0.0031157778576016426 0.0026488984003663063 0 0 0 0
2676178544 0.1141822412610054 -0.1098901778459549 -0.002873312681913376 0.0035308226943016052 0 0 0 0
2679900628 0.11993139982223511 -0.11722683161497116 -0.002211163751780987 0.0041618309915065765 0 0 0 0
2683622712 0.1232849657535553 -0.12439065426588058 -0.0013032890856266022 0.0046602776274085045 0 0 0 0
2687344796 0.12426796555519104 -0.13334037363529205 -0.000258101150393486 0.004735761322081089 0 0 0 0
2691066880 0.12418112903833389 -0.14194543659687042 0.0005957530811429024 0.00453556701540947 0 0 0 0
2694788964 0.12227435410022736 -0.14939478039741516 0.0012723319232463837 0.004314872436225414 0 0 0 0
2698511048 0.11821570992469788 -0.1576947122812271 0.0022627925500273705 0.004228261299431324 0 0 0 0
2702233132 0.1138143390417099 -0.1651310920715332 0.0032695187255740166 0.003665197640657425 0 0 0 0
2705955216 0.10918457061052322 -0.17038585245609283 0.004089417867362499 0.002777300775051117 0 0 0 0
2709677300 0.09917443245649338 -0.17891064286231995 0.004504440352320671 0.001562526449561119 0 0 0 0
2713399384 0.0908655896782875 -0.18271344900131226 0.00444936566054821 0.000472022220492363 0 0 0 0
2717121468 0.0801529809832573 -0.18481586873531342 0.004127574153244495 -0.00047911424189805984 0 0 0 0
2720843552 0.07105813920497894 -0.18490976095199585 0.003781694918870926 -0.0013444647192955017 0 0 0 0
2724565636 0.05778837203979492 -0.18466128408908844 0.003125685267150402 -0.0019964808598160744 0 0 0 0
2728287720 0.04621599614620209 -0.17982468008995056 0.002564113587141037 -0.002183312550187111 0 0 0 0
2732009804 0.03454041853547096 -0.17432965338230133 0.0018498701974749565 -0.002385001629590988 0 0 0 0
2735731888 0.023068223148584366 -0.16508497297763824 0.0016798852011561394 -0.002290879376232624 0 0 0 0
2739453972 0.01424346212297678 -0.15384283661842346 0.0014912709593772888 -0.002304353751242161 0 0 0 0
2743176056 0.006286333315074444 -0.14068374037742615 0.0012171538546681404 -0.0023023225367069244 0 0 0 0
2746898140 0.0014430638402700424 -0.1260107010602951 0.0012820269912481308 -0.0025461874902248383 0 0 0 0
2750620224 0.00032414868474006653 -0.1100272387266159 0.0013754433020949364 -0.0029014339670538902 0 0 0 0
2754342308 0.0007529072463512421 -0.09407858550548553 0.0010722177103161812 -0.0034571411088109016 0 0 0 0
2758064392 0.0037577152252197266 -0.07844147831201553 0.00045676156878471375 -0.004034947603940964 0 0 0 0
2761786476 0.009681948460638523 -0.06252649426460266 -0.00034669041633605957 -0.004251062870025635 0 0 0 0
2765508560 0.017581848427653313 -0.04680017754435539 -0.0013118404895067215 -0.004221894778311253 0 0 0 0
2769230644 0.02877553179860115 -0.03244299441576004 -0.002213011495769024 -0.0037313438951969147 0 0 0 0
2772952728 0.043318409472703934 -0.020151950418949127 -0.0026605185121297836 -0.0030194390565156937 0 0 0 0
2776674812 0.05993754789233208 -0.009368591010570526 -0.0030060578137636185 -0.0024189073592424393 0 0 0 0
2780396896 0.07829247415065765 -0.002821875736117363 -0.003112007863819599 -0.0018538180738687515 0 0 0 0
2784118980 0.09711926430463791 0.0011664032936096191 -0.003291443921625614 -0.0012727119028568268 0 0 0 0
2787841064 0.11724713444709778 0.0028452128171920776 -0.0030100615695118904 -0.00046593789011240005 0 0 0 0
2791563148 0.1378677487373352 0.0010915771126747131 -0.0028554145246744156 -8.921418339014053e-05 0 0 0 0
2795285232 0.1587848961353302 -0.0030467920005321503 -0.002533172257244587 0.0003644069656729698 0 0 0 0
2799007316 0.17973782122135162 -0.011307306587696075 -0.002048061229288578 0.0007467810064554214 0 0 0 0
2802729400 0.19885653257369995 -0.025501981377601624 -0.0013579288497567177 0.0005617216229438782 0 0 0 0
2806451484 0.21475720405578613 -0.0406605526804924 -0.0013495059683918953 0.00042780954390764236 0 0 0 0
2810173568 0.22937993705272675 -0.0568106472492218 -0.001562618650496006 0.0003574863076210022 0 0 0 0
2813895652 0.24203363060951233 -0.07579149305820465 -0.0016051391139626503 0.0006617764011025429 0 0 0 0
2817617736 0.24936321377754211 -0.10009322315454483 -0.0013517700135707855 0.001248301938176155 0 0 0 0
2821339820 0.2534598410129547 -0.12437967211008072 -0.0007763775065541267 0.0013218177482485771 0 0 0 0
2825061904 0.25490280985832214 -0.1469351351261139 -0.0004222514107823372 0.0012660101056098938 0 0 0 0
2828783988 0.25215500593185425 -0.1703016757965088 -3.241188824176788e-05 0.0011512571945786476 0 0 0 0
2832506072 0.2476978898048401 -0.19182702898979187 0.00020375382155179977 0.0009182756766676903 0 0 0 0
2836228156 0.2380201518535614 -0.21397611498832703 0.0003188755363225937 0.0007266970351338387 0 0 0 0
2839950240 0.22493189573287964 -0.23761163651943207 0.0006300546228885651 0.0005698837339878082 0 0 0 0
2843672324 0.2109653502702713 -0.25389793515205383 0.000657656230032444 0.0002685757353901863 0 0 0 0
2847394408 0.1937132179737091 -0.2706594467163086 0.0006902413442730904 -3.3838674426078796e-05 0 0 0 0
2851116492 0.17789439857006073 -0.2850404381752014 0.0005680937319993973 -0.00018160417675971985 0 0 0 0
2854838576 0.15669184923171997 -0.29872429370880127 0.0005646813660860062 -0.0003378037363290787 0 0 0 0
2858560660 0.13690359890460968 -0.30941328406333923 0.0004799291491508484 -0.0008134488016366959 0 0 0 0
2862282744 0.11040519922971725 -0.3181127905845642 0.0002797916531562805 -0.0008659372106194496 0 0 0 0
2866004828 0.08721188455820084 -0.3200952410697937 0.0002020346000790596 -0.0006699096411466599 0 0 0 0
2869726912 0.06382983922958374 -0.32024064660072327 0.0002828957512974739 -0.0006095301359891891 0 0 0 0
2873448996 0.04029128700494766 -0.31798553466796875 0.00028872396796941757 -0.0006923023611307144 0 0 0 0
2877171080 0.013911992311477661 -0.3119734227657318 0.0002678157761693001 -0.0007905391976237297 0 0 0 0
2880893164 -0.010657787322998047 -0.30400604009628296 0.0002328110858798027 -0.0008336696773767471 0 0 0 0
2884615248 -0.030493520200252533 -0.29128456115722656 0.0001584542915225029 -0.0008904589340090752 0 0 0 0
2888337332 -0.05385683476924896 -0.2759542763233185 -4.517845809459686e-06 -0.0008687619119882584 0 0 0 0
2892059416 -0.07209525257349014 -0.2581164836883545 -0.00013338588178157806 -0.000860399566590786 0 0 0 0
2895781500 -0.08973170071840286 -0.23746758699417114 -0.00024863705039024353 -0.0007472876459360123 0 0 0 0
2899503584 -0.1058601438999176 -0.21338364481925964 -0.0003482801839709282 -0.00046225450932979584 0 0 0 0
2903225668 -0.11655747890472412 -0.1876184195280075 -0.0002130819484591484 -0.0001553669571876526 0 0 0 0
2906947752 -0.12306192517280579 -0.1610601395368576 2.6893801987171173e-05 1.1265277862548828e-05 0 0 0 0
2910669836 -0.12583306431770325 -0.13419051468372345 0.0002930155023932457 4.688277840614319e-06 0 0 0 0
2914391920 -0.12404795736074448 -0.10835088044404984 0.0004896717146039009 -0.0001317160204052925 0 0 0 0
2918114004 -0.11948631703853607 -0.0823245421051979 0.0006774244830012321 -0.00022743642330169678 0 0 0 0
2921836088 -0.11297000199556351 -0.05812534689903259 0.0006169062107801437 -0.0005570733919739723 0 0 0 0
2925558172 -0.10438327491283417 -0.032942213118076324 0.0006860392168164253 -0.0007642414420843124 0 0 0 0
2929280256 -0.09104632586240768 -0.00974283181130886 0.0005227196961641312 -0.0008730636909604073 0 0 0 0
2933002340 -0.07584371417760849 0.012109879404306412 0.00024382025003433228 -0.001101899892091751 0 0 0 0
2936724424 -0.05679815262556076 0.03194614127278328 -0.00024775881320238113 -0.0009306371212005615 0 0 0 0
2940446508 -0.03592980280518532 0.04843029007315636 -0.0005134027451276779 -0.0007757851853966713 0 0 0 0
2944168592 -0.013439007103443146 0.06252378225326538 -0.0005740076303482056 -0.00023095402866601944 0 0 0 0
2947890676 0.012737165205180645 0.0738338828086853 -0.0005008988082408905 0.0003319857642054558 0 0 0 0
2951612760 0.03930272161960602 0.08182493597269058 -8.505303412675858e-05 0.000668955035507679 0 0 0 0
2955334844 0.06809478998184204 0.08410573750734329 0.00032883696258068085 0.0009512929245829582 0 0 0 0
2959056928 0.09454941004514694 0.08426661789417267 0.0007404806092381477 0.000993555411696434 0 0 0 0
2962779012 0.1226186528801918 0.07850530743598938 0.0012666862457990646 0.000992676243185997 0 0 0 0
2966501096 0.14786937832832336 0.07042229175567627 0.0018829088658094406 0.0008654333651065826 0 0 0 0
2970223180 0.17180274426937103 0.056053705513477325 0.002228064462542534 0.00020403042435646057 0 0 0 0
2973945264 0.1932344138622284 0.04515966773033142 0.0023862216621637344 -0.00032641366124153137 0 0 0 0
2977667348 0.2135688215494156 0.02720477618277073 0.0023371530696749687 -0.0008329069241881371 0 0 0 0
2981389432 0.23144152760505676 0.008630573749542236 0.0022994335740804672 -0.001203121617436409 0 0 0 0
2985111516 0.24518078565597534 -0.01439286395907402 0.0019274288788437843 -0.0016171764582395554 0 0 0 0
2988833600 0.2559119462966919 -0.037109747529029846 0.001661490648984909 -0.0019174236804246902 0 0 0 0
2992555684 0.26308175921440125 -0.0592748299241066 0.0011553112417459488 -0.002111956477165222 0 0 0 0
2996277768 0.2667938470840454 -0.0843481495976448 0.0007045678794384003 -0.002154913730919361 0 0 0 0
2999999852 0.2699722945690155 -0.10856592655181885 0.00028435513377189636 -0.0020412011072039604 0 0 0 0
