# HZ S RI R 50
1500000000 -0.1524869054555893 -0.0035071857273578644 0.0699983686208725 -0.03326857462525368 0 0 0 0
1503722084 -0.127933531999588 0.03157231956720352 0.06145649775862694 -0.045050423592329025 0 0 0 0
1507444168 -0.09742391854524612 0.06121387332677841 0.05059345066547394 -0.05459200590848923 0 0 0 0
1511166252 -0.06039844825863838 0.08633752912282944 0.03727143257856369 -0.06192933768033981 0 0 0 0
1514888336 -0.019490845501422882 0.10537122189998627 0.023593720048666 -0.06504236906766891 0 0 0 0
1518610420 0.02681371197104454 0.11746658384799957 0.010788936167955399 -0.06487458944320679 0 0 0 0
1522332504 0.07598031312227249 0.12097010016441345 -0.0010555032640695572 -0.06250891834497452 0 0 0 0
1526054588 0.12580227851867676 0.11560776829719543 -0.011009898036718369 -0.05818680673837662 0 0 0 0
1529776672 0.1738981008529663 0.10237292945384979 -0.01960020139813423 -0.05240935832262039 0 0 0 0
1533498756 0.2225927859544754 0.08056242018938065 -0.02643495239317417 -0.0454726479947567 0 0 0 0
1537220840 0.26772356033325195 0.05072687938809395 -0.031416118144989014 -0.03846055641770363 0 0 0 0
1540942924 0.3074018955230713 0.009779289364814758 -0.0344887301325798 -0.03101339004933834 0 0 0 0
1544665008 0.3400877118110657 -0.03479987382888794 -0.035900894552469254 -0.024479808285832405 0 0 0 0
1548387092 0.36306411027908325 -0.0868198573589325 -0.0369492843747139 -0.018832983449101448 0 0 0 0
1552109176 0.37863004207611084 -0.14058250188827515 -0.03748629242181778 -0.012977700680494308 0 0 0 0
1555831260 0.38615942001342773 -0.19465041160583496 -0.03719661757349968 -0.007216379977762699 0 0 0 0
1559553344 0.3825027048587799 -0.25462692975997925 -0.036025676876306534 -0.0014572590589523315 0 0 0 0
1563275428 0.37332281470298767 -0.3089231848716736 -0.03398706018924713 0.0031010638922452927 0 0 0 0
1566997512 0.3549925684928894 -0.3659689724445343 -0.031472884118556976 0.007252935320138931 0 0 0 0
1570719596 0.3274562954902649 -0.4176040291786194 -0.02872081845998764 0.010686203837394714 0 0 0 0
1574441680 0.2919701933860779 -0.46567481756210327 -0.0257100872695446 0.012943558394908905 0 0 0 0
1578163764 0.25133174657821655 -0.5065526962280273 -0.02322322316467762 0.014622120186686516 0 0 0 0
1581885848 0.20198027789592743 -0.5424991250038147 -0.021111147478222847 0.016506904736161232 0 0 0 0
1585607932 0.14545029401779175 -0.5708652138710022 -0.018770117312669754 0.018381396308541298 0 0 0 0
1589330016 0.08778110146522522 -0.589749813079834 -0.016279544681310654 0.019928496330976486 0 0 0 0
1593052100 0.02625003457069397 -0.6010283827781677 -0.013938557356595993 0.02110540121793747 0 0 0 0
1596774184 -0.03544360399246216 -0.60236656665802 -0.01183827593922615 0.02242974378168583 0 0 0 0
1600496268 -0.09908889979124069 -0.5949934720993042 -0.009340607561171055 0.023889943957328796 0 0 0 0
1604218352 -0.15914471447467804 -0.578129768371582 -0.006317794322967529 0.02548641338944435 0 0 0 0
1607940436 -0.2192746102809906 -0.5511615872383118 -0.0026114098727703094 0.026539050042629242 0 0 0 0
1611662520 -0.2707878351211548 -0.5184789896011353 0.0010099448263645172 0.027061594650149345 0 0 0 0
1615384604 -0.3225122094154358 -0.4746994972229004 0.005302483215928078 0.02700871415436268 0 0 0 0
1619106688 -0.3640168309211731 -0.4249362647533417 0.009303807280957699 0.02637568488717079 0 0 0 0
1622828772 -0.39914023876190186 -0.3697853088378906 0.01377870887517929 0.02505340613424778 0 0 0 0
1626550856 -0.4250880479812622 -0.31296056509017944 0.01844779960811138 0.023021943867206573 0 0 0 0
1630272940 -0.4440678358078003 -0.25154125690460205 0.02277502417564392 0.019267480820417404 0 0 0 0
1633995024 -0.4575672447681427 -0.18472258746623993 0.02623124048113823 0.014655442908406258 0 0 0 0
1637717108 -0.4597337543964386 -0.11692184209823608 0.0285197626799345 0.009044529870152473 0 0 0 0
1641439192 -0.4541240334510803 -0.047483935952186584 0.029297200962901115 0.003070407547056675 0 0 0 0
1645161276 -0.4371977746486664 0.020715788006782532 0.02843349240720272 -0.00232035294175148 0 0 0 0
1648883360 -0.40876156091690063 0.08872121572494507 0.0267642792314291 -0.007374994456768036 0 0 0 0
1652605444 -0.3695373833179474 0.15176516771316528 0.024359140545129776 -0.012016714550554752 0 0 0 0
1656327528 -0.32170984148979187 0.2081957757472992 0.020972389727830887 -0.01592230424284935 0 0 0 0
1660049612 -0.26541948318481445 0.2579672336578369 0.017060749232769012 -0.018865834921598434 0 0 0 0
1663771696 -0.20097744464874268 0.2994370758533478 0.012781156226992607 -0.020950090140104294 0 0 0 0
1667493780 -0.1307474672794342 0.33171898126602173 0.0082998126745224 -0.022265173494815826 0 0 0 0
1671215864 -0.05470661818981171 0.35452917218208313 0.0036050546914339066 -0.02278299070894718 0 0 0 0
1674937948 0.02321040630340576 0.3643748164176941 -0.0012876307591795921 -0.021804582327604294 0 0 0 0
1678660032 0.10645383596420288 0.3620631694793701 -0.005149449221789837 -0.019498825073242188 0 0 0 0
1682382116 0.1883464753627777 0.3453049063682556 -0.008105795830488205 -0.01660028100013733 0 0 0 0
1686104200 0.26620161533355713 0.3155900835990906 -0.010062936693429947 -0.0136136244982481 0 0 0 0
1689826284 0.3384994566440582 0.2741941809654236 -0.010920540429651737 -0.010506965219974518 0 0 0 0
1693548368 0.4021525979042053 0.22106947004795074 -0.011366036720573902 -0.007746950723230839 0 0 0 0
1697270452 0.4573056101799011 0.15791502594947815 -0.01124485395848751 -0.005067371763288975 0 0 0 0
1700992536 0.5012634992599487 0.08879955112934113 -0.010487974621355534 -0.003099817782640457 0 0 0 0
1704714620 0.5336751341819763 0.009362131357192993 -0.009616471827030182 -0.001456153579056263 0 0 0 0
1708436704 0.5525433421134949 -0.06599517166614532 -0.00861983373761177 -0.0002166619524359703 0 0 0 0
1712158788 0.5594239234924316 -0.1484055370092392 -0.00753855612128973 0.0008659902960062027 0 0 0 0
1715880872 0.5526593923568726 -0.22590617835521698 -0.0063490550965070724 0.0014565959572792053 0 0 0 0
1719602956 0.5334157347679138 -0.30601903796195984 -0.005166403949260712 0.0017322180792689323 0 0 0 0
1723325040 0.5020475387573242 -0.37772393226623535 -0.004101031459867954 0.0013922927901148796 0 0 0 0
1727047124 0.4635448753833771 -0.44164636731147766 -0.0036959927529096603 0.0008652927353978157 0 0 0 0
1730769208 0.4117818772792816 -0.501692533493042 -0.0035484135150909424 0.0003721481189131737 0 0 0 0
1734491292 0.3543393313884735 -0.5513325333595276 -0.003733559511601925 0.00036933086812496185 0 0 0 0
1738213376 0.2924767732620239 -0.5882080793380737 -0.0036622295156121254 0.00017326604574918747 0 0 0 0
1741935460 0.22299541532993317 -0.6172463893890381 -0.0037735216319561005 -8.151214569807053e-05 0 0 0 0
1745657544 0.15306393802165985 -0.6336454153060913 -0.004191393032670021 -0.00036820676177740097 0 0 0 0
1749379628 0.08405306935310364 -0.6393958330154419 -0.004943950101733208 -0.00015496369451284409 0 0 0 0
1753101712 0.01642322540283203 -0.6334351301193237 -0.005476911552250385 0.00025843922048807144 0 0 0 0
1756823796 -0.05366837978363037 -0.6186462044715881 -0.005774069577455521 0.0009058099240064621 0 0 0 0
1760545880 -0.11630982160568237 -0.5923917293548584 -0.005985916592180729 0.0014736084267497063 0 0 0 0
1764267964 -0.17388001084327698 -0.5600792169570923 -0.006223115138709545 0.001908295787870884 0 0 0 0
1767990048 -0.22140464186668396 -0.5217315554618835 -0.006482756696641445 0.002415955066680908 0 0 0 0
1771712132 -0.2657102048397064 -0.4730789363384247 -0.0071550291031599045 0.002952512353658676 0 0 0 0
1775434216 -0.29979780316352844 -0.4234474301338196 -0.008036157116293907 0.004034225828945637 0 0 0 0
1779156300 -0.32569873332977295 -0.3688269853591919 -0.008557849563658237 0.005625938065350056 0 0 0 0
1782878384 -0.3449897766113281 -0.31203919649124146 -0.008745180442929268 0.007771928794682026 0 0 0 0
1786600468 -0.35425668954849243 -0.255656898021698 -0.00854246411472559 0.010109168477356434 0 0 0 0
1790322552 -0.3580611050128937 -0.1957242488861084 -0.007617877796292305 0.012833834625780582 0 0 0 0
1794044636 -0.35273662209510803 -0.13666607439517975 -0.005807871930301189 0.015546913258731365 0 0 0 0
1797766720 -0.33821600675582886 -0.081468366086483 -0.00339644867926836 0.017914576455950737 0 0 0 0
1801488804 -0.3174269199371338 -0.027816355228424072 -0.00015101581811904907 0.02023494243621826 0 0 0 0
1805210888 -0.2885685861110687 0.021534599363803864 0.003985371440649033 0.021998103708028793 0 0 0 0
1808932972 -0.2521440386772156 0.06691087782382965 0.00921471044421196 0.022696495056152344 0 0 0 0
1812655056 -0.20671235024929047 0.106560118496418 0.015085352584719658 0.021481098607182503 0 0 0 0
1816377140 -0.1560254991054535 0.1378079056739807 0.02040218375623226 0.01907879114151001 0 0 0 0
1820099224 -0.10187045484781265 0.15810061991214752 0.025741785764694214 0.014997859485447407 0 0 0 0
1823821308 -0.046681590378284454 0.16870462894439697 0.029761265963315964 0.009301582351326942 0 0 0 0
1827543392 0.010099478997290134 0.1701430082321167 0.031670115888118744 0.002051299437880516 0 0 0 0
1831265476 0.06171619892120361 0.16187810897827148 0.03155364468693733 -0.004569981247186661 0 0 0 0
1834987560 0.11125819385051727 0.14467643201351166 0.030119184404611588 -0.010702906176447868 0 0 0 0
1838709644 0.15642015635967255 0.12193359434604645 0.027615219354629517 -0.016576509922742844 0 0 0 0
1842431728 0.19477078318595886 0.09405004978179932 0.02406955510377884 -0.021347809582948685 0 0 0 0
1846153812 0.22763749957084656 0.06002834439277649 0.01973888650536537 -0.025541502982378006 0 0 0 0
1849875896 0.2528112232685089 0.02456045150756836 0.014990653842687607 -0.028847670182585716 0 0 0 0
1853597980 0.2729005813598633 -0.013913154602050781 0.009483342058956623 -0.031040582805871964 0 0 0 0
1857320064 0.28673142194747925 -0.054508499801158905 0.004080556333065033 -0.03208534047007561 0 0 0 0
1861042148 0.2942550480365753 -0.09530672430992126 -0.0011117029935121536 -0.032997824251651764 0 0 0 0
1864764232 0.2931452989578247 -0.13779890537261963 -0.007264948450028896 -0.033270396292209625 0 0 0 0
1868486316 0.28543469309806824 -0.17533737421035767 -0.013876575045287609 -0.03193696588277817 0 0 0 0
1872208400 0.2752721309661865 -0.20948734879493713 -0.01956844888627529 -0.02849370613694191 0 0 0 0
1875930484 0.2596001625061035 -0.2423090785741806 -0.02400234155356884 -0.02433706447482109 0 0 0 0
1879652568 0.2378178834915161 -0.2728253901004791 -0.027419056743383408 -0.01981407217681408 0 0 0 0
1883374652 0.2129867523908615 -0.2981710731983185 -0.030318886041641235 -0.015294142998754978 0 0 0 0
1887096736 0.18450936675071716 -0.31866660714149475 -0.032923709601163864 -0.010866096243262291 0 0 0 0
1890818820 0.15285992622375488 -0.3329866826534271 -0.03490237891674042 -0.005450415425002575 0 0 0 0
1894540904 0.11871474236249924 -0.34183961153030396 -0.03592440113425255 0.0007034726440906525 0 0 0 0
1898262988 0.08566878736019135 -0.34405064582824707 -0.03615029528737068 0.007089081220328808 0 0 0 0
1901985072 0.05121743306517601 -0.34078314900398254 -0.03494953736662865 0.013859005644917488 0 0 0 0
1905707156 0.022358864545822144 -0.33268508315086365 -0.03246359899640083 0.019875377416610718 0 0 0 0
1909429240 -0.0038752928376197815 -0.3170933723449707 -0.02919752150774002 0.025529153645038605 0 0 0 0
1913151324 -0.02775634080171585 -0.2991921007633209 -0.024558093398809433 0.0311196967959404 0 0 0 0
1916873408 -0.04917608201503754 -0.2773287892341614 -0.018755575641989708 0.035974614322185516 0 0 0 0
1920595492 -0.06477728486061096 -0.25345882773399353 -0.011717584915459156 0.03973224014043808 0 0 0 0
1924317576 -0.07542909681797028 -0.22729399800300598 -0.0034846095368266106 0.042069561779499054 0 0 0 0
1928039660 -0.07952557504177094 -0.2013557255268097 0.004950362257659435 0.04255295917391777 0 0 0 0
1931761744 -0.0838499367237091 -0.17450696229934692 0.014376852661371231 0.040096670389175415 0 0 0 0
1935483828 -0.08127368241548538 -0.1483239084482193 0.02195497788488865 0.035170987248420715 0 0 0 0
1939205912 -0.07555700838565826 -0.12202025949954987 0.027470523491501808 0.028683526441454887 0 0 0 0
1942927996 -0.06495161354541779 -0.09718099236488342 0.030601680278778076 0.02311966009438038 0 0 0 0
1946650080 -0.05054599046707153 -0.0732426643371582 0.03319559246301651 0.0174129456281662 0 0 0 0
1950372164 -0.030730396509170532 -0.05161956325173378 0.035039838403463364 0.01166473887860775 0 0 0 0
1954094248 -0.00615321658551693 -0.035316549241542816 0.036808088421821594 0.006186092272400856 0 0 0 0
1957816332 0.020527539774775505 -0.024451153352856636 0.038070324808359146 -0.0002956744283437729 0 0 0 0
1961538416 0.048737697303295135 -0.018467869609594345 0.03746049851179123 -0.007715994492173195 0 0 0 0
1965260500 0.07693228125572205 -0.018374592065811157 0.03487132489681244 -0.015199403278529644 0 0 0 0
1968982584 0.10478571802377701 -0.024076998233795166 0.031235329806804657 -0.02069370448589325 0 0 0 0
1972704668 0.13062410056591034 -0.03419874235987663 0.027058057487010956 -0.0260638240724802 0 0 0 0
1976426752 0.1544109284877777 -0.04810744896531105 0.022382400929927826 -0.030623294413089752 0 0 0 0
1980148836 0.17557954788208008 -0.0667957216501236 0.01622486673295498 -0.03451843559741974 0 0 0 0
1983870920 0.19352799654006958 -0.089133620262146 0.009223568253219128 -0.03741459175944328 0 0 0 0
1987593004 0.20553001761436462 -0.11618151515722275 0.0015453696250915527 -0.038276828825473785 0 0 0 0
1991315088 0.21096865832805634 -0.14460334181785583 -0.006170274689793587 -0.037596460431814194 0 0 0 0
1995037172 0.21140849590301514 -0.1719035506248474 -0.013360315002501011 -0.03486320376396179 0 0 0 0
1998759256 0.2064736783504486 -0.19844436645507812 -0.01910773105919361 -0.0306362546980381 0 0 0 0
2002481340 0.19725780189037323 -0.223914235830307 -0.023523565381765366 -0.026234619319438934 0 0 0 0
2006203424 0.18338677287101746 -0.24500040709972382 -0.026872046291828156 -0.02169658988714218 0 0 0 0
2009925508 0.16523125767707825 -0.2641972005367279 -0.029746416956186295 -0.016941234469413757 0 0 0 0
2013647592 0.14802543818950653 -0.27866461873054504 -0.03241365775465965 -0.012260807678103447 0 0 0 0
2017369676 0.12443888187408447 -0.29195547103881836 -0.035060249269008636 -0.006984430365264416 0 0 0 0
2021091760 0.10477815568447113 -0.300101101398468 -0.036622822284698486 -0.0004922254011034966 0 0 0 0
2024813844 0.08108486980199814 -0.3060717284679413 -0.03658069297671318 0.006952640600502491 0 0 0 0
2028535928 0.05278386175632477 -0.3093838691711426 -0.034369733184576035 0.014097508043050766 0 0 0 0
2032258012 0.027516260743141174 -0.30624112486839294 -0.030431170016527176 0.02050531655550003 0 0 0 0
2035980096 0.003317892551422119 -0.2990744113922119 -0.025467999279499054 0.025278888642787933 0 0 0 0
2039702180 -0.02390393614768982 -0.2890259921550751 -0.020059488713741302 0.028826797381043434 0 0 0 0
2043424264 -0.047359514981508255 -0.2728477716445923 -0.014500845223665237 0.03152860701084137 0 0 0 0
2047146348 -0.06743916124105453 -0.2538955509662628 -0.008700603619217873 0.032765455543994904 0 0 0 0
2050868432 -0.08482961356639862 -0.23108458518981934 -0.003435026854276657 0.03309561684727669 0 0 0 0
2054590516 -0.09836118668317795 -0.20542560517787933 0.001903083175420761 0.032815542072057724 0 0 0 0
2058312600 -0.10918976366519928 -0.17542904615402222 0.007357378490269184 0.031671442091464996 0 0 0 0
2062034684 -0.11398734897375107 -0.14512568712234497 0.01236580777913332 0.029918193817138672 0 0 0 0
2065756768 -0.11478278040885925 -0.11352996528148651 0.017665430903434753 0.02730925939977169 0 0 0 0
2069478852 -0.10926348716020584 -0.08151083439588547 0.021727880463004112 0.023360148072242737 0 0 0 0
2073200936 -0.09889354556798935 -0.048598892986774445 0.025246091187000275 0.018691040575504303 0 0 0 0
2076923020 -0.08209660649299622 -0.017678558826446533 0.027277862653136253 0.013955507427453995 0 0 0 0
2080645104 -0.05987914651632309 0.00948824267834425 0.028013795614242554 0.009073283523321152 0 0 0 0
2084367188 -0.03237297758460045 0.033065199851989746 0.02825705148279667 0.004955209791660309 0 0 0 0
2088089272 -0.0013585574924945831 0.05035986006259918 0.02843295782804489 0.0014735236763954163 0 0 0 0
2091811356 0.03186255693435669 0.06290430575609207 0.02894522249698639 -0.0026805363595485687 0 0 0 0
2095533440 0.06559279561042786 0.06953165680170059 0.02906828746199608 -0.007143249735236168 0 0 0 0
2099255524 0.10128359496593475 0.07031022757291794 0.02838090993463993 -0.01236521266400814 0 0 0 0
2102977608 0.13533666729927063 0.06612171232700348 0.026163503527641296 -0.01781248115003109 0 0 0 0
2106699692 0.16849049925804138 0.057064611464738846 0.022435663267970085 -0.022795556113123894 0 0 0 0
2110421776 0.20095233619213104 0.04188431799411774 0.01734328269958496 -0.026925884187221527 0 0 0 0
2114143860 0.2309282124042511 0.020422659814357758 0.011812039650976658 -0.0295777078717947 0 0 0 0
2117865944 0.25611260533332825 -0.00403045117855072 0.0063644032925367355 -0.030890779569745064 0 0 0 0
2121588028 0.2758220434188843 -0.032874226570129395 0.00019501149654388428 -0.031677596271038055 0 0 0 0
2125310112 0.291158527135849 -0.06333045661449432 -0.005805656313896179 -0.03079609014093876 0 0 0 0
2129032196 0.3020225763320923 -0.0948026180267334 -0.012003523297607899 -0.028719481080770493 0 0 0 0
2132754280 0.3062123656272888 -0.13062472641468048 -0.01691507175564766 -0.025002427399158478 0 0 0 0
2136476364 0.30532196164131165 -0.16579413414001465 -0.020748479291796684 -0.020483873784542084 0 0 0 0
2140198448 0.2990921437740326 -0.1976631134748459 -0.023022737354040146 -0.015679745003581047 0 0 0 0
2143920532 0.2860448658466339 -0.22928543388843536 -0.02432345412671566 -0.011195776984095573 0 0 0 0
2147642616 0.2680918276309967 -0.25883954763412476 -0.024798570200800896 -0.006938178092241287 0 0 0 0
2151364700 0.2472228854894638 -0.282117635011673 -0.024675410240888596 -0.0028901882469654083 0 0 0 0
2155086784 0.22477415204048157 -0.3011467158794403 -0.024297667667269707 0.00044562947005033493 0 0 0 0
2158808868 0.19761377573013306 -0.3186044692993164 -0.023763108998537064 0.00393681600689888 0 0 0 0
2162530952 0.16746021807193756 -0.33053165674209595 -0.022710444405674934 0.007264489307999611 0 0 0 0
2166253036 0.1388915479183197 -0.33649107813835144 -0.021493053063750267 0.010278566740453243 0 0 0 0
2169975120 0.10933959484100342 -0.3390202224254608 -0.01995258778333664 0.013337042182683945 0 0 0 0
2173697204 0.08213638514280319 -0.3366905450820923 -0.018179599195718765 0.016567982733249664 0 0 0 0
2177419288 0.05161751061677933 -0.3305095136165619 -0.015559578314423561 0.019964326173067093 0 0 0 0
2181141372 0.025597937405109406 -0.3205091655254364 -0.011733603663742542 0.02273263782262802 0 0 0 0
2184863456 0.0018215179443359375 -0.30655673146247864 -0.007824350148439407 0.024441123008728027 0 0 0 0
2188585540 -0.024479549378156662 -0.28835663199424744 -0.003265942446887493 0.025610171258449554 0 0 0 0
2192307624 -0.04577226936817169 -0.2657703161239624 0.001412118785083294 0.026336662471294403 0 0 0 0
2196029708 -0.05943294242024422 -0.2408478707075119 0.006375739350914955 0.025849975645542145 0 0 0 0
2199751792 -0.07138362526893616 -0.21439813077449799 0.011625748127698898 0.023961562663316727 0 0 0 0
2203473876 -0.0809440091252327 -0.18384209275245667 0.016239676624536514 0.020640401169657707 0 0 0 0
2207195960 -0.07969620823860168 -0.1571272760629654 0.01967732049524784 0.016805365681648254 0 0 0 0
2210918044 -0.08028905093669891 -0.12528416514396667 0.02216244302690029 0.012077013030648232 0 0 0 0
2214640128 -0.07134982943534851 -0.0977756679058075 0.02329140156507492 0.007482083514332771 0 0 0 0
2218362212 -0.05941042676568031 -0.07064081728458405 0.02327118255198002 0.0021364716812968254 0 0 0 0
2222084296 -0.04375949874520302 -0.04480917379260063 0.02202986367046833 -0.0021942825987935066 0 0 0 0
2225806380 -0.022405317053198814 -0.023140087723731995 0.020118970423936844 -0.005303896032273769 0 0 0 0
2229528464 0.0025619063526391983 -0.00546885933727026 0.018234603106975555 -0.008323334157466888 0 0 0 0
2233250548 0.02964484691619873 0.006534458138048649 0.016402745619416237 -0.010854517109692097 0 0 0 0
2236972632 0.05821674317121506 0.014108620584011078 0.013782178051769733 -0.013402995653450489 0 0 0 0
2240694716 0.08698868006467819 0.01790277287364006 0.011273983865976334 -0.015270072966814041 0 0 0 0
2244416800 0.11565513908863068 0.011736918240785599 0.008003385737538338 -0.016984902322292328 0 0 0 0
2248138884 0.1414380967617035 0.005974709987640381 0.004779187962412834 -0.017528126016259193 0 0 0 0
2251860968 0.16551071405410767 -0.007750809192657471 0.00113615021109581 -0.017738576978445053 0 0 0 0
2255583052 0.1873224377632141 -0.02329181134700775 -0.0018567061051726341 -0.017022838816046715 0 0 0 0
2259305136 0.20493371784687042 -0.044132500886917114 -0.004808795638382435 -0.015817370265722275 0 0 0 0
2263027220 0.21772077679634094 -0.06808114796876907 -0.006942185573279858 -0.014458997175097466 0 0 0 0
2266749304 0.22968804836273193 -0.08345550298690796 -0.008728168904781342 -0.012740973383188248 0 0 0 0
2270471388 0.23345136642456055 -0.11316279321908951 -0.010327467694878578 -0.011084716767072678 0 0 0 0
2274193472 0.23566365242004395 -0.13761496543884277 -0.01183299720287323 -0.009235018864274025 0 0 0 0
2277915556 0.2365308552980423 -0.15665513277053833 -0.012877226807177067 -0.007161978632211685 0 0 0 0
2281637640 0.22332125902175903 -0.18963775038719177 -0.013685816898941994 -0.0049763573333621025 0 0 0 0
2285359724 0.21477657556533813 -0.20670950412750244 -0.013883772306144238 -0.002935793250799179 0 0 0 0
2289081808 0.20056237280368805 -0.22241422533988953 -0.014093059115111828 -0.0007189968600869179 0 0 0 0
2292803892 0.17931143939495087 -0.2417106032371521 -0.013723745010793209 0.0015838444232940674 0 0 0 0
2296525976 0.15592895448207855 -0.25263136625289917 -0.013156340457499027 0.003404230810701847 0 0 0 0
2300248060 0.14136554300785065 -0.25660717487335205 -0.012291444465517998 0.005023233592510223 0 0 0 0
2303970144 0.1166435182094574 -0.2652208209037781 -0.010820822790265083 0.007090366445481777 0 0 0 0
2307692228 0.09439576417207718 -0.26274076104164124 -0.009635338559746742 0.008433584123849869 0 0 0 0
2311414312 0.0737544372677803 -0.2598074972629547 -0.007678797468543053 0.009501008316874504 0 0 0 0
2315136396 0.0467526875436306 -0.25352632999420166 -0.005609793588519096 0.009937611408531666 0 0 0 0
2318858480 0.031449176371097565 -0.24293941259384155 -0.003919211216270924 0.009742317721247673 0 0 0 0
2322580564 0.011726602911949158 -0.2287759929895401 -0.002788395620882511 0.009103131480515003 0 0 0 0
2326302648 -0.0058594439178705215 -0.20968346297740936 -0.0016885101795196533 0.00858493521809578 0 0 0 0
2330024732 -0.019124018028378487 -0.1895516812801361 -0.0010128514841198921 0.00804457813501358 0 0 0 0
2333746816 -0.026217997074127197 -0.16770514845848083 -0.0006176736205816269 0.007786325179040432 0 0 0 0
2337468900 -0.03400827944278717 -0.1428205370903015 0.00018058717250823975 0.007707072421908379 0 0 0 0
2341190984 -0.03489740192890167 -0.11646173894405365 0.0009984998032450676 0.007456258870661259 0 0 0 0
2344913068 -0.02971361018717289 -0.09056583046913147 0.0017314543947577477 0.007056964561343193 0 0 0 0
2348635152 -0.022848419845104218 -0.06470834463834763 0.0022671660408377647 0.00645535159856081 0 0 0 0
2352357236 -0.007987904362380505 -0.04196329042315483 0.002566421404480934 0.006013382226228714 0 0 0 0
2356079320 0.008562161587178707 -0.020005512982606888 0.002938934601843357 0.005495913326740265 0 0 0 0
2359801404 0.029564324766397476 -0.002009791322052479 0.0031725438311696053 0.004958623088896275 0 0 0 0
2363523488 0.05415567755699158 0.012094499543309212 0.0034909723326563835 0.004261381924152374 0 0 0 0
2367245572 0.08085718005895615 0.02202882617712021 0.003437146544456482 0.0037163542583584785 0 0 0 0
2370967656 0.10964455455541611 0.025514431297779083 0.003580198623239994 0.0032368097454309464 0 0 0 0
2374689740 0.13757164776325226 0.025139186531305313 0.003593994304537773 0.0029929503798484802 0 0 0 0
2378411824 0.1647827923297882 0.018538441509008408 0.003583473153412342 0.002550864592194557 0 0 0 0
2382133908 0.1910354048013687 0.008820002898573875 0.0034445347264409065 0.0021961424499750137 0 0 0 0
2385855992 0.21523357927799225 -0.006564129143953323 0.003391927108168602 0.0019508777186274529 0 0 0 0
2389578076 0.236492320895195 -0.021769501268863678 0.0029686549678444862 0.001520826481282711 0 0 0 0
2393300160 0.253935843706131 -0.04432274401187897 0.0024448223412036896 0.0016810642555356026 0 0 0 0
2397022244 0.2681845426559448 -0.06725537031888962 0.0024672383442521095 0.002422284334897995 0 0 0 0
2400744328 0.2772088050842285 -0.09226122498512268 0.0031439540907740593 0.0030611418187618256 0 0 0 0
2404466412 0.28462353348731995 -0.11809355020523071 0.004721365869045258 0.003105037845671177 0 0 0 0
2408188496 0.28691521286964417 -0.14650197327136993 0.00569570530205965 0.002313791774213314 0 0 0 0
2411910580 0.2879287898540497 -0.17188873887062073 0.00667097233235836 0.0013762526214122772 0 0 0 0
2415632664 0.28005722165107727 -0.2003011256456375 0.007122796960175037 8.431822061538696e-05 0 0 0 0
2419354748 0.27031993865966797 -0.22422128915786743 0.007279288023710251 -0.001280924305319786 0 0 0 0
2423076832 0.25341591238975525 -0.2496500015258789 0.007271093316376209 -0.002914363518357277 0 0 0 0
2426798916 0.2353706955909729 -0.27157217264175415 0.006824737414717674 -0.004305988550186157 0 0 0 0
2430521000 0.2172948718070984 -0.2884136438369751 0.005686109885573387 -0.005336507223546505 0 0 0 0
2434243084 0.1944783329963684 -0.3037261962890625 0.005002867430448532 -0.006054254248738289 0 0 0 0
2437965168 0.16892574727535248 -0.3151143789291382 0.004157037474215031 -0.0067186253145337105 0 0 0 0
2441687252 0.14061599969863892 -0.3239731192588806 0.0034379474818706512 -0.007249463349580765 0 0 0 0
2445409336 0.11272086203098297 -0.3289341926574707 0.0026326030492782593 -0.008012542501091957 0 0 0 0
2449131420 0.08284048736095428 -0.3273930251598358 0.0016436316072940826 -0.008782788179814816 0 0 0 0
2452853504 0.05841664969921112 -0.3205922245979309 0.00045575201511383057 -0.009426669217646122 0 0 0 0
2456575588 0.026772109791636467 -0.31185194849967957 -0.0009926129132509232 -0.009882315061986446 0 0 0 0
2460297672 0.006914705038070679 -0.2965393662452698 -0.0022317273542284966 -0.010443192906677723 0 0 0 0
2464019756 -0.017234325408935547 -0.28078553080558777 -0.004280823282897472 -0.010553678497672081 0 0 0 0
2467741840 -0.038332246243953705 -0.2607782185077667 -0.006371431052684784 -0.010313530452549458 0 0 0 0
2471463924 -0.056499846279621124 -0.23861131072044373 -0.008226639591157436 -0.009519392624497414 0 0 0 0
2475186008 -0.0690370723605156 -0.21428221464157104 -0.010057485662400723 -0.008519190363585949 0 0 0 0
2478908092 -0.07871004939079285 -0.18682408332824707 -0.01178837101906538 -0.0071473270654678345 0 0 0 0
2482630176 -0.08519885689020157 -0.15798230469226837 -0.01351755578070879 -0.005286981351673603 0 0 0 0
2486352260 -0.0868861973285675 -0.1288634091615677 -0.014725467190146446 -0.0029949089512228966 0 0 0 0
2490074344 -0.08559203147888184 -0.09797129034996033 -0.015751725062727928 -0.0003488343209028244 0 0 0 0
2493796428 -0.07632279396057129 -0.06854072958230972 -0.016151927411556244 0.0026215119287371635 0 0 0 0
2497518512 -0.06466055661439896 -0.04005851969122887 -0.015554080717265606 0.005668052472174168 0 0 0 0
2501240596 -0.04718279093503952 -0.014588844031095505 -0.014469431713223457 0.008350053802132607 0 0 0 0
2504962680 -0.026074502617120743 0.007340909913182259 -0.013014040887355804 0.010611110366880894 0 0 0 0
2508684764 -0.0018549710512161255 0.02570505067706108 -0.01118566282093525 0.013068728148937225 0 0 0 0
2512406848 0.024699795991182327 0.04080259054899216 -0.008896765299141407 0.015396477654576302 0 0 0 0
2516128932 0.05405087396502495 0.050888996571302414 -0.00589347817003727 0.017292624339461327 0 0 0 0
2519851016 0.08408323675394058 0.05615459010004997 -0.002120419405400753 0.018083957955241203 0 0 0 0
2523573100 0.11533711105585098 0.054355867207050323 0.0016701053828001022 0.017864516004920006 0 0 0 0
2527295184 0.1449928730726242 0.049858458340168 0.004576114937663078 0.016845153644680977 0 0 0 0
2531017268 0.17268045246601105 0.037382856011390686 0.00770682655274868 0.015425559133291245 0 0 0 0
2534739352 0.19610032439231873 0.022742511704564095 0.010470682755112648 0.013814571313560009 0 0 0 0
2538461436 0.21673597395420074 0.005000025033950806 0.013194821774959564 0.011211078613996506 0 0 0 0
2542183520 0.23264728486537933 -0.016196399927139282 0.015152857638895512 0.008235618472099304 0 0 0 0
2545905604 0.245985209941864 -0.038983799517154694 0.016198160126805305 0.0044610342010855675 0 0 0 0
2549627688 0.25528204441070557 -0.06097914278507233 0.016380783170461655 0.0008690506219863892 0 0 0 0
2553349772 0.2600404620170593 -0.08585822582244873 0.015629364177584648 -0.002871144562959671 0 0 0 0
2557071856 0.26281654834747314 -0.10804201662540436 0.013879701495170593 -0.006087953224778175 0 0 0 0
2560793940 0.2612628936767578 -0.12892700731754303 0.011439547874033451 -0.008123286068439484 0 0 0 0
2564516024 0.25649088621139526 -0.15041470527648926 0.00891820341348648 -0.009412606246769428 0 0 0 0
2568238108 0.24928206205368042 -0.16928113996982574 0.006735117174685001 -0.010160611942410469 0 0 0 0
2571960192 0.2401837408542633 -0.18674257397651672 0.004507777281105518 -0.010534501634538174 0 0 0 0
2575682276 0.22777916491031647 -0.20307961106300354 0.002534007653594017 -0.010309801436960697 0 0 0 0
2579404360 0.21830180287361145 -0.21501509845256805 0.001090402714908123 -0.009962037205696106 0 0 0 0
2583126444 0.20450645685195923 -0.2265859991312027 -3.0452385544776917e-05 -0.009614987298846245 0 0 0 0
2586848528 0.18505528569221497 -0.24057282507419586 -0.0015318617224693298 -0.009550084359943867 0 0 0 0
2590570612 0.16992980241775513 -0.24731476604938507 -0.0029065776616334915 -0.009054157882928848 0 0 0 0
2594292696 0.15394830703735352 -0.25235387682914734 -0.004218593239784241 -0.008274209685623646 0 0 0 0
2598014780 0.13510148227214813 -0.2566163241863251 -0.005199693143367767 -0.0071938252076506615 0 0 0 0
2601736864 0.12001641094684601 -0.2543943524360657 -0.006237529218196869 -0.006290470249950886 0 0 0 0
2605458948 0.10008930414915085 -0.25282150506973267 -0.006944762542843819 -0.004984964616596699 0 0 0 0
2609181032 0.08386227488517761 -0.24696235358715057 -0.007242107763886452 -0.0036058956757187843 0 0 0 0
2612903116 0.06765323877334595 -0.23950085043907166 -0.007295643910765648 -0.002233944833278656 0 0 0 0
2616625200 0.0542871356010437 -0.22814616560935974 -0.006808481179177761 -0.0010477472096681595 0 0 0 0
2620347284 0.044503144919872284 -0.21690364181995392 -0.0062063708901405334 -0.0001590987667441368 0 0 0 0
2624069368 0.0361817330121994 -0.20397642254829407 -0.005485871806740761 0.0004249773919582367 0 0 0 0
2627791452 0.03177005797624588 -0.18911777436733246 -0.004888983443379402 0.0005006603896617889 0 0 0 0
2631513536 0.02715945430099964 -0.17503951489925385 -0.0048671867698431015 0.0006750347092747688 0 0 0 0
2635235620 0.024859271943569183 -0.16050243377685547 -0.004854689352214336 0.0012003369629383087 0 0 0 0
2638957704 0.02726726233959198 -0.14842374622821808 -0.00467960350215435 0.0018499577417969704 0 0 0 0
2642679788 0.03111826255917549 -0.13521091639995575 -0.004168924875557423 0.0021387552842497826 0 0 0 0
2646401872 0.03660721331834793 -0.12459339201450348 -0.0036254534497857094 0.0025538401678204536 0 0 0 0
2650123956 0.04440304636955261 -0.11425597220659256 -0.002743811346590519 0.0025552362203598022 0 0 0 0
2653846040 0.052697423845529556 -0.10567930340766907 -0.0023341188207268715 0.0022582747042179108 0 0 0 0
2657568124 0.06350310146808624 -0.09993598610162735 -0.002353833056986332 0.0017972402274608612 0 0 0 0
2661290208 0.07504294812679291 -0.0974322035908699 -0.0026211990043520927 0.001677325926721096 0 0 0 0
2665012292 0.08650621771812439 -0.0961686223745346 -0.003038587048649788 0.0021776845678687096 0 0 0 0
2668734376 0.09568297863006592 -0.09880649298429489 -0.0029142890125513077 0.002728593535721302 0 0 0 0
2672456460 0.1050838977098465 -0.10357903689146042 -0.002694128081202507 0.003340376541018486 0 0 0 0
2676178544 0.11115719377994537 -0.11054033041000366 -0.0023295292630791664 0.003996352665126324 0 0 0 0
2679900628 0.11805867403745651 -0.11676767468452454 -0.0017433669418096542 0.004445329308509827 0 0 0 0
2683622712 0.12213505059480667 -0.12416115403175354 -0.0008438965305685997 0.004985795356333256 0 0 0 0
2687344796 0.12387833744287491 -0.13187794387340546 0.00014751311391592026 0.005060733295977116 0 0 0 0
2691066880 0.12343232333660126 -0.141349196434021 0.0013434616848826408 0.004755434580147266 0 0 0 0
2694788964 0.122919961810112 -0.1485012322664261 0.0020731110125780106 0.004441894590854645 0 0 0 0
2698511048 0.11998379230499268 -0.1554912030696869 0.0029933564364910126 0.004074082709848881 0 0 0 0
2702233132 0.11538704484701157 -0.16333478689193726 0.00406611617654562 0.0031606554985046387 0 0 0 0
2705955216 0.11027377098798752 -0.17065635323524475 0.004699931479990482 0.0021215053275227547 0 0 0 0
2709677300 0.10204239189624786 -0.17819687724113464 0.004748176783323288 0.0007035238668322563 0 0 0 0
2713399384 0.09163789451122284 -0.18341539800167084 0.004590269178152084 -0.00036757905036211014 0 0 0 0
2717121468 0.08272826671600342 -0.1851118505001068 0.004125730134546757 -0.001250607892870903 0 0 0 0
2720843552 0.06997506320476532 -0.18680180609226227 0.0035888422280550003 -0.0018900474533438683 0 0 0 0
2724565636 0.05737095698714256 -0.18467865884304047 0.002809414640069008 -0.0022683562710881233 0 0 0 0
2728287720 0.04436871036887169 -0.18047857284545898 0.0022358177229762077 -0.002317476086318493 0 0 0 0
2732009804 0.03329505771398544 -0.17358288168907166 0.0019938498735427856 -0.002236815169453621 0 0 0 0
2735731888 0.02228200063109398 -0.1632024496793747 0.0017240652814507484 -0.0024998411536216736 0 0 0 0
2739453972 0.014657348394393921 -0.15322823822498322 0.0014773253351449966 -0.002819082699716091 0 0 0 0
2743176056 0.008332330733537674 -0.1401374191045761 0.0011173700913786888 -0.00305870920419693 0 0 0 0
2746898140 0.0009896792471408844 -0.12541373074054718 0.00071739312261343 -0.003082362934947014 0 0 0 0
2750620224 -0.0003104452043771744 -0.1092614158987999 0.0005207192152738571 -0.003231811337172985 0 0 0 0
2754342308 0.0004117237403988838 -0.09380971640348434 0.00016893260180950165 -0.003443276509642601 0 0 0 0
2758064392 0.003387836739420891 -0.0772659108042717 -0.00045121926814317703 -0.003746515139937401 0 0 0 0
2761786476 0.009188558906316757 -0.061770323663949966 -0.0012060869485139847 -0.003681287169456482 0 0 0 0
2765508560 0.0175611712038517 -0.04556165635585785 -0.0019567683339118958 -0.003301270306110382 0 0 0 0
2769230644 0.029722250998020172 -0.030802134424448013 -0.002306327223777771 -0.0025624027475714684 0 0 0 0
2772952728 0.04336079582571983 -0.01914200559258461 -0.0023827822878956795 -0.002068021334707737 0 0 0 0
2776674812 0.06036122515797615 -0.008966014720499516 -0.0023297248408198357 -0.0015721945092082024 0 0 0 0
2780396896 0.0788847878575325 -0.0027722157537937164 -0.0024121571332216263 -0.0015431782230734825 0 0 0 0
2784118980 0.09806310385465622 0.0019061267375946045 -0.002671162597835064 -0.0012730127200484276 0 0 0 0
2787841064 0.11817217618227005 0.004210241138935089 -0.002875804901123047 -0.0005892906337976456 0 0 0 0
2791563148 0.13913844525814056 0.0017173513770103455 -0.002631661482155323 2.6774592697620392e-05 0 0 0 0
2795285232 0.1601584255695343 -0.004296243190765381 -0.002349548041820526 0.0004801992326974869 0 0 0 0
2799007316 0.18156097829341888 -0.012047326192259789 -0.001702999696135521 0.0007971487939357758 0 0 0 0
2802729400 0.20044273138046265 -0.02564634382724762 -0.0011728368699550629 0.0006105396896600723 0 0 0 0
2806451484 0.21672849357128143 -0.042358413338661194 -0.0010376852005720139 0.0003441236913204193 0 0 0 0
2810173568 0.23074495792388916 -0.05763331428170204 -0.0011393018066883087 0.00022379029542207718 0 0 0 0
2813895652 0.2415778636932373 -0.08158652484416962 -0.0013653812929987907 0.0005508707836270332 0 0 0 0
2817617736 0.24854712188243866 -0.10169566422700882 -0.0010352395474910736 0.0008894801139831543 0 0 0 0
2821339820 0.25339263677597046 -0.12368133664131165 -0.0005951821804046631 0.0010029859840869904 0 0 0 0
2825061904 0.2519409954547882 -0.15091019868850708 -0.00023918133229017258 0.0008106399327516556 0 0 0 0
2828783988 0.250501811504364 -0.17167401313781738 -0.00023237615823745728 0.0004973700270056725 0 0 0 0
2832506072 0.24692830443382263 -0.19066669046878815 -0.00022098515182733536 0.0005779704079031944 0 0 0 0
2836228156 0.23412153124809265 -0.21838133037090302 -9.135715663433075e-05 0.0004365537315607071 0 0 0 0
2839950240 0.22413603961467743 -0.23761683702468872 -7.129274308681488e-06 0.00040371622890233994 0 0 0 0
2843672324 0.21051675081253052 -0.25416964292526245 0.00011398829519748688 0.0003322269767522812 0 0 0 0
2847394408 0.19301582872867584 -0.2716735303401947 0.00017862580716609955 0.00015333667397499084 0 0 0 0
2851116492 0.17415030300617218 -0.2849584221839905 0.000138905830681324 0.0001723766326904297 0 0 0 0
2854838576 0.15472638607025146 -0.2963998317718506 0.00026862509548664093 0.0002104947343468666 0 0 0 0
2858560660 0.13938327133655548 -0.30673959851264954 0.0003923727199435234 -0.00018398277461528778 0 0 0 0
2862282744 0.11169877648353577 -0.314775675535202 0.00043492671102285385 -0.00020425580441951752 0 0 0 0
2866004828 0.08881492912769318 -0.3183392882347107 0.0006445124745368958 -4.4125132262706757e-05 0 0 0 0
2869726912 0.06425957381725311 -0.3190360963344574 0.0009006895124912262 -0.00026703812181949615 0 0 0 0
2873448996 0.03972297161817551 -0.3176242411136627 0.0009376993402838707 -0.0005655912682414055 0 0 0 0
2877171080 0.013268612325191498 -0.31075188517570496 0.0008540824055671692 -0.0008514663204550743 0 0 0 0
2880893164 -0.011791341006755829 -0.30258336663246155 0.0008069872856140137 -0.0010952521115541458 0 0 0 0
2884615248 -0.033308714628219604 -0.2897791862487793 0.0004044119268655777 -0.0012979619204998016 0 0 0 0
2888337332 -0.04987764731049538 -0.27582719922065735 0.00019853189587593079 -0.0013075433671474457 0 0 0 0
2892059416 -0.07088331133127213 -0.2577243447303772 -0.00010805856436491013 -0.001181323081254959 0 0 0 0
2895781500 -0.0869087427854538 -0.2384040653705597 -0.0002957116812467575 -0.0010637613013386726 0 0 0 0
2899503584 -0.1048157587647438 -0.21308869123458862 -0.0004135454073548317 -0.000743301585316658 0 0 0 0
2903225668 -0.11393821984529495 -0.18961574137210846 -0.00035884231328964233 -0.0005306145176291466 0 0 0 0
2906947752 -0.12157824635505676 -0.16294775903224945 -0.00012754835188388824 -0.0003189593553543091 0 0 0 0
2910669836 -0.1254219263792038 -0.13580164313316345 -5.5225566029548645e-05 -0.00030675996094942093 0 0 0 0
2914391920 -0.1253162920475006 -0.10934949666261673 6.237626075744629e-05 -0.00036342255771160126 0 0 0 0
2918114004 -0.12053137272596359 -0.08416824787855148 1.7337501049041748e-05 -0.000438053160905838 0 0 0 0
2921836088 -0.11451416462659836 -0.0583704374730587 0.00020371656864881516 -0.00036004092544317245 0 0 0 0
2925558172 -0.1057562455534935 -0.03377542272210121 0.00016495119780302048 -0.00047732889652252197 0 0 0 0
2929280256 -0.09286504983901978 -0.010240331292152405 0.00017732009291648865 -0.00040432158857584 0 0 0 0
2933002340 -0.0771116092801094 0.01232499722391367 2.7113594114780426e-05 -0.0004634186625480652 0 0 0 0
2936724424 -0.058257829397916794 0.03137718886137009 -0.00018740352243185043 -0.00026904791593551636 0 0 0 0
2940446508 -0.03754289448261261 0.048325978219509125 -0.00025951117277145386 -0.00020185112953186035 0 0 0 0
2944168592 -0.014315754175186157 0.06301301717758179 -0.00031934864819049835 6.301142275333405e-05 0 0 0 0
2947890676 0.0123506560921669 0.07489799708127975 -3.273040056228638e-05 0.0005622226744890213 0 0 0 0
2951612760 0.03955033794045448 0.08249479532241821 0.00013949349522590637 0.0009228773415088654 0 0 0 0
2955334844 0.06682144105434418 0.08525897562503815 0.0006097052246332169 0.0011700093746185303 0 0 0 0
2959056928 0.09466475993394852 0.08496218919754028 0.0010913992300629616 0.0011930670589208603 0 0 0 0
2962779012 0.1214916855096817 0.0798705667257309 0.0016749631613492966 0.0012358613312244415 0 0 0 0
2966501096 0.14756718277931213 0.07150302827358246 0.0023708734661340714 0.0009534750133752823 0 0 0 0
2970223180 0.17125847935676575 0.060189127922058105 0.0028498833999037743 0.00028984248638153076 0 0 0 0
2973945264 0.19333122670650482 0.04512566328048706 0.0030200881883502007 -0.0005404101684689522 0 0 0 0
2977667348 0.21408002078533173 0.0282910019159317 0.0029648486524820328 -0.0012285010889172554 0 0 0 0
2981389432 0.23142872750759125 0.009096544235944748 0.0027241893112659454 -0.0017694327980279922 0 0 0 0
2985111516 0.24565842747688293 -0.014802786521613598 0.0024292245507240295 -0.0021189693361520767 0 0 0 0
2988833600 0.25591206550598145 -0.03678259253501892 0.0019229473546147346 -0.0024824105203151703 0 0 0 0
2992555684 0.26373931765556335 -0.062122881412506104 0.0012779617682099342 -0.0027787145227193832 0 0 0 0
2996277768 0.26817888021469116 -0.08446882665157318 0.0008506877347826958 -0.002817363478243351 0 0 0 0
2999999852 0.27088525891304016 -0.10820110142230988 0.00015879515558481216 -0.0027996329590678215 0 0 0 0
