# HZ S RI R 50
1500000000 -0.15328367054462433 0.004735797643661499 0.07374414801597595 -0.03470209985971451 0 0 0 0
1503722084 -0.1272435486316681 0.03935469686985016 0.0643438771367073 -0.04781801998615265 0 0 0 0
1507444168 -0.09487420320510864 0.06954909861087799 0.05245499685406685 -0.058071136474609375 0 0 0 0
1511166252 -0.05574057251214981 0.09423066675662994 0.038637518882751465 -0.06548768281936646 0 0 0 0
1514888336 -0.011639412492513657 0.11134280264377594 0.023038078099489212 -0.06864941120147705 0 0 0 0
1518610420 0.03496381640434265 0.1212836429476738 0.008982967585325241 -0.0677853673696518 0 0 0 0
1522332504 0.0845516175031662 0.12265411764383316 -0.0033977851271629333 -0.06408156454563141 0 0 0 0
1526054588 0.1345565915107727 0.1145724505186081 -0.01323608122766018 -0.05889929085969925 0 0 0 0
1529776672 0.18302977085113525 0.09914109110832214 -0.021790608763694763 -0.052488699555397034 0 0 0 0
1533498756 0.22957420349121094 0.07592897117137909 -0.028350669890642166 -0.0451030507683754 0 0 0 0
1537220840 0.2723351716995239 0.04300253838300705 -0.033021047711372375 -0.0372161790728569 0 0 0 0
1540942924 0.3097861707210541 0.0015577971935272217 -0.03537154570221901 -0.0296483151614666 0 0 0 0
1544665008 0.33927732706069946 -0.04184704273939133 -0.036140646785497665 -0.023283924907445908 0 0 0 0
1548387092 0.3608768582344055 -0.09227882325649261 -0.03672419488430023 -0.017817843705415726 0 0 0 0
1552109176 0.3751545250415802 -0.14462795853614807 -0.03726958483457565 -0.01234021969139576 0 0 0 0
1555831260 0.3816871643066406 -0.19978322088718414 -0.03706534206867218 -0.006698679178953171 0 0 0 0
1559553344 0.3790271282196045 -0.2555209994316101 -0.0357183963060379 -0.0010415278375148773 0 0 0 0
1563275428 0.3694274127483368 -0.31155726313591003 -0.033710431307554245 0.003332803025841713 0 0 0 0
1566997512 0.34840601682662964 -0.36708229780197144 -0.03110586479306221 0.007424130104482174 0 0 0 0
1570719596 0.3245874345302582 -0.4151361286640167 -0.02858896553516388 0.010302284732460976 0 0 0 0
1574441680 0.2855098247528076 -0.4656693637371063 -0.025903116911649704 0.012922730296850204 0 0 0 0
1578163764 0.2443881630897522 -0.5043502449989319 -0.023625722154974937 0.014837161637842655 0 0 0 0
1581885848 0.1918744146823883 -0.5397924780845642 -0.021232984960079193 0.0169694647192955 0 0 0 0
1585607932 0.1422031819820404 -0.5647929310798645 -0.018701110035181046 0.0187566876411438 0 0 0 0
1589330016 0.08319087326526642 -0.5846584439277649 -0.016102222725749016 0.020073160529136658 0 0 0 0
1593052100 0.024461179971694946 -0.595723032951355 -0.01395401731133461 0.021169885993003845 0 0 0 0
1596774184 -0.033622268587350845 -0.5968307852745056 -0.011907131411135197 0.022524656727910042 0 0 0 0
1600496268 -0.09625900536775589 -0.5912176966667175 -0.00955219380557537 0.024427121505141258 0 0 0 0
1604218352 -0.15772177278995514 -0.5731164216995239 -0.006289874203503132 0.02619532123208046 0 0 0 0
1607940436 -0.21294257044792175 -0.5496920347213745 -0.002453036606311798 0.02737600915133953 0 0 0 0
1611662520 -0.26817554235458374 -0.5148560404777527 0.00201535876840353 0.027698297053575516 0 0 0 0
1615384604 -0.31793448328971863 -0.4739724397659302 0.006464690901339054 0.02729654498398304 0 0 0 0
1619106688 -0.3580682575702667 -0.4280274510383606 0.010710814967751503 0.026158034801483154 0 0 0 0
1622828772 -0.3956754803657532 -0.3730974793434143 0.015032803639769554 0.024538319557905197 0 0 0 0
1626550856 -0.4233294725418091 -0.31687942147254944 0.019644612446427345 0.021861253306269646 0 0 0 0
1630272940 -0.44414353370666504 -0.25441670417785645 0.02366657555103302 0.01780114322900772 0 0 0 0
1633995024 -0.45783406496047974 -0.19027027487754822 0.026462044566869736 0.012999294325709343 0 0 0 0
1637717108 -0.46271365880966187 -0.12126580625772476 0.028025547042489052 0.0072461143136024475 0 0 0 0
1641439192 -0.4576869308948517 -0.05281476676464081 0.028139173984527588 0.0017319386824965477 0 0 0 0
1645161276 -0.4421166181564331 0.019542306661605835 0.027068261057138443 -0.0032791029661893845 0 0 0 0
1648883360 -0.4134840965270996 0.0881287008523941 0.025438684970140457 -0.007508782669901848 0 0 0 0
1652605444 -0.37387552857398987 0.15174436569213867 0.023090848699212074 -0.011657578870654106 0 0 0 0
1656327528 -0.32273685932159424 0.21281491219997406 0.019856711849570274 -0.015558553859591484 0 0 0 0
1660049612 -0.26509127020835876 0.2603330910205841 0.016230126842856407 -0.018283583223819733 0 0 0 0
1663771696 -0.19995959103107452 0.30082741379737854 0.012109184637665749 -0.02023104578256607 0 0 0 0
1667493780 -0.12942573428153992 0.3325451612472534 0.007865664549171925 -0.021379731595516205 0 0 0 0
1671215864 -0.05534304678440094 0.35387998819351196 0.003370455466210842 -0.021807804703712463 0 0 0 0
1674937948 0.02629128098487854 0.36381715536117554 -0.0012650378048419952 -0.020727649331092834 0 0 0 0
1678660032 0.10451272130012512 0.3623844087123871 -0.004564737901091576 -0.01871376857161522 0 0 0 0
1682382116 0.18692833185195923 0.34488847851753235 -0.007492292672395706 -0.016398344188928604 0 0 0 0
1686104200 0.26464349031448364 0.31673967838287354 -0.00975071918219328 -0.013598102144896984 0 0 0 0
1689826284 0.33721253275871277 0.2748038172721863 -0.011119276285171509 -0.010466423816978931 0 0 0 0
1693548368 0.4029977321624756 0.22052793204784393 -0.011481238529086113 -0.007297631353139877 0 0 0 0
1697270452 0.45728799700737 0.16110862791538239 -0.010990786366164684 -0.004558864049613476 0 0 0 0
1700992536 0.5018907189369202 0.08946623653173447 -0.010081833228468895 -0.0025904569774866104 0 0 0 0
1704714620 0.5341465473175049 0.014239028096199036 -0.00885932706296444 -0.0010254709050059319 0 0 0 0
1708436704 0.5520652532577515 -0.06894518435001373 -0.007619614712893963 5.476735532283783e-05 0 0 0 0
1712158788 0.5595311522483826 -0.1464775800704956 -0.006322749890387058 0.0004772329702973366 0 0 0 0
1715880872 0.553101122379303 -0.22818785905838013 -0.005422917194664478 0.0005897209048271179 0 0 0 0
1719602956 0.5348796248435974 -0.3039807081222534 -0.004588359035551548 0.0005613751709461212 0 0 0 0
1723325040 0.5046828389167786 -0.37654852867126465 -0.004068121314048767 0.0005199918523430824 0 0 0 0
1727047124 0.46567997336387634 -0.44078969955444336 -0.003606928512454033 4.629697650671005e-05 0 0 0 0
1730769208 0.4162842035293579 -0.5002881288528442 -0.0036488594487309456 -0.00021529663354158401 0 0 0 0
1734491292 0.3584957718849182 -0.550702691078186 -0.0038805585354566574 -0.00044338498264551163 0 0 0 0
1738213376 0.29365238547325134 -0.5890527367591858 -0.004042857326567173 -0.0005741231143474579 0 0 0 0
1741935460 0.22714051604270935 -0.6174485683441162 -0.004307887516915798 -0.0005623279139399529 0 0 0 0
1745657544 0.15334947407245636 -0.6363332271575928 -0.004805430769920349 -0.0004887934774160385 0 0 0 0
1749379628 0.08203515410423279 -0.6410209536552429 -0.005222805775702 -0.00026047974824905396 0 0 0 0
1753101712 0.011387959122657776 -0.63563072681427 -0.005627283826470375 0.0002025943249464035 0 0 0 0
1756823796 -0.054002732038497925 -0.6200928688049316 -0.00602169893682003 0.0006546908989548683 0 0 0 0
1760545880 -0.11450202763080597 -0.5944496989250183 -0.006438218988478184 0.0010968688875436783 0 0 0 0
1764267964 -0.1734926402568817 -0.5600442886352539 -0.006814837455749512 0.0017125727608799934 0 0 0 0
1767990048 -0.22651977837085724 -0.518851101398468 -0.007255134172737598 0.0023828567937016487 0 0 0 0
1771712132 -0.26440852880477905 -0.47387659549713135 -0.007739829830825329 0.003093954175710678 0 0 0 0
1775434216 -0.2984257936477661 -0.4238865375518799 -0.00859377533197403 0.004237431101500988 0 0 0 0
1779156300 -0.3262869119644165 -0.36802589893341064 -0.0093400739133358 0.005980506539344788 0 0 0 0
1782878384 -0.3439025580883026 -0.3136051595211029 -0.009756023995578289 0.008363837376236916 0 0 0 0
1786600468 -0.3558845818042755 -0.25566282868385315 -0.009375575929880142 0.011205634102225304 0 0 0 0
1790322552 -0.3586655557155609 -0.19736520946025848 -0.0077546341344714165 0.014145620167255402 0 0 0 0
1794044636 -0.35382336378097534 -0.1392906755208969 -0.0058128926903009415 0.01641591638326645 0 0 0 0
1797766720 -0.33983495831489563 -0.08255903422832489 -0.0034620556980371475 0.01861562579870224 0 0 0 0
1801488804 -0.31949418783187866 -0.03036920353770256 -0.00033298879861831665 0.021096644923090935 0 0 0 0
1805210888 -0.29112693667411804 0.02157343178987503 0.0038403617218136787 0.023211533203721046 0 0 0 0
1808932972 -0.25381267070770264 0.06821755319833755 0.009499110281467438 0.024198949337005615 0 0 0 0
1812655056 -0.20907966792583466 0.1074385792016983 0.01585303246974945 0.023399751633405685 0 0 0 0
1816377140 -0.15715168416500092 0.13858729600906372 0.02192533388733864 0.02039722353219986 0 0 0 0
1820099224 -0.10346497595310211 0.1578446328639984 0.02758585847914219 0.016222793608903885 0 0 0 0
1823821308 -0.04794248566031456 0.16860811412334442 0.031993940472602844 0.010041967034339905 0 0 0 0
1827543392 0.007971815764904022 0.17007753252983093 0.03465433046221733 0.0017848247662186623 0 0 0 0
1831265476 0.06000148877501488 0.16272537410259247 0.034339018166065216 -0.006094533950090408 0 0 0 0
1834987560 0.11025527864694595 0.14673803746700287 0.032125212252140045 -0.013618447817862034 0 0 0 0
1838709644 0.15511974692344666 0.125113382935524 0.028259241953492165 -0.01965497061610222 0 0 0 0
1842431728 0.1948712319135666 0.09611944854259491 0.02386145107448101 -0.024486282840371132 0 0 0 0
1846153812 0.22771264612674713 0.06256426870822906 0.018791157752275467 -0.028136510401964188 0 0 0 0
1849875896 0.2539593577384949 0.027568869292736053 0.01340933982282877 -0.030503690242767334 0 0 0 0
1853597980 0.274975448846817 -0.012889053672552109 0.007773000746965408 -0.03231871500611305 0 0 0 0
1857320064 0.28922635316848755 -0.052963223308324814 0.002574978396296501 -0.033213481307029724 0 0 0 0
1861042148 0.29590150713920593 -0.09561773389577866 -0.003119083121418953 -0.03360642492771149 0 0 0 0
1864764232 0.29607757925987244 -0.136672705411911 -0.009129686281085014 -0.033169135451316833 0 0 0 0
1868486316 0.28754621744155884 -0.1773611158132553 -0.015349290333688259 -0.03120780549943447 0 0 0 0
1872208400 0.2776331305503845 -0.21017485857009888 -0.02053406462073326 -0.028225548565387726 0 0 0 0
1875930484 0.26127713918685913 -0.24269706010818481 -0.025126773864030838 -0.024160176515579224 0 0 0 0
1879652568 0.23910820484161377 -0.27414727210998535 -0.0287430789321661 -0.01989513263106346 0 0 0 0
1883374652 0.21219831705093384 -0.3003159165382385 -0.031975358724594116 -0.015581161715090275 0 0 0 0
1887096736 0.18469764292240143 -0.31974104046821594 -0.03516032546758652 -0.010572913102805614 0 0 0 0
1890818820 0.1519850790500641 -0.33393681049346924 -0.037522315979003906 -0.004220274277031422 0 0 0 0
1894540904 0.11576462537050247 -0.3434172570705414 -0.038631685078144073 0.0030300021171569824 0 0 0 0
1898262988 0.0852520763874054 -0.3445563018321991 -0.03787726163864136 0.010435111820697784 0 0 0 0
1901985072 0.05053146928548813 -0.34126806259155273 -0.035645581781864166 0.017471477389335632 0 0 0 0
1905707156 0.022298049181699753 -0.33252865076065063 -0.03170376643538475 0.02365037053823471 0 0 0 0
1909429240 -0.005410298705101013 -0.3165481686592102 -0.02699274756014347 0.028842655941843987 0 0 0 0
1913151324 -0.028148189187049866 -0.298946738243103 -0.021782543510198593 0.0337706133723259 0 0 0 0
1916873408 -0.05023882910609245 -0.2773295044898987 -0.015047515742480755 0.03781161829829216 0 0 0 0
1920595492 -0.06587458401918411 -0.2531653344631195 -0.007505006156861782 0.04033510386943817 0 0 0 0
1924317576 -0.07549452036619186 -0.22717808187007904 0.0003944840282201767 0.041205983608961105 0 0 0 0
1928039660 -0.08107271045446396 -0.20103299617767334 0.008297929540276527 0.040265992283821106 0 0 0 0
1931761744 -0.08377917110919952 -0.1745719015598297 0.016345659270882607 0.03757482022047043 0 0 0 0
1935483828 -0.08163945376873016 -0.14834345877170563 0.022805342450737953 0.03294496238231659 0 0 0 0
1939205912 -0.07602127641439438 -0.12211660295724869 0.027826955541968346 0.02712234854698181 0 0 0 0
1942927996 -0.06557908654212952 -0.09704653918743134 0.03115706332027912 0.02126177027821541 0 0 0 0
1946650080 -0.051565021276474 -0.07340916991233826 0.03358025848865509 0.016309471800923347 0 0 0 0
1950372164 -0.03207672759890556 -0.05186431109905243 0.03578454256057739 0.010653169825673103 0 0 0 0
1954094248 -0.008119561709463596 -0.03483160212635994 0.03782844915986061 0.004825843498110771 0 0 0 0
1957816332 0.019135013222694397 -0.022560536861419678 0.03845870867371559 -0.0026329290121793747 0 0 0 0
1961538416 0.04864301532506943 -0.016413185745477676 0.03732278198003769 -0.009811090305447578 0 0 0 0
1965260500 0.07875127345323563 -0.015893464908003807 0.03443775326013565 -0.016669556498527527 0 0 0 0
1968982584 0.10732407867908478 -0.02300470694899559 0.03040141426026821 -0.022556543350219727 0 0 0 0
1972704668 0.13400378823280334 -0.034269798547029495 0.025839421898126602 -0.02746308594942093 0 0 0 0
1976426752 0.15659856796264648 -0.05021091550588608 0.02020709589123726 -0.03183285519480705 0 0 0 0
1980148836 0.17628632485866547 -0.07083917409181595 0.013973748311400414 -0.03525977209210396 0 0 0 0
1983870920 0.19128379225730896 -0.09330116212368011 0.006762699224054813 -0.037220392376184464 0 0 0 0
1987593004 0.20226576924324036 -0.11803881078958511 -0.0006758188828825951 -0.03756827116012573 0 0 0 0
1991315088 0.20691265165805817 -0.14465758204460144 -0.008035928010940552 -0.03646261245012283 0 0 0 0
1995037172 0.20676496624946594 -0.17198947072029114 -0.015306742861866951 -0.03338945657014847 0 0 0 0
1998759256 0.2038741260766983 -0.19632093608379364 -0.02053224854171276 -0.029007721692323685 0 0 0 0
2002481340 0.19661158323287964 -0.22041471302509308 -0.02435583434998989 -0.024245038628578186 0 0 0 0
2006203424 0.18448776006698608 -0.2434292882680893 -0.02741863951086998 -0.019444644451141357 0 0 0 0
2009925508 0.16557225584983826 -0.2632037103176117 -0.029811199754476547 -0.014635182917118073 0 0 0 0
2013647592 0.14895837008953094 -0.2782962918281555 -0.03157542273402214 -0.009762671776115894 0 0 0 0
2017369676 0.12758977711200714 -0.29123789072036743 -0.032915059477090836 -0.004469339735805988 0 0 0 0
2021091760 0.10286939144134521 -0.30231717228889465 -0.033533960580825806 0.0012590959668159485 0 0 0 0
2024813844 0.08231009542942047 -0.3075637221336365 -0.03304387629032135 0.0071648163720965385 0 0 0 0
2028535928 0.0503842756152153 -0.30942460894584656 -0.031179115176200867 0.0135662741959095 0 0 0 0
2032258012 0.02415001392364502 -0.3072163164615631 -0.027911964803934097 0.019095854833722115 0 0 0 0
2035980096 -0.000569365918636322 -0.2997613549232483 -0.02390180341899395 0.023159729316830635 0 0 0 0
2039702180 -0.02558276802301407 -0.28850412368774414 -0.019174108281731606 0.026786908507347107 0 0 0 0
2043424264 -0.048618003726005554 -0.2707492709159851 -0.014136428944766521 0.029237881302833557 0 0 0 0
2047146348 -0.06978106498718262 -0.2506272792816162 -0.00900297798216343 0.03081342950463295 0 0 0 0
2050868432 -0.08644116669893265 -0.2276236116886139 -0.0037409309297800064 0.031778138130903244 0 0 0 0
2054590516 -0.09965693950653076 -0.20164313912391663 0.0013799741864204407 0.03193950653076172 0 0 0 0
2058312600 -0.10740266740322113 -0.1726941168308258 0.006516295485198498 0.031022025272250175 0 0 0 0
2062034684 -0.11285709589719772 -0.14237083494663239 0.011640486307442188 0.029237475246191025 0 0 0 0
2065756768 -0.1118517518043518 -0.11293163895606995 0.01578156277537346 0.02684362605214119 0 0 0 0
2069478852 -0.10778461396694183 -0.08104703575372696 0.019634496420621872 0.02357173152267933 0 0 0 0
2073200936 -0.09780838340520859 -0.049759671092033386 0.02289646491408348 0.019499067217111588 0 0 0 0
2076923020 -0.08184096217155457 -0.019777527078986168 0.02523527853190899 0.015553384087979794 0 0 0 0
2080645104 -0.06098373606801033 0.007332242093980312 0.02693897858262062 0.011451472528278828 0 0 0 0
2084367188 -0.034932736307382584 0.031952016055583954 0.028142796829342842 0.007705121301114559 0 0 0 0
2088089272 -0.0031745200976729393 0.0507555715739727 0.029373774304986 0.003451005555689335 0 0 0 0
2091811356 0.0295792818069458 0.06428687274456024 0.03053014911711216 -0.0007505333051085472 0 0 0 0
2095533440 0.06458324939012527 0.07153792679309845 0.03091438300907612 -0.006257364526391029 0 0 0 0
2099255524 0.10027658939361572 0.07240667939186096 0.030165717005729675 -0.012308100238442421 0 0 0 0
2102977608 0.1360453963279724 0.06847714632749557 0.027564244344830513 -0.018224429339170456 0 0 0 0
2106699692 0.17047426104545593 0.05846041813492775 0.0236052256077528 -0.023402802646160126 0 0 0 0
2110421776 0.20374347269535065 0.04247600585222244 0.018589643761515617 -0.027515577152371407 0 0 0 0
2114143860 0.23344679176807404 0.019887126982212067 0.01276765763759613 -0.030367786064743996 0 0 0 0
2117865944 0.25779250264167786 -0.005922917276620865 0.0068312110379338264 -0.03191882744431496 0 0 0 0
2121588028 0.27649369835853577 -0.03510413318872452 0.0006931666284799576 -0.03291967138648033 0 0 0 0
2125310112 0.291404664516449 -0.06394146382808685 -0.00592288002371788 -0.03227589651942253 0 0 0 0
2129032196 0.3003136217594147 -0.09954440593719482 -0.012329304590821266 -0.029865017160773277 0 0 0 0
2132754280 0.30548715591430664 -0.13039125502109528 -0.017776602879166603 -0.025710226967930794 0 0 0 0
2136476364 0.3032029867172241 -0.16363230347633362 -0.02157457172870636 -0.020702887326478958 0 0 0 0
2140198448 0.29631751775741577 -0.198762446641922 -0.023709848523139954 -0.01559197437018156 0 0 0 0
2143920532 0.28524377942085266 -0.22749003767967224 -0.024679025635123253 -0.01106504537165165 0 0 0 0
2147642616 0.2686384320259094 -0.25723907351493835 -0.02513657696545124 -0.006549559533596039 0 0 0 0
2151364700 0.24924644827842712 -0.2809848189353943 -0.024816686287522316 -0.0028647882863879204 0 0 0 0
2155086784 0.22432804107666016 -0.30268532037734985 -0.024365372955799103 0.0008610207587480545 0 0 0 0
2158808868 0.19683270156383514 -0.3188188672065735 -0.023683350533246994 0.004086327739059925 0 0 0 0
2162530952 0.16702887415885925 -0.3302757740020752 -0.02265891805291176 0.00761001743376255 0 0 0 0
2166253036 0.13768503069877625 -0.3359327018260956 -0.02114900015294552 0.010607628151774406 0 0 0 0
2169975120 0.10802390426397324 -0.3383512496948242 -0.019601624459028244 0.013416314497590065 0 0 0 0
2173697204 0.0778978168964386 -0.33635538816452026 -0.017765145748853683 0.016593340784311295 0 0 0 0
2177419288 0.050735995173454285 -0.329634428024292 -0.015116408467292786 0.01956639438867569 0 0 0 0
2181141372 0.023369289934635162 -0.3195964992046356 -0.011880281381309032 0.022246822714805603 0 0 0 0
2184863456 -0.0022111237049102783 -0.3046228885650635 -0.007920928299427032 0.02429826557636261 0 0 0 0
2188585540 -0.022713061422109604 -0.2859530746936798 -0.0035977140069007874 0.025611774995923042 0 0 0 0
2192307624 -0.04232887923717499 -0.26366615295410156 0.0010963641107082367 0.026079071685671806 0 0 0 0
2196029708 -0.059140779078006744 -0.23994091153144836 0.0063586151227355 0.025690272450447083 0 0 0 0
2199751792 -0.06926575303077698 -0.21391108632087708 0.011495143175125122 0.023640712723135948 0 0 0 0
2203473876 -0.07814227044582367 -0.1845245212316513 0.01575370877981186 0.020618820562958717 0 0 0 0
2207195960 -0.08115656673908234 -0.15548181533813477 0.018891455605626106 0.01703178696334362 0 0 0 0
2210918044 -0.07621734589338303 -0.1264626681804657 0.021314095705747604 0.012870966456830502 0 0 0 0
2214640128 -0.0687808021903038 -0.0963626503944397 0.022922351956367493 0.008484145626425743 0 0 0 0
2218362212 -0.05691592022776604 -0.0692233219742775 0.02349410206079483 0.003471639007329941 0 0 0 0
2222084296 -0.038882121443748474 -0.046827785670757294 0.02273663878440857 -0.0015136636793613434 0 0 0 0
2225806380 -0.0186525359749794 -0.02648753859102726 0.021254034712910652 -0.004998540505766869 0 0 0 0
2229528464 0.005078529007732868 -0.010494868271052837 0.019145339727401733 -0.008511017076671124 0 0 0 0
2233250548 0.03038637712597847 0.00199838075786829 0.01678180694580078 -0.011315994895994663 0 0 0 0
2236972632 0.057333000004291534 0.009012125432491302 0.014321554452180862 -0.013257055543363094 0 0 0 0
2240694716 0.08483251929283142 0.009916704148054123 0.011727454140782356 -0.015393862500786781 0 0 0 0
2244416800 0.11127348989248276 0.00771559402346611 0.00864702370017767 -0.01723739691078663 0 0 0 0
2248138884 0.13564297556877136 -0.00019086990505456924 0.005203945562243462 -0.018397895619273186 0 0 0 0
2251860968 0.15934163331985474 -0.0089506134390831 0.0013526184484362602 -0.01847488433122635 0 0 0 0
2255583052 0.18081314861774445 -0.02336210571229458 -0.0021161986514925957 -0.01778273656964302 0 0 0 0
2259305136 0.19989719986915588 -0.040971703827381134 -0.0049711791798472404 -0.016423827037215233 0 0 0 0
2263027220 0.213694229722023 -0.06388527899980545 -0.007260863669216633 -0.015028130263090134 0 0 0 0
2266749304 0.22535884380340576 -0.08441705256700516 -0.00946098193526268 -0.013035985641181469 0 0 0 0
2270471388 0.23172840476036072 -0.1093195304274559 -0.010939707048237324 -0.01092420145869255 0 0 0 0
2274193472 0.23447436094284058 -0.13397909700870514 -0.012051581405103207 -0.009078827686607838 0 0 0 0
2277915556 0.23268912732601166 -0.15673725306987762 -0.013178762048482895 -0.007013034075498581 0 0 0 0
2281637640 0.22208403050899506 -0.18506886065006256 -0.01394171267747879 -0.004997914656996727 0 0 0 0
2285359724 0.21316704154014587 -0.20137318968772888 -0.014269335195422173 -0.002932516857981682 0 0 0 0
2289081808 0.19903220236301422 -0.21991002559661865 -0.014512725174427032 -0.0006196275353431702 0 0 0 0
2292803892 0.18078498542308807 -0.235366553068161 -0.014118564315140247 0.0017861351370811462 0 0 0 0
2296525976 0.16355782747268677 -0.24384912848472595 -0.013317527249455452 0.003620295785367489 0 0 0 0
2300248060 0.1459483802318573 -0.2514491379261017 -0.012491806410253048 0.005199246108531952 0 0 0 0
2303970144 0.12738573551177979 -0.25981760025024414 -0.010960410349071026 0.0068809874355793 0 0 0 0
2307692228 0.10256850719451904 -0.2613335847854614 -0.00990709662437439 0.008418739773333073 0 0 0 0
2311414312 0.07718338072299957 -0.26117444038391113 -0.008051251992583275 0.00969803798943758 0 0 0 0
2315136396 0.05264223366975784 -0.2558421194553375 -0.005842922255396843 0.01037565991282463 0 0 0 0
2318858480 0.036089055240154266 -0.2457141876220703 -0.003933916799724102 0.01040956936776638 0 0 0 0
2322580564 0.01315084844827652 -0.2325136363506317 -0.002367843873798847 0.009817475453019142 0 0 0 0
2326302648 -9.205937385559082e-05 -0.21451090276241302 -0.001133001409471035 0.009153228253126144 0 0 0 0
2330024732 -0.012987665832042694 -0.19483682513237 -0.0004693809896707535 0.008364854380488396 0 0 0 0
2333746816 -0.025852032005786896 -0.17232917249202728 0.00013679638504981995 0.007910261861979961 0 0 0 0
2337468900 -0.03313836082816124 -0.14752867817878723 0.0006691999733448029 0.007596786133944988 0 0 0 0
2341190984 -0.034580789506435394 -0.1221594512462616 0.001469021663069725 0.0070974333211779594 0 0 0 0
2344913068 -0.03258165717124939 -0.09518229961395264 0.0018190974369645119 0.006462709046900272 0 0 0 0
2348635152 -0.025784697383642197 -0.06872764229774475 0.002231084741652012 0.005904918536543846 0 0 0 0
2352357236 -0.012517016381025314 -0.04452913999557495 0.002469484694302082 0.005282334052026272 0 0 0 0
2356079320 0.0045387400314211845 -0.022540325298905373 0.0025493912398815155 0.00475794542580843 0 0 0 0
2359801404 0.025741269811987877 -0.003443971276283264 0.002684858627617359 0.004392931237816811 0 0 0 0
2363523488 0.04934026300907135 0.010846501216292381 0.0029107611626386642 0.00412433035671711 0 0 0 0
2367245572 0.07628501206636429 0.021565468981862068 0.0028464943170547485 0.003718775697052479 0 0 0 0
2370967656 0.10436463356018066 0.02570260316133499 0.0029804538935422897 0.0034625940024852753 0 0 0 0
2374689740 0.13241250813007355 0.02655160427093506 0.003012591041624546 0.0032487157732248306 0 0 0 0
2378411824 0.1602323353290558 0.02229725569486618 0.003026796504855156 0.00296944472938776 0 0 0 0
2382133908 0.1868705302476883 0.01364247314631939 0.0030140066519379616 0.0028446251526474953 0 0 0 0
2385855992 0.21201151609420776 -0.00011979043483734131 0.0031001465395092964 0.0025447234511375427 0 0 0 0
2389578076 0.23464924097061157 -0.018972985446453094 0.003072338178753853 0.0023814449086785316 0 0 0 0
2393300160 0.25370651483535767 -0.03777176886796951 0.0029227901250123978 0.002489859238266945 0 0 0 0
2397022244 0.26988279819488525 -0.05955769121646881 0.0030504586175084114 0.00293659046292305 0 0 0 0
2400744328 0.28184622526168823 -0.08807214349508286 0.003921153023838997 0.0033348705619573593 0 0 0 0
2404466412 0.2889196574687958 -0.11577854305505753 0.005139805376529694 0.0033031441271305084 0 0 0 0
2408188496 0.2895476818084717 -0.1472550332546234 0.006287526339292526 0.0021849218755960464 0 0 0 0
2411910580 0.2905736267566681 -0.17236033082008362 0.0069824280217289925 0.0014488324522972107 0 0 0 0
2415632664 0.2813418507575989 -0.19999203085899353 0.007605219259858131 0.00022209156304597855 0 0 0 0
2419354748 0.2719886600971222 -0.22535207867622375 0.00790016446262598 -0.0011340491473674774 0 0 0 0
2423076832 0.25682541728019714 -0.24823987483978271 0.00805832538753748 -0.002818944863975048 0 0 0 0
2426798916 0.23705166578292847 -0.27147963643074036 0.007517045363783836 -0.004800755530595779 0 0 0 0
2430521000 0.21740689873695374 -0.288993775844574 0.00647368747740984 -0.006392266601324081 0 0 0 0
2434243084 0.1949511170387268 -0.30362001061439514 0.004967620596289635 -0.007167230360209942 0 0 0 0
2437965168 0.16917100548744202 -0.3148930072784424 0.0038816817104816437 -0.007878845557570457 0 0 0 0
2441687252 0.13948136568069458 -0.3250635266304016 0.0027688201516866684 -0.008217952214181423 0 0 0 0
2445409336 0.11130303144454956 -0.3293609619140625 0.0015850700438022614 -0.00851625856012106 0 0 0 0
2449131420 0.08695223927497864 -0.3269343078136444 0.0009363824501633644 -0.008813809603452682 0 0 0 0
2452853504 0.06109354645013809 -0.32239294052124023 -8.763745427131653e-06 -0.00924539752304554 0 0 0 0
2456575588 0.03059259057044983 -0.31373724341392517 -0.0010548271238803864 -0.009729511104524136 0 0 0 0
2460297672 0.005592629313468933 -0.2995327115058899 -0.0025004148483276367 -0.010465417988598347 0 0 0 0
2464019756 -0.01729428768157959 -0.28395527601242065 -0.004577793180942535 -0.010873214341700077 0 0 0 0
2467741840 -0.040341682732105255 -0.2626747488975525 -0.006804569624364376 -0.01039949432015419 0 0 0 0
2471463924 -0.05790042132139206 -0.23984508216381073 -0.00875809881836176 -0.009650269523262978 0 0 0 0
2475186008 -0.07176310569047928 -0.2139187753200531 -0.010578877292573452 -0.008418267592787743 0 0 0 0
2478908092 -0.0801398977637291 -0.1871412843465805 -0.01237177662551403 -0.006518494337797165 0 0 0 0
2482630176 -0.08609886467456818 -0.158641517162323 -0.013615243136882782 -0.004591703414916992 0 0 0 0
2486352260 -0.08726116269826889 -0.1293247640132904 -0.01456092856824398 -0.002513756975531578 0 0 0 0
2490074344 -0.08509747684001923 -0.09922991693019867 -0.015463319607079029 -0.0001539839431643486 0 0 0 0
2493796428 -0.07728451490402222 -0.06936715543270111 -0.0158892460167408 0.002839764580130577 0 0 0 0
2497518512 -0.06596149504184723 -0.04097544774413109 -0.015239065513014793 0.005763965658843517 0 0 0 0
2501240596 -0.048949941992759705 -0.015636196359992027 -0.014236301183700562 0.008416309952735901 0 0 0 0
2504962680 -0.028043346479535103 0.007330433465540409 -0.013107316568493843 0.010822868905961514 0 0 0 0
2508684764 -0.003994989208877087 0.026529766619205475 -0.011201075278222561 0.013380401767790318 0 0 0 0
2512406848 0.0233965665102005 0.04120897501707077 -0.008799221366643906 0.01583254151046276 0 0 0 0
2516128932 0.052896492183208466 0.05092611908912659 -0.00567098893225193 0.0178623516112566 0 0 0 0
2519851016 0.08365190774202347 0.056587040424346924 -0.001479530707001686 0.018537135794758797 0 0 0 0
2523573100 0.11446838080883026 0.054625414311885834 0.002482193522155285 0.0179669801145792 0 0 0 0
2527295184 0.14368997514247894 0.0479198694229126 0.005757597275078297 0.01658603549003601 0 0 0 0
2531017268 0.17101134359836578 0.03620216250419617 0.008612830191850662 0.014826645143330097 0 0 0 0
2534739352 0.19350388646125793 0.02171631157398224 0.011093737557530403 0.012616727501153946 0 0 0 0
2538461436 0.21282316744327545 0.00556473433971405 0.013039574027061462 0.010227801278233528 0 0 0 0
2542183520 0.2300393432378769 -0.013768702745437622 0.014557978138327599 0.007120618596673012 0 0 0 0
2545905604 0.2440488338470459 -0.034536588937044144 0.01533332746475935 0.004158861935138702 0 0 0 0
2549627688 0.253345251083374 -0.05722294747829437 0.015698008239269257 0.000905890017747879 0 0 0 0
2553349772 0.2607290744781494 -0.0794304832816124 0.01530101802200079 -0.002754981629550457 0 0 0 0
2557071856 0.26365551352500916 -0.10217549651861191 0.013478018343448639 -0.0058358702808618546 0 0 0 0
2560793940 0.2644086182117462 -0.12285975366830826 0.011225944384932518 -0.008107900619506836 0 0 0 0
2564516024 0.25914451479911804 -0.14676660299301147 0.008859153836965561 -0.009418868459761143 0 0 0 0
2568238108 0.2530263662338257 -0.16643580794334412 0.006492950022220612 -0.010239025577902794 0 0 0 0
2571960192 0.24445517361164093 -0.18542784452438354 0.004119011573493481 -0.010605426505208015 0 0 0 0
2575682276 0.2337760180234909 -0.2019394487142563 0.002392606809735298 -0.010392634198069572 0 0 0 0
2579404360 0.22046177089214325 -0.21830132603645325 0.0006417464464902878 -0.01004747673869133 0 0 0 0
2583126444 0.20558926463127136 -0.23094797134399414 -0.0006421729922294617 -0.009705442003905773 0 0 0 0
2586848528 0.18866375088691711 -0.24077406525611877 -0.00194489024579525 -0.009366120211780071 0 0 0 0
2590570612 0.17334498465061188 -0.24799759685993195 -0.0033017201349139214 -0.008710354566574097 0 0 0 0
2594292696 0.15422266721725464 -0.25500595569610596 -0.00445255171507597 -0.0078013259917497635 0 0 0 0
2598014780 0.13801506161689758 -0.25705623626708984 -0.005424991250038147 -0.006828947924077511 0 0 0 0
2601736864 0.11676514893770218 -0.25841522216796875 -0.006363416090607643 -0.005701947025954723 0 0 0 0
2605458948 0.10185848921537399 -0.2548730969429016 -0.00707207340747118 -0.004584759473800659 0 0 0 0
2609181032 0.08362944424152374 -0.24993780255317688 -0.007332311011850834 -0.0031215213239192963 0 0 0 0
2612903116 0.06763043999671936 -0.24170221388339996 -0.007162131369113922 -0.0016052629798650742 0 0 0 0
2616625200 0.054290398955345154 -0.2305522859096527 -0.006735856644809246 -0.0002906089648604393 0 0 0 0
2620347284 0.04184184968471527 -0.21922609210014343 -0.006054679863154888 0.0006335079669952393 0 0 0 0
2624069368 0.03259195759892464 -0.20565488934516907 -0.0051873596385121346 0.0013015810400247574 0 0 0 0
2627791452 0.02638401836156845 -0.1907234787940979 -0.0043911999091506 0.0013582883402705193 0 0 0 0
2631513536 0.02278333157300949 -0.17458254098892212 -0.0038896510377526283 0.001216525211930275 0 0 0 0
2635235620 0.022295456379652023 -0.16042973101139069 -0.003696296364068985 0.0012321919202804565 0 0 0 0
2638957704 0.02386360988020897 -0.14436377584934235 -0.003558647818863392 0.0013667764142155647 0 0 0 0
2642679788 0.027751345187425613 -0.13166400790214539 -0.0030985279008746147 0.001515161246061325 0 0 0 0
2646401872 0.03449669107794762 -0.12058934569358826 -0.0027634352445602417 0.0016359500586986542 0 0 0 0
2650123956 0.04469393938779831 -0.11014215648174286 -0.0026720166206359863 0.0014468664303421974 0 0 0 0
2653846040 0.05296105891466141 -0.10238400846719742 -0.0025660451501607895 0.001387251541018486 0 0 0 0
2657568124 0.06443290412425995 -0.09713540971279144 -0.002662871964275837 0.0013072872534394264 0 0 0 0
2661290208 0.07665089517831802 -0.09465933591127396 -0.0028907377272844315 0.0014245202764868736 0 0 0 0
2665012292 0.08888877183198929 -0.094748854637146 -0.003071766346693039 0.001623956486582756 0 0 0 0
2668734376 0.09785746037960052 -0.09869443625211716 -0.0031972499564290047 0.002358771860599518 0 0 0 0
2672456460 0.10621105134487152 -0.10345804691314697 -0.002884119749069214 0.002952052280306816 0 0 0 0
2676178544 0.11382170766592026 -0.10959789156913757 -0.0024162335321307182 0.003447883762419224 0 0 0 0
2679900628 0.11928002536296844 -0.11773179471492767 -0.0019801948219537735 0.004008316434919834 0 0 0 0
2683622712 0.12393325567245483 -0.12496135383844376 -0.0014101667329668999 0.004493463784456253 0 0 0 0
2687344796 0.1241474598646164 -0.13462060689926147 -0.0003607776015996933 0.004738163203001022 0 0 0 0
2691066880 0.12391774356365204 -0.1438557356595993 0.000590665265917778 0.004730427637696266 0 0 0 0
2694788964 0.12121691554784775 -0.15097598731517792 0.0012058243155479431 0.00445000734180212 0 0 0 0
2698511048 0.11669266223907471 -0.15891534090042114 0.0021486086770892143 0.004418055526912212 0 0 0 0
2702233132 0.11430282890796661 -0.1650930792093277 0.0032685110345482826 0.004075642675161362 0 0 0 0
2705955216 0.10869735479354858 -0.170869380235672 0.004248879849910736 0.003188885748386383 0 0 0 0
2709677300 0.10008533298969269 -0.1780605912208557 0.004884053952991962 0.001964402385056019 0 0 0 0
2713399384 0.0902891680598259 -0.18310968577861786 0.005067702382802963 0.00028721336275339127 0 0 0 0
2717121468 0.08037428557872772 -0.18436138331890106 0.004652201198041439 -0.0007766420021653175 0 0 0 0
2720843552 0.06741908192634583 -0.18551509082317352 0.0041611213237047195 -0.001826559193432331 0 0 0 0
2724565636 0.05816251412034035 -0.18359068036079407 0.003178357146680355 -0.002344566397368908 0 0 0 0
2728287720 0.04564252495765686 -0.17977772653102875 0.0023780418559908867 -0.0025298167020082474 0 0 0 0
2732009804 0.035546474158763885 -0.17333252727985382 0.0019148774445056915 -0.002337256446480751 0 0 0 0
2735731888 0.02334614470601082 -0.16403837502002716 0.0016532465815544128 -0.0023643840104341507 0 0 0 0
2739453972 0.01380224246531725 -0.15372136235237122 0.0014850934967398643 -0.0024203769862651825 0 0 0 0
2743176056 0.006176766008138657 -0.1401568204164505 0.0013721231371164322 -0.00267771165817976 0 0 0 0
2746898140 0.0009434930980205536 -0.12405342608690262 0.001055038534104824 -0.0029136668890714645 0 0 0 0
2750620224 0.0005957037210464478 -0.10884463042020798 0.0008717915043234825 -0.003085535950958729 0 0 0 0
2754342308 0.0018616653978824615 -0.09278739243745804 0.0006346050649881363 -0.003347529098391533 0 0 0 0
2758064392 0.004743047058582306 -0.07708826661109924 0.00025198794901371 -0.003881685435771942 0 0 0 0
2761786476 0.010593246668577194 -0.06154373288154602 -0.0007786964997649193 -0.004005841910839081 0 0 0 0
2765508560 0.019356131553649902 -0.04587914049625397 -0.0015287064015865326 -0.0037295911461114883 0 0 0 0
2769230644 0.030843984335660934 -0.03200135752558708 -0.002091541886329651 -0.0030777743086218834 0 0 0 0
2772952728 0.04511435329914093 -0.020549863576889038 -0.002254207618534565 -0.0026383930817246437 0 0 0 0
2776674812 0.06105979159474373 -0.011344343423843384 -0.002543482929468155 -0.0023651691153645515 0 0 0 0
2780396896 0.07885246723890305 -0.004326933994889259 -0.002842850051820278 -0.0018726438283920288 0 0 0 0
2784118980 0.0970318466424942 0.0007723160088062286 -0.00309851486235857 -0.001499377191066742 0 0 0 0
2787841064 0.11670038104057312 0.002009168267250061 -0.0031181350350379944 -0.0007531316950917244 0 0 0 0
2791563148 0.13768664002418518 -0.0003648437559604645 -0.002847805619239807 -0.00016769114881753922 0 0 0 0
2795285232 0.15781822800636292 -0.00492927897721529 -0.002424534410238266 0.000286606140434742 0 0 0 0
2799007316 0.17876370251178741 -0.011478442698717117 -0.0019809547811746597 0.0003435090184211731 0 0 0 0
2802729400 0.1978733241558075 -0.02599789947271347 -0.0017741098999977112 0.00023016147315502167 0 0 0 0
2806451484 0.2149956077337265 -0.03991696983575821 -0.0018035238608717918 -2.9169954359531403e-05 0 0 0 0
2810173568 0.22910134494304657 -0.05665494501590729 -0.002158914692699909 0.0003525335341691971 0 0 0 0
2813895652 0.241037517786026 -0.07779771834611893 -0.0021673962473869324 0.0008740611374378204 0 0 0 0
2817617736 0.2486656904220581 -0.0990474596619606 -0.0017514470964670181 0.0015172548592090607 0 0 0 0
2821339820 0.2525463104248047 -0.12383574992418289 -0.0010799337178468704 0.0017235176637768745 0 0 0 0
2825061904 0.2539186477661133 -0.1466602087020874 -0.000516464002430439 0.001752973534166813 0 0 0 0
2828783988 0.2521778345108032 -0.169676274061203 -1.0633841156959534e-05 0.0016239918768405914 0 0 0 0
2832506072 0.24602222442626953 -0.19148939847946167 0.000272541306912899 0.0012215198948979378 0 0 0 0
2836228156 0.23703788220882416 -0.21529754996299744 0.0004620850086212158 0.0010720714926719666 0 0 0 0
2839950240 0.2264820635318756 -0.23461590707302094 0.0006382912397384644 0.0007510166615247726 0 0 0 0
2843672324 0.2123546302318573 -0.2534531056880951 0.0007780194282531738 0.0005247229710221291 0 0 0 0
2847394408 0.1956431269645691 -0.2680695652961731 0.0007806792855262756 0.0001877322793006897 0 0 0 0
2851116492 0.1783176064491272 -0.28424137830734253 0.0007132012397050858 8.795782923698425e-05 0 0 0 0
2854838576 0.15531525015830994 -0.2972208559513092 0.0006881076842546463 3.8436613976955414e-05 0 0 0 0
2858560660 0.13538597524166107 -0.30872872471809387 0.0008675772696733475 -0.0004958221688866615 0 0 0 0
2862282744 0.11195690929889679 -0.315928190946579 0.0008178697898983955 -0.0006271097809076309 0 0 0 0
2866004828 0.09025035798549652 -0.31870031356811523 0.0008604815229773521 -0.000700254924595356 0 0 0 0
2869726912 0.06531299650669098 -0.3206932544708252 0.0008946768939495087 -0.0008434774354100227 0 0 0 0
2873448996 0.039524465799331665 -0.3192780911922455 0.0008205650374293327 -0.0010343817993998528 0 0 0 0
2877171080 0.014043286442756653 -0.3117406666278839 0.0006173625588417053 -0.0011294232681393623 0 0 0 0
2880893164 -0.010406197980046272 -0.30381453037261963 0.0004702601581811905 -0.001389077864587307 0 0 0 0
2884615248 -0.03218034654855728 -0.2910846769809723 0.00023490842431783676 -0.0013981899246573448 0 0 0 0
2888337332 -0.05286841467022896 -0.276181161403656 2.870894968509674e-05 -0.00128844752907753 0 0 0 0
2892059416 -0.07113892585039139 -0.25857362151145935 -0.00010386202484369278 -0.0013005519285798073 0 0 0 0
2895781500 -0.09000864624977112 -0.23774051666259766 -0.0003604814410209656 -0.0011741453781723976 0 0 0 0
2899503584 -0.10458095371723175 -0.213308185338974 -0.0006033321842551231 -0.0009242100641131401 0 0 0 0
2903225668 -0.11514310538768768 -0.18871672451496124 -0.0006213141605257988 -0.0005452120676636696 0 0 0 0
2906947752 -0.12123280018568039 -0.16252319514751434 -0.000379377044737339 -0.00024682842195034027 0 0 0 0
2910669836 -0.12624749541282654 -0.13492301106452942 -0.0001329481601715088 -0.00019076280295848846 0 0 0 0
2914391920 -0.12390680611133575 -0.10905733704566956 4.003755748271942e-05 -0.0001624561846256256 0 0 0 0
2918114004 -0.12001654505729675 -0.08317911624908447 0.0001703379675745964 -0.00015609152615070343 0 0 0 0
2921836088 -0.11425686627626419 -0.057860203087329865 0.0001844177022576332 -0.00025428086519241333 0 0 0 0
2925558172 -0.10492677986621857 -0.03221981227397919 0.0002758549526333809 -0.00025839172303676605 0 0 0 0
2929280256 -0.09203387796878815 -0.008838824927806854 0.00020720995962619781 -0.00036586448550224304 0 0 0 0
2933002340 -0.07537443190813065 0.012154503725469112 0.00014773104339838028 -0.0003644712269306183 0 0 0 0
2936724424 -0.05714615806937218 0.030845921486616135 -9.490456432104111e-05 -0.0003422386944293976 0 0 0 0
2940446508 -0.036239322274923325 0.04787110537290573 -0.00035965070128440857 -0.0001252768561244011 0 0 0 0
2944168592 -0.013107292354106903 0.06223801150918007 -0.00024998560547828674 8.005555719137192e-05 0 0 0 0
2947890676 0.011497581377625465 0.07333703339099884 -0.00019738636910915375 0.0006561418995261192 0 0 0 0
2951612760 0.03942852467298508 0.08105931431055069 0.00011498574167490005 0.0011221012100577354 0 0 0 0
2955334844 0.06653542071580887 0.08447166532278061 0.0008370652794837952 0.0011196453124284744 0 0 0 0
2959056928 0.09267964214086533 0.08523497730493546 0.0012510046362876892 0.0011259401217103004 0 0 0 0
2962779012 0.12114900350570679 0.07962030172348022 0.0017841048538684845 0.0008085845038294792 0 0 0 0
2966501096 0.14666694402694702 0.07115387916564941 0.0022342661395668983 0.0006081638857722282 0 0 0 0
2970223180 0.1708780974149704 0.06082337349653244 0.0026688212528824806 5.61373308300972e-05 0 0 0 0
2973945264 0.19396360218524933 0.045094139873981476 0.002714521251618862 -0.0004591066390275955 0 0 0 0
2977667348 0.21459561586380005 0.026991553604602814 0.002716551534831524 -0.0011338964104652405 0 0 0 0
2981389432 0.23267614841461182 0.007365932688117027 0.0025165993720293045 -0.0016455044969916344 0 0 0 0
2985111516 0.2462332546710968 -0.01669393479824066 0.0020187320187687874 -0.0021008383482694626 0 0 0 0
2988833600 0.2567213773727417 -0.038949135690927505 0.0016865162178874016 -0.002294696867465973 0 0 0 0
2992555684 0.26487812399864197 -0.061226196587085724 0.0010909074917435646 -0.0025356821715831757 0 0 0 0
2996277768 0.2683655321598053 -0.08390510082244873 0.00040209945291280746 -0.0023825913667678833 0 0 0 0
2999999852 0.26938340067863464 -0.11150943487882614 -3.383029252290726e-05 -0.0022398587316274643 0 0 0 0
