# HZ S RI R 50
1500000000 -0.15144845843315125 0.0007913410663604736 0.07220809161663055 -0.03495296463370323 0 0 0 0
1503722084 -0.12785032391548157 0.03537997975945473 0.06296347826719284 -0.04749627038836479 0 0 0 0
1507444168 -0.09789153933525085 0.06525414437055588 0.05156442150473595 -0.05754568800330162 0 0 0 0
1511166252 -0.05944538116455078 0.09207168221473694 0.037778981029987335 -0.06459024548530579 0 0 0 0
1514888336 -0.015762798488140106 0.11135271191596985 0.022962741553783417 -0.06774193793535233 0 0 0 0
1518610420 0.0327838733792305 0.12244605273008347 0.008786458522081375 -0.06736304610967636 0 0 0 0
1522332504 0.08330799639225006 0.12356279790401459 -0.0033617541193962097 -0.06372474133968353 0 0 0 0
1526054588 0.13377901911735535 0.11502350121736526 -0.013586564920842648 -0.05873473361134529 0 0 0 0
1529776672 0.18183566629886627 0.09839329868555069 -0.022023919969797134 -0.052433740347623825 0 0 0 0
1533498756 0.22794468700885773 0.07558907568454742 -0.02844107523560524 -0.045373983681201935 0 0 0 0
1537220840 0.27107805013656616 0.04321274161338806 -0.03332579508423805 -0.0377156101167202 0 0 0 0
1540942924 0.3078988194465637 0.003307841718196869 -0.03613092377781868 -0.029791370034217834 0 0 0 0
1544665008 0.33794379234313965 -0.04280361160635948 -0.037344321608543396 -0.022887933999300003 0 0 0 0
1548387092 0.3590976297855377 -0.09255537390708923 -0.037661995738744736 -0.017268924042582512 0 0 0 0
1552109176 0.37265700101852417 -0.14420907199382782 -0.03792086988687515 -0.011368838138878345 0 0 0 0
1555831260 0.37963974475860596 -0.19674427807331085 -0.03742954134941101 -0.005425810813903809 0 0 0 0
1559553344 0.37910667061805725 -0.2519361078739166 -0.03561346232891083 4.805251955986023e-05 0 0 0 0
1563275428 0.3678489923477173 -0.30951258540153503 -0.03312787786126137 0.004312447272241116 0 0 0 0
1566997512 0.34933850169181824 -0.36231955885887146 -0.030499842017889023 0.007882626727223396 0 0 0 0
1570719596 0.3240494430065155 -0.4152221083641052 -0.027807865291833878 0.010875595733523369 0 0 0 0
1574441680 0.2847058176994324 -0.46424955129623413 -0.024946849793195724 0.013112461194396019 0 0 0 0
1578163764 0.2474483698606491 -0.5043385028839111 -0.022745251655578613 0.014829802326858044 0 0 0 0
1581885848 0.19697587192058563 -0.5385461449623108 -0.02041732519865036 0.01662711426615715 0 0 0 0
1585607932 0.14129507541656494 -0.5645239353179932 -0.018086977303028107 0.018285920843482018 0 0 0 0
1589330016 0.08446016907691956 -0.5843712687492371 -0.01566145569086075 0.019774066284298897 0 0 0 0
1593052100 0.026398025453090668 -0.5949675440788269 -0.013442447409033775 0.020915988832712173 0 0 0 0
1596774184 -0.038457438349723816 -0.5957497358322144 -0.011235637590289116 0.02233627624809742 0 0 0 0
1600496268 -0.09227907657623291 -0.5886032581329346 -0.00924769788980484 0.023836199194192886 0 0 0 0
1604218352 -0.15397226810455322 -0.571928858757019 -0.005955001339316368 0.025575967505574226 0 0 0 0
1607940436 -0.2132178395986557 -0.548008143901825 -0.002157355658710003 0.026770714670419693 0 0 0 0
1611662520 -0.2641448378562927 -0.5172256827354431 0.0018873559311032295 0.027345433831214905 0 0 0 0
1615384604 -0.3147050142288208 -0.47642022371292114 0.006682164967060089 0.026871884241700172 0 0 0 0
1619106688 -0.35770630836486816 -0.43131422996520996 0.010730338282883167 0.025719229131937027 0 0 0 0
1622828772 -0.39428573846817017 -0.3773033618927002 0.014797273091971874 0.02386457659304142 0 0 0 0
1626550856 -0.42287129163742065 -0.3192771077156067 0.019090715795755386 0.02120191976428032 0 0 0 0
1630272940 -0.444980263710022 -0.2583080530166626 0.02277454547584057 0.017513521015644073 0 0 0 0
1633995024 -0.458041250705719 -0.1909596174955368 0.025548076257109642 0.012714723125100136 0 0 0 0
1637717108 -0.4621214270591736 -0.12294864654541016 0.02726389840245247 0.007761599496006966 0 0 0 0
1641439192 -0.45699453353881836 -0.05400992929935455 0.027716808021068573 0.0020996015518903732 0 0 0 0
1645161276 -0.4414723217487335 0.016809850931167603 0.02674146369099617 -0.002962476573884487 0 0 0 0
1648883360 -0.41346848011016846 0.08587205410003662 0.02492627501487732 -0.007564661093056202 0 0 0 0
1652605444 -0.3759535253047943 0.14966273307800293 0.022530196234583855 -0.01142667606472969 0 0 0 0
1656327528 -0.3252755403518677 0.20987460017204285 0.01961236260831356 -0.014913223683834076 0 0 0 0
1660049612 -0.26935940980911255 0.2591184377670288 0.016299882903695107 -0.017672210931777954 0 0 0 0
1663771696 -0.20161981880664825 0.30222851037979126 0.012171195819973946 -0.019839681684970856 0 0 0 0
1667493780 -0.13195665180683136 0.3334616422653198 0.0082525834441185 -0.02108030393719673 0 0 0 0
1671215864 -0.056259214878082275 0.35525670647621155 0.0037368200719356537 -0.021775171160697937 0 0 0 0
1674937948 0.02508419379591942 0.3659992218017578 -0.000988982617855072 -0.020965546369552612 0 0 0 0
1678660032 0.10680233687162399 0.36319100856781006 -0.004959459416568279 -0.01878684014081955 0 0 0 0
1682382116 0.18727248907089233 0.34582632780075073 -0.007603027857840061 -0.016262922435998917 0 0 0 0
1686104200 0.26679056882858276 0.3158200681209564 -0.010016287676990032 -0.01346527598798275 0 0 0 0
1689826284 0.3374302089214325 0.27531737089157104 -0.011082963086664677 -0.010170056484639645 0 0 0 0
1693548368 0.40083280205726624 0.22442302107810974 -0.011186475865542889 -0.007189290598034859 0 0 0 0
1697270452 0.4567107558250427 0.15909603238105774 -0.010744991712272167 -0.004538423381745815 0 0 0 0
1700992536 0.5006635785102844 0.09146448969841003 -0.009890709072351456 -0.002835848368704319 0 0 0 0
1704714620 0.533250093460083 0.014034748077392578 -0.009051550179719925 -0.0014126328751444817 0 0 0 0
1708436704 0.5530531406402588 -0.06526271253824234 -0.008114934898912907 -0.00027050357311964035 0 0 0 0
1712158788 0.5593392848968506 -0.145295649766922 -0.007149087265133858 0.0008000480011105537 0 0 0 0
1715880872 0.5514975190162659 -0.22847965359687805 -0.0060327621176838875 0.001330748200416565 0 0 0 0
1719602956 0.5345908403396606 -0.30287060141563416 -0.004845272749662399 0.001622658222913742 0 0 0 0
1723325040 0.5053257942199707 -0.37471818923950195 -0.003785564564168453 0.001413220539689064 0 0 0 0
1727047124 0.46442052721977234 -0.4420580267906189 -0.00319821760058403 0.0009538270533084869 0 0 0 0
1730769208 0.4145921468734741 -0.5014578700065613 -0.0028784777969121933 0.0004476727917790413 0 0 0 0
1734491292 0.3574836850166321 -0.5501465201377869 -0.0027720285579562187 2.5488436222076416e-05 0 0 0 0
1738213376 0.291709303855896 -0.5912178754806519 -0.0028593186289072037 -0.0004929015412926674 0 0 0 0
1741935460 0.22843199968338013 -0.6170787811279297 -0.0032433848828077316 -0.0010468866676092148 0 0 0 0
1745657544 0.15762218832969666 -0.6350918412208557 -0.00414640735834837 -0.0012440746650099754 0 0 0 0
1749379628 0.08427929878234863 -0.6421142816543579 -0.004943639971315861 -0.0010983031243085861 0 0 0 0
1753101712 0.0134410560131073 -0.6369518637657166 -0.005656487308442593 -0.0006075482815504074 0 0 0 0
1756823796 -0.055886752903461456 -0.620796263217926 -0.0063362447544932365 2.8694048523902893e-06 0 0 0 0
1760545880 -0.11655154824256897 -0.5941575765609741 -0.006698106415569782 0.0008509522303938866 0 0 0 0
1764267964 -0.1728525161743164 -0.5623433589935303 -0.007126486860215664 0.001558748073875904 0 0 0 0
1767990048 -0.22400136291980743 -0.5191216468811035 -0.00728559959679842 0.0026146816089749336 0 0 0 0
1771712132 -0.26465222239494324 -0.4736258387565613 -0.007326585240662098 0.003306431695818901 0 0 0 0
1775434216 -0.2988029718399048 -0.42253008484840393 -0.007878510281443596 0.004102472215890884 0 0 0 0
1779156300 -0.3260577619075775 -0.36885201930999756 -0.008508313447237015 0.005298313684761524 0 0 0 0
1782878384 -0.3433721661567688 -0.3146032691001892 -0.009179052896797657 0.007088037207722664 0 0 0 0
1786600468 -0.35698601603507996 -0.25455158948898315 -0.009397340938448906 0.009537789970636368 0 0 0 0
1790322552 -0.359145849943161 -0.19628003239631653 -0.00897624995559454 0.012457824312150478 0 0 0 0
1794044636 -0.3535199761390686 -0.13921716809272766 -0.007551334798336029 0.01594662107527256 0 0 0 0
1797766720 -0.34011387825012207 -0.0814821720123291 -0.004907605238258839 0.01896108128130436 0 0 0 0
1801488804 -0.31834113597869873 -0.02978297881782055 -0.0013051778078079224 0.021646445617079735 0 0 0 0
1805210888 -0.2904728949069977 0.02091332897543907 0.003376143053174019 0.023924214765429497 0 0 0 0
1808932972 -0.25268426537513733 0.06821560114622116 0.009251683950424194 0.02473396249115467 0 0 0 0
1812655056 -0.20848321914672852 0.10715357214212418 0.015641119331121445 0.02348770759999752 0 0 0 0
1816377140 -0.15721693634986877 0.13745591044425964 0.021467797458171844 0.02071125991642475 0 0 0 0
1820099224 -0.1027839332818985 0.15741299092769623 0.027242597192525864 0.01622135005891323 0 0 0 0
1823821308 -0.048163581639528275 0.16760720312595367 0.031497105956077576 0.00980153027921915 0 0 0 0
1827543392 0.0068159401416778564 0.16950416564941406 0.03339084982872009 0.0024851681664586067 0 0 0 0
1831265476 0.05872524529695511 0.1616462767124176 0.03348998725414276 -0.004760597832500935 0 0 0 0
1834987560 0.10758814215660095 0.1473543494939804 0.031835559755563736 -0.01169507298618555 0 0 0 0
1838709644 0.1533028781414032 0.12537086009979248 0.028585471212863922 -0.017674824222922325 0 0 0 0
1842431728 0.19392535090446472 0.09629664570093155 0.02495168149471283 -0.022855766117572784 0 0 0 0
1846153812 0.22625988721847534 0.06440319120883942 0.020254621282219887 -0.027251705527305603 0 0 0 0
1849875896 0.25328901410102844 0.027841530740261078 0.014818241819739342 -0.03039494715631008 0 0 0 0
1853597980 0.27396848797798157 -0.010040104389190674 0.00913934875279665 -0.03226764127612114 0 0 0 0
1857320064 0.28848177194595337 -0.050254084169864655 0.003810359165072441 -0.032940562814474106 0 0 0 0
1861042148 0.29707688093185425 -0.09246804565191269 -0.0007733795791864395 -0.033976562321186066 0 0 0 0
1864764232 0.2970407009124756 -0.13401184976100922 -0.007105930708348751 -0.03455951809883118 0 0 0 0
1868486316 0.2918696105480194 -0.17297491431236267 -0.014040806330740452 -0.03343779966235161 0 0 0 0
1872208400 0.27860748767852783 -0.2113443911075592 -0.020216988399624825 -0.03033657744526863 0 0 0 0
1875930484 0.26147860288619995 -0.24600103497505188 -0.02593911811709404 -0.02614927664399147 0 0 0 0
1879652568 0.239518404006958 -0.2765362560749054 -0.03009175881743431 -0.020918747410178185 0 0 0 0
1883374652 0.21474210917949677 -0.3011152446269989 -0.033091917634010315 -0.015754656866192818 0 0 0 0
1887096736 0.18484576046466827 -0.3210402727127075 -0.035819824784994125 -0.010746948421001434 0 0 0 0
1890818820 0.15156199038028717 -0.33569100499153137 -0.03824737295508385 -0.004375919699668884 0 0 0 0
1894540904 0.11654192209243774 -0.34371620416641235 -0.03917168825864792 0.0028203362599015236 0 0 0 0
1898262988 0.08515827357769012 -0.3451361358165741 -0.038557037711143494 0.01017879880964756 0 0 0 0
1901985072 0.04948941618204117 -0.3417712450027466 -0.035979896783828735 0.017741840332746506 0 0 0 0
1905707156 0.02004978060722351 -0.330233097076416 -0.03207723796367645 0.024033483117818832 0 0 0 0
1909429240 -0.004990026354789734 -0.3175440728664398 -0.027346976101398468 0.029130153357982635 0 0 0 0
1913151324 -0.029874645173549652 -0.2992919981479645 -0.022146563977003098 0.03346933424472809 0 0 0 0
1916873408 -0.04944080859422684 -0.27781942486763 -0.0157998725771904 0.03748419135808945 0 0 0 0
1920595492 -0.0658750832080841 -0.2536584436893463 -0.00873980950564146 0.04046783223748207 0 0 0 0
1924317576 -0.07705066353082657 -0.22749334573745728 -0.0010567624121904373 0.041730839759111404 0 0 0 0
1928039660 -0.08228631317615509 -0.20157217979431152 0.007479679770767689 0.04136800393462181 0 0 0 0
1931761744 -0.08572269976139069 -0.17446887493133545 0.015478244051337242 0.03886188566684723 0 0 0 0
1935483828 -0.08354948461055756 -0.14721086621284485 0.022585127502679825 0.034293703734874725 0 0 0 0
1939205912 -0.07689905911684036 -0.12029920518398285 0.02792523242533207 0.028753582388162613 0 0 0 0
1942927996 -0.06702429801225662 -0.09469260275363922 0.03183971717953682 0.0225797351449728 0 0 0 0
1946650080 -0.05180696025490761 -0.07023031264543533 0.03425383195281029 0.01667947694659233 0 0 0 0
1950372164 -0.031476277858018875 -0.04870566353201866 0.03637901693582535 0.01114035863429308 0 0 0 0
1954094248 -0.006348106078803539 -0.03138038143515587 0.038094326853752136 0.0047029610723257065 0 0 0 0
1957816332 0.021992096677422523 -0.020307110622525215 0.038762226700782776 -0.0025290045887231827 0 0 0 0
1961538416 0.05173812806606293 -0.015004437416791916 0.03782975301146507 -0.009880347177386284 0 0 0 0
1965260500 0.08139000087976456 -0.01630176045000553 0.03499523550271988 -0.0171436108648777 0 0 0 0
1968982584 0.1101028174161911 -0.023812558501958847 0.030985474586486816 -0.023349624127149582 0 0 0 0
1972704668 0.13601411879062653 -0.03590990975499153 0.025559663772583008 -0.028438657522201538 0 0 0 0
1976426752 0.15807490050792694 -0.05201481282711029 0.019902970641851425 -0.032752107828855515 0 0 0 0
1980148836 0.17740601301193237 -0.07146565616130829 0.013271404430270195 -0.035787180066108704 0 0 0 0
1983870920 0.19273507595062256 -0.0939531996846199 0.005850312300026417 -0.03719346225261688 0 0 0 0
1987593004 0.20273973047733307 -0.12016332894563675 -0.001288747414946556 -0.0373484268784523 0 0 0 0
1991315088 0.20821115374565125 -0.14686119556427002 -0.008473921567201614 -0.03593188896775246 0 0 0 0
1995037172 0.20786024630069733 -0.1731662154197693 -0.01516388077288866 -0.03295593336224556 0 0 0 0
1998759256 0.20324008166790009 -0.19894881546497345 -0.02055368758738041 -0.028559833765029907 0 0 0 0
2002481340 0.19464030861854553 -0.2233200967311859 -0.024287763983011246 -0.02391080930829048 0 0 0 0
2006203424 0.18207824230194092 -0.24482637643814087 -0.027035851031541824 -0.019129887223243713 0 0 0 0
2009925508 0.1644853949546814 -0.2625928521156311 -0.029325157403945923 -0.014802569523453712 0 0 0 0
2013647592 0.1458037793636322 -0.27767765522003174 -0.031200721859931946 -0.00993312057107687 0 0 0 0
2017369676 0.1271163523197174 -0.2903978228569031 -0.03273838013410568 -0.0048773521557450294 0 0 0 0
2021091760 0.10266070067882538 -0.3017994463443756 -0.0338510163128376 0.0009267469868063927 0 0 0 0
2024813844 0.07853623479604721 -0.307414174079895 -0.033599335700273514 0.007061606273055077 0 0 0 0
2028535928 0.05189843475818634 -0.30874666571617126 -0.032120805233716965 0.013177293352782726 0 0 0 0
2032258012 0.02485567331314087 -0.30677974224090576 -0.02873106673359871 0.019213292747735977 0 0 0 0
2035980096 -9.386241436004639e-05 -0.29908329248428345 -0.024496769532561302 0.023705966770648956 0 0 0 0
2039702180 -0.02627691440284252 -0.28695181012153625 -0.019862959161400795 0.027489349246025085 0 0 0 0
2043424264 -0.048910029232501984 -0.2700784206390381 -0.01452510617673397 0.03012140281498432 0 0 0 0
2047146348 -0.06783241033554077 -0.2500767111778259 -0.0088233333081007 0.03202012926340103 0 0 0 0
2050868432 -0.08408306539058685 -0.22689218819141388 -0.0033997008576989174 0.03256259486079216 0 0 0 0
2054590516 -0.09659707546234131 -0.20187318325042725 0.0020148977637290955 0.0323706790804863 0 0 0 0
2058312600 -0.10624851286411285 -0.17402002215385437 0.007530661299824715 0.031126944348216057 0 0 0 0
2062034684 -0.11133407801389694 -0.1442580223083496 0.012410544790327549 0.02914706990122795 0 0 0 0
2065756768 -0.11239871382713318 -0.11349447816610336 0.01718873158097267 0.026325121521949768 0 0 0 0
2069478852 -0.10785697400569916 -0.08172128349542618 0.020715322345495224 0.02273409813642502 0 0 0 0
2073200936 -0.09783824533224106 -0.05015045404434204 0.023823551833629608 0.018500106409192085 0 0 0 0
2076923020 -0.0823075920343399 -0.02023289166390896 0.025677695870399475 0.014254242181777954 0 0 0 0
2080645104 -0.06097404658794403 0.008320361375808716 0.02674250304698944 0.010249460116028786 0 0 0 0
2084367188 -0.03401389718055725 0.032590270042419434 0.027415908873081207 0.00618835911154747 0 0 0 0
2088089272 -0.0032835379242897034 0.05135394632816315 0.02829994261264801 0.002259788103401661 0 0 0 0
2091811356 0.03048037923872471 0.06397034972906113 0.028974775224924088 -0.001629614271223545 0 0 0 0
2095533440 0.06560422480106354 0.07162601500749588 0.0293918177485466 -0.006360030733048916 0 0 0 0
2099255524 0.10203451663255692 0.07143232226371765 0.02871253341436386 -0.011786401271820068 0 0 0 0
2102977608 0.1370844841003418 0.06686371564865112 0.026612330228090286 -0.017866462469100952 0 0 0 0
2106699692 0.1705511510372162 0.05717975273728371 0.022877944633364677 -0.022901002317667007 0 0 0 0
2110421776 0.2036391645669937 0.04103114455938339 0.017845088616013527 -0.026888340711593628 0 0 0 0
2114143860 0.23363173007965088 0.019449956715106964 0.012187734246253967 -0.029350249096751213 0 0 0 0
2117865944 0.2577637732028961 -0.007581010460853577 0.006230427883565426 -0.031001191586256027 0 0 0 0
2121588028 0.27658477425575256 -0.03496492654085159 0.000386606901884079 -0.03172788769006729 0 0 0 0
2125310112 0.2908008098602295 -0.0657535046339035 -0.006168480031192303 -0.030930083245038986 0 0 0 0
2129032196 0.29981720447540283 -0.09749186038970947 -0.01193074882030487 -0.02814588136970997 0 0 0 0
2132754280 0.3036345839500427 -0.13169601559638977 -0.016462042927742004 -0.024485209956765175 0 0 0 0
2136476364 0.30222153663635254 -0.16487984359264374 -0.019775114953517914 -0.02066621743142605 0 0 0 0
2140198448 0.2962196469306946 -0.19696807861328125 -0.02232397347688675 -0.016176816076040268 0 0 0 0
2143920532 0.283738374710083 -0.22874461114406586 -0.02393016219139099 -0.011920841410756111 0 0 0 0
2147642616 0.2684953808784485 -0.2552841603755951 -0.02488633804023266 -0.007708783261477947 0 0 0 0
2151364700 0.24866460263729095 -0.2796825170516968 -0.025091759860515594 -0.0037027187645435333 0 0 0 0
2155086784 0.221436008810997 -0.3031720519065857 -0.02487972192466259 0.0005819899961352348 0 0 0 0
2158808868 0.19736802577972412 -0.31813734769821167 -0.02423410676419735 0.004038483835756779 0 0 0 0
2162530952 0.17002220451831818 -0.32963258028030396 -0.022839004173874855 0.007476971484720707 0 0 0 0
2166253036 0.13836388289928436 -0.3361915349960327 -0.021380916237831116 0.010419978760182858 0 0 0 0
2169975120 0.1096901074051857 -0.33845579624176025 -0.020090710371732712 0.013216283172369003 0 0 0 0
2173697204 0.07798760384321213 -0.3365405797958374 -0.018356649205088615 0.016493985429406166 0 0 0 0
2177419288 0.050395525991916656 -0.33034685254096985 -0.015507092699408531 0.020047679543495178 0 0 0 0
2181141372 0.02418830245733261 -0.31934210658073425 -0.011962778866291046 0.022676488384604454 0 0 0 0
2184863456 -0.0007476545870304108 -0.3060389459133148 -0.007656361907720566 0.024568838998675346 0 0 0 0
2188585540 -0.023476406931877136 -0.28679215908050537 -0.0032618846744298935 0.025469530373811722 0 0 0 0
2192307624 -0.042637571692466736 -0.26395905017852783 0.0012923460453748703 0.025870611891150475 0 0 0 0
2196029708 -0.05801636725664139 -0.23993515968322754 0.006262767128646374 0.025299375876784325 0 0 0 0
2199751792 -0.07013856619596481 -0.21323522925376892 0.010965168476104736 0.023715883493423462 0 0 0 0
2203473876 -0.07833778858184814 -0.1840744912624359 0.015301592648029327 0.020791303366422653 0 0 0 0
2207195960 -0.07735945284366608 -0.15726135671138763 0.018953120335936546 0.01729562319815159 0 0 0 0
2210918044 -0.07757501304149628 -0.1262853443622589 0.021525830030441284 0.01290382444858551 0 0 0 0
2214640128 -0.07165450602769852 -0.09611298888921738 0.023181002587080002 0.008315901271998882 0 0 0 0
2218362212 -0.056697018444538116 -0.07081448286771774 0.023772308602929115 0.0031907251104712486 0 0 0 0
2222084296 -0.04075602442026138 -0.045901138335466385 0.023034127429127693 -0.001575966365635395 0 0 0 0
2225806380 -0.019376423209905624 -0.025372851639986038 0.021402811631560326 -0.0052409544587135315 0 0 0 0
2229528464 0.004653426818549633 -0.008951815776526928 0.019213592633605003 -0.008911185897886753 0 0 0 0
2233250548 0.030304502695798874 0.0020331982523202896 0.01672634296119213 -0.011745613999664783 0 0 0 0
2236972632 0.05690938979387283 0.008803276345133781 0.013798315078020096 -0.013771392405033112 0 0 0 0
2240694716 0.08394809067249298 0.011453207582235336 0.011000372469425201 -0.015775397419929504 0 0 0 0
2244416800 0.11026766151189804 0.009590256959199905 0.0077804336324334145 -0.016963673755526543 0 0 0 0
2248138884 0.13568606972694397 0.0035251444205641747 0.0045141177251935005 -0.01773940958082676 0 0 0 0
2251860968 0.15982180833816528 -0.010699646547436714 0.0006942367181181908 -0.017856135964393616 0 0 0 0
2255583052 0.1828487664461136 -0.023288406431674957 -0.0021233391016721725 -0.017294414341449738 0 0 0 0
2259305136 0.20134951174259186 -0.04128686338663101 -0.004801101982593536 -0.01618715189397335 0 0 0 0
2263027220 0.21699298918247223 -0.061956990510225296 -0.007288385182619095 -0.014539412222802639 0 0 0 0
2266749304 0.22699029743671417 -0.0833636000752449 -0.00931946374475956 -0.012549524195492268 0 0 0 0
2270471388 0.23353402316570282 -0.10818850994110107 -0.011017854325473309 -0.010501682758331299 0 0 0 0
2274193472 0.23780377209186554 -0.13089269399642944 -0.012095827609300613 -0.008387207984924316 0 0 0 0
2277915556 0.2302175760269165 -0.16120778024196625 -0.012737293727695942 -0.006250967271625996 0 0 0 0
2281637640 0.2241458147764206 -0.18363513052463531 -0.012968767434358597 -0.004616756923496723 0 0 0 0
2285359724 0.21627122163772583 -0.20113003253936768 -0.013255218043923378 -0.003060203045606613 0 0 0 0
2289081808 0.19462472200393677 -0.22229145467281342 -0.013435239903628826 -0.001127452589571476 0 0 0 0
2292803892 0.17773215472698212 -0.23783241212368011 -0.013472848571836948 0.0009636953473091125 0 0 0 0
2296525976 0.16379985213279724 -0.24370355904102325 -0.013195825740695 0.002768412232398987 0 0 0 0
2300248060 0.13898058235645294 -0.2550598084926605 -0.012338774278759956 0.0050965771079063416 0 0 0 0
2303970144 0.12162145972251892 -0.26236528158187866 -0.01132199913263321 0.006841395981609821 0 0 0 0
2307692228 0.09945482015609741 -0.2614971697330475 -0.010034455917775631 0.008504617027938366 0 0 0 0
2311414312 0.0790913850069046 -0.2602168917655945 -0.007922446355223656 0.010009994730353355 0 0 0 0
2315136396 0.05609956756234169 -0.2545095682144165 -0.00547004584223032 0.010345889255404472 0 0 0 0
2318858480 0.03391250967979431 -0.24562899768352509 -0.0031922273337841034 0.00984564982354641 0 0 0 0
2322580564 0.009702257812023163 -0.2315148264169693 -0.0019234046339988708 0.008990827947854996 0 0 0 0
2326302648 0.0005638375878334045 -0.21389715373516083 -0.001187576912343502 0.008138748817145824 0 0 0 0
2330024732 -0.014675217680633068 -0.1944059580564499 -0.0007748240604996681 0.00760505348443985 0 0 0 0
2333746816 -0.02659478783607483 -0.17241814732551575 -0.0005183005705475807 0.007149610668420792 0 0 0 0
2337468900 -0.03110918030142784 -0.14863453805446625 -0.0001601995900273323 0.0071323951706290245 0 0 0 0
2341190984 -0.0361601784825325 -0.12156503647565842 0.0004659406840801239 0.007127760909497738 0 0 0 0
2344913068 -0.03212545067071915 -0.09489251673221588 0.0011853566393256187 0.0067601874470710754 0 0 0 0
2348635152 -0.024633849039673805 -0.0690922960639 0.001704552210867405 0.006331323646008968 0 0 0 0
2352357236 -0.012775648385286331 -0.044537708163261414 0.002124795690178871 0.005826291628181934 0 0 0 0
2356079320 0.004498552531003952 -0.02217423915863037 0.002456757239997387 0.005286986939609051 0 0 0 0
2359801404 0.02564932033419609 -0.003025885671377182 0.0027140704914927483 0.004974948242306709 0 0 0 0
2363523488 0.050192199647426605 0.011767511256039143 0.003016631118953228 0.004407605156302452 0 0 0 0
2367245572 0.07692822813987732 0.022254256531596184 0.003176526166498661 0.004030758515000343 0 0 0 0
2370967656 0.10556253790855408 0.027102287858724594 0.003061140887439251 0.003553527407348156 0 0 0 0
2374689740 0.13436844944953918 0.026562798768281937 0.0032084789127111435 0.0031852135434746742 0 0 0 0
2378411824 0.1619844138622284 0.021096356213092804 0.003150741569697857 0.0028736256062984467 0 0 0 0
2382133908 0.18903668224811554 0.01161319762468338 0.002990361303091049 0.0025190534070134163 0 0 0 0
2385855992 0.2126569300889969 -0.001899993047118187 0.0029425350949168205 0.002508831210434437 0 0 0 0
2389578076 0.23476383090019226 -0.020264506340026855 0.002809087745845318 0.0024106809869408607 0 0 0 0
2393300160 0.25361165404319763 -0.04065317288041115 0.0028100693598389626 0.0025654789060354233 0 0 0 0
2397022244 0.26739925146102905 -0.06250618398189545 0.0029490701854228973 0.0030121663585305214 0 0 0 0
2400744328 0.276863694190979 -0.09143202006816864 0.003820246085524559 0.0033696312457323074 0 0 0 0
2404466412 0.28585898876190186 -0.11762753129005432 0.00492735393345356 0.003406231291592121 0 0 0 0
2408188496 0.28821316361427307 -0.1459512710571289 0.006283807568252087 0.0026302020996809006 0 0 0 0
2411910580 0.28760597109794617 -0.16899371147155762 0.00713659543544054 0.0015659993514418602 0 0 0 0
2415632664 0.2796779274940491 -0.20143483579158783 0.007661763578653336 7.84723088145256e-05 0 0 0 0
2419354748 0.27105405926704407 -0.22553488612174988 0.008104084990918636 -0.0012384383007884026 0 0 0 0
2423076832 0.255532443523407 -0.24839389324188232 0.007940078154206276 -0.002948806621134281 0 0 0 0
2426798916 0.23773595690727234 -0.2701094448566437 0.007331840693950653 -0.004865600727498531 0 0 0 0
2430521000 0.21451745927333832 -0.28893837332725525 0.006167702376842499 -0.006041111424565315 0 0 0 0
2434243084 0.19251306354999542 -0.3031724691390991 0.004792200401425362 -0.006752173416316509 0 0 0 0
2437965168 0.17125670611858368 -0.3138660788536072 0.003913854248821735 -0.00726367998868227 0 0 0 0
2441687252 0.14060156047344208 -0.32397276163101196 0.003094569779932499 -0.007941079325973988 0 0 0 0
2445409336 0.11498407274484634 -0.32780221104621887 0.0022762399166822433 -0.008307648822665215 0 0 0 0
2449131420 0.08558052033185959 -0.3277326822280884 0.0015048598870635033 -0.008967925794422626 0 0 0 0
2452853504 0.05551954358816147 -0.321787565946579 0.0003408370539546013 -0.009417055174708366 0 0 0 0
2456575588 0.028186028823256493 -0.3131411075592041 -0.0009720493108034134 -0.010134887881577015 0 0 0 0
2460297672 0.004539065062999725 -0.2997974753379822 -0.002558906562626362 -0.010882497765123844 0 0 0 0
2464019756 -0.01786230504512787 -0.2818267345428467 -0.004590360447764397 -0.010876907035708427 0 0 0 0
2467741840 -0.039338015019893646 -0.2610222399234772 -0.007009202614426613 -0.010222114622592926 0 0 0 0
2471463924 -0.05633988603949547 -0.23892556130886078 -0.008715741336345673 -0.00939530972391367 0 0 0 0
2475186008 -0.0689379870891571 -0.21492061018943787 -0.010376031510531902 -0.008442968130111694 0 0 0 0
2478908092 -0.07829441130161285 -0.18770897388458252 -0.012270352803170681 -0.0071279127150774 0 0 0 0
2482630176 -0.08527746051549911 -0.15834295749664307 -0.01394096203148365 -0.005093969404697418 0 0 0 0
2486352260 -0.08817081153392792 -0.12917140126228333 -0.015396993607282639 -0.0026306752115488052 0 0 0 0
2490074344 -0.08559462428092957 -0.0984865352511406 -0.016285812482237816 0.00021665822714567184 0 0 0 0
2493796428 -0.07770652323961258 -0.06886044144630432 -0.016299692913889885 0.0033003399148583412 0 0 0 0
2497518512 -0.0652049109339714 -0.04141087085008621 -0.01567426696419716 0.006429840810596943 0 0 0 0
2501240596 -0.04748925566673279 -0.015482057817280293 -0.01438975241035223 0.008989989757537842 0 0 0 0
2504962680 -0.026513373479247093 0.006626911461353302 -0.012759744189679623 0.011264350265264511 0 0 0 0
2508684764 -0.002595994621515274 0.02557312697172165 -0.01086333580315113 0.013407027348876 0 0 0 0
2512406848 0.024402236565947533 0.03997716307640076 -0.008516850881278515 0.015663668513298035 0 0 0 0
2516128932 0.0534997396171093 0.04956907778978348 -0.005358303897082806 0.01745077222585678 0 0 0 0
2519851016 0.083647221326828 0.05454599857330322 -0.0015866560861468315 0.018353408202528954 0 0 0 0
2523573100 0.11336498707532883 0.052514877170324326 0.0021705245599150658 0.018050577491521835 0 0 0 0
2527295184 0.14202839136123657 0.047235824167728424 0.005511668510735035 0.017274310812354088 0 0 0 0
2531017268 0.1685744822025299 0.03638001158833504 0.008953223936259747 0.015364584513008595 0 0 0 0
2534739352 0.1918640434741974 0.022487640380859375 0.011575273238122463 0.013098270632326603 0 0 0 0
2538461436 0.21300941705703735 0.006324480287730694 0.013628613203763962 0.010403388179838657 0 0 0 0
2542183520 0.23000511527061462 -0.012838035821914673 0.015078934840857983 0.007147756405174732 0 0 0 0
2545905604 0.2434293031692505 -0.034220218658447266 0.015869759023189545 0.003894205205142498 0 0 0 0
2549627688 0.2532884478569031 -0.05672546476125717 0.01591581106185913 0.00023829564452171326 0 0 0 0
2553349772 0.2612360119819641 -0.07751298695802689 0.015187004581093788 -0.0029852688312530518 0 0 0 0
2557071856 0.26360803842544556 -0.10216028988361359 0.013433489017188549 -0.006075971759855747 0 0 0 0
2560793940 0.2630844712257385 -0.12453024089336395 0.01100174617022276 -0.008343007415533066 0 0 0 0
2564516024 0.2594122290611267 -0.14657357335090637 0.008635438047349453 -0.009758152067661285 0 0 0 0
2568238108 0.25332486629486084 -0.1661079227924347 0.0061750393360853195 -0.010246401652693748 0 0 0 0
2571960192 0.24607709050178528 -0.183882474899292 0.003988788463175297 -0.010255781933665276 0 0 0 0
2575682276 0.23356106877326965 -0.2033853381872177 0.002201172523200512 -0.009950708597898483 0 0 0 0
2579404360 0.22171872854232788 -0.21730321645736694 0.0008973274379968643 -0.009323691949248314 0 0 0 0
2583126444 0.2043261080980301 -0.2329331338405609 0.0001421784982085228 -0.009191358461976051 0 0 0 0
2586848528 0.19053922593593597 -0.2408611923456192 -0.0007129814475774765 -0.009407741948962212 0 0 0 0
2590570612 0.1707225888967514 -0.2503942847251892 -0.00227475818246603 -0.009489813819527626 0 0 0 0
2594292696 0.1564294397830963 -0.25380632281303406 -0.004235786385834217 -0.008855557069182396 0 0 0 0
2598014780 0.13546574115753174 -0.2579944431781769 -0.0056738341227173805 -0.007907357066869736 0 0 0 0
2601736864 0.1207541823387146 -0.2561899721622467 -0.007043149322271347 -0.00666525773704052 0 0 0 0
2605458948 0.10193842649459839 -0.2538806200027466 -0.00782246794551611 -0.004704583436250687 0 0 0 0
2609181032 0.08611695468425751 -0.24935714900493622 -0.007879707962274551 -0.002894273027777672 0 0 0 0
2612903116 0.06831502914428711 -0.2428949475288391 -0.007381454110145569 -0.0014800820499658585 0 0 0 0
2616625200 0.05313531309366226 -0.23235738277435303 -0.006707295775413513 -0.00034018605947494507 0 0 0 0
2620347284 0.042397841811180115 -0.22134478390216827 -0.0059151360765099525 0.0002579614520072937 0 0 0 0
2624069368 0.03055291250348091 -0.2076815813779831 -0.005173180252313614 0.0005904082208871841 0 0 0 0
2627791452 0.02352941781282425 -0.19177445769309998 -0.004563380032777786 0.001233634538948536 0 0 0 0
2631513536 0.021827958524227142 -0.17571625113487244 -0.004228823818266392 0.0013320278376340866 0 0 0 0
2635235620 0.021716825664043427 -0.1612156182527542 -0.004043937660753727 0.0012870654463768005 0 0 0 0
2638957704 0.023496344685554504 -0.14689767360687256 -0.0035528745502233505 0.0013965582475066185 0 0 0 0
2642679788 0.027740124613046646 -0.1325441598892212 -0.003475210629403591 0.0012882919982075691 0 0 0 0
2646401872 0.034080974757671356 -0.12081220746040344 -0.003433127887547016 0.001566368155181408 0 0 0 0
2650123956 0.04305000230669975 -0.11044885218143463 -0.003022337332367897 0.0017354441806674004 0 0 0 0
2653846040 0.052600640803575516 -0.10224206000566483 -0.0027120746672153473 0.0016499273478984833 0 0 0 0
2657568124 0.06315203011035919 -0.09693507850170135 -0.0029982421547174454 0.001408950425684452 0 0 0 0
2661290208 0.07576526701450348 -0.09394736588001251 -0.0032882755622267723 0.001480787992477417 0 0 0 0
2665012292 0.08711493015289307 -0.09436822682619095 -0.0035599619150161743 0.0022283587604761124 0 0 0 0
2668734376 0.09679388999938965 -0.09701526910066605 -0.0033304793760180473 0.0030171358957886696 0 0 0 0
2672456460 0.10802306979894638 -0.10112188756465912 -0.002940054051578045 0.0037130843847990036 0 0 0 0
2676178544 0.11375217139720917 -0.10903609544038773 -0.0022970465943217278 0.004180515184998512 0 0 0 0
2679900628 0.11908286809921265 -0.11649614572525024 -0.001522802747786045 0.004628988914191723 0 0 0 0
2683622712 0.12285855412483215 -0.12403349578380585 -0.0006100721657276154 0.004848936572670937 0 0 0 0
2687344796 0.12543605268001556 -0.13241125643253326 0.0003104936331510544 0.004808198660612106 0 0 0 0
2691066880 0.12550464272499084 -0.1414361447095871 0.001063820905983448 0.0045360783115029335 0 0 0 0
2694788964 0.12291222810745239 -0.1512605994939804 0.0018684817478060722 0.004221785813570023 0 0 0 0
2698511048 0.12059959769248962 -0.1579962819814682 0.0024911081418395042 0.004011743701994419 0 0 0 0
2702233132 0.11404145509004593 -0.16666141152381897 0.0033510923385620117 0.0035997536033391953 0 0 0 0
2705955216 0.10840470343828201 -0.17182570695877075 0.00435849092900753 0.0029191235080361366 0 0 0 0
2709677300 0.10111687332391739 -0.17711438238620758 0.0050681112334132195 0.0015318244695663452 0 0 0 0
2713399384 0.09002169966697693 -0.18317271769046783 0.005143735557794571 -0.00010150764137506485 0 0 0 0
2717121468 0.08155538141727448 -0.1840212345123291 0.0045944927260279655 -0.0011114263907074928 0 0 0 0
2720843552 0.07034216076135635 -0.1854703277349472 0.003990418277680874 -0.0019953008741140366 0 0 0 0
2724565636 0.057609736919403076 -0.18403278291225433 0.003199485130608082 -0.0025061052292585373 0 0 0 0
2728287720 0.04559875279664993 -0.18001781404018402 0.0023067276924848557 -0.002802954986691475 0 0 0 0
2732009804 0.03479047864675522 -0.17240945994853973 0.001730852760374546 -0.0026780040934681892 0 0 0 0
2735731888 0.023301757872104645 -0.16316969692707062 0.0014674877747893333 -0.0025843260809779167 0 0 0 0
2739453972 0.015547234565019608 -0.1529480367898941 0.001342003233730793 -0.0024925097823143005 0 0 0 0
2743176056 0.007762402296066284 -0.14063134789466858 0.001044400967657566 -0.0026590367779135704 0 0 0 0
2746898140 0.0032042190432548523 -0.12550249695777893 0.0010060369968414307 -0.0027295993641018867 0 0 0 0
2750620224 0.0011107418686151505 -0.1096908301115036 0.0008332198485732079 -0.002955680713057518 0 0 0 0
2754342308 0.0019358601421117783 -0.09369247406721115 0.0007357168942689896 -0.0034201322123408318 0 0 0 0
2758064392 0.00513913668692112 -0.07792896032333374 0.00015799794346094131 -0.003925683908164501 0 0 0 0
2761786476 0.009768819436430931 -0.0630103051662445 -0.0007560597732663155 -0.004363109357655048 0 0 0 0
2765508560 0.018554259091615677 -0.04761962965130806 -0.0018046796321868896 -0.004037168808281422 0 0 0 0
2769230644 0.029248062521219254 -0.03360286355018616 -0.0026099272072315216 -0.0034237951040267944 0 0 0 0
2772952728 0.04262833297252655 -0.021352384239435196 -0.0029114671051502228 -0.0026198001578450203 0 0 0 0
2776674812 0.05890403315424919 -0.010211337357759476 -0.0030282344669103622 -0.0020908191800117493 0 0 0 0
2780396896 0.07714644074440002 -0.003390304744243622 -0.003096441738307476 -0.0015860805287957191 0 0 0 0
2784118980 0.09671530872583389 0.0009362492710351944 -0.0032271211966872215 -0.0010683424770832062 0 0 0 0
2787841064 0.11638985574245453 0.0030836332589387894 -0.003222009167075157 -0.0003187386319041252 0 0 0 0
2791563148 0.13716979324817657 0.0011829882860183716 -0.0028669508174061775 0.0003363313153386116 0 0 0 0
2795285232 0.15771323442459106 -0.0045363083481788635 -0.002201688475906849 0.0007673110812902451 0 0 0 0
2799007316 0.17850686609745026 -0.009629357606172562 -0.0016750963404774666 0.0007216315716505051 0 0 0 0
2802729400 0.1979355812072754 -0.023721769452095032 -0.0013915570452809334 0.00039939209818840027 0 0 0 0
2806451484 0.21431121230125427 -0.03959762305021286 -0.0015460895374417305 0.0002706339582800865 0 0 0 0
2810173568 0.2303881198167801 -0.05632532015442848 -0.001630016602575779 0.0004151267930865288 0 0 0 0
2813895652 0.24119871854782104 -0.07728375494480133 -0.001645803451538086 0.0008357027545571327 0 0 0 0
2817617736 0.2500092089176178 -0.0982978567481041 -0.0014243191108107567 0.0013094628229737282 0 0 0 0
2821339820 0.25250133872032166 -0.12564617395401 -0.0008105160668492317 0.0014777807518839836 0 0 0 0
2825061904 0.2549128532409668 -0.14548809826374054 -0.0003947140648961067 0.0013460060581564903 0 0 0 0
2828783988 0.2537215054035187 -0.17026099562644958 -0.00014798250049352646 0.0012888992205262184 0 0 0 0
2832506072 0.24852681159973145 -0.1911885291337967 5.663558840751648e-05 0.0011339867487549782 0 0 0 0
2836228156 0.23662778735160828 -0.21640613675117493 0.0003852108493447304 0.000979575328528881 0 0 0 0
2839950240 0.2253110706806183 -0.23791557550430298 0.0006652893498539925 0.0007498236373066902 0 0 0 0
2843672324 0.2119578868150711 -0.2540498375892639 0.0008130529895424843 0.000544239766895771 0 0 0 0
2847394408 0.19566260278224945 -0.26883313059806824 0.0008607711642980576 0.0003392556682229042 0 0 0 0
2851116492 0.17601080238819122 -0.2857450246810913 0.0008910587057471275 0.00019499566406011581 0 0 0 0
2854838576 0.1577983796596527 -0.2969309985637665 0.0009297467768192291 -8.14441591501236e-06 0 0 0 0
2858560660 0.13512364029884338 -0.30949729681015015 0.0012279767543077469 -0.0007132785394787788 0 0 0 0
2862282744 0.11119764298200607 -0.3157116770744324 0.0009125359356403351 -0.0007726754993200302 0 0 0 0
2866004828 0.0871557965874672 -0.3208252787590027 0.00086964201182127 -0.0008747270330786705 0 0 0 0
2869726912 0.061131104826927185 -0.3211655020713806 0.0008163312450051308 -0.0009266594424843788 0 0 0 0
2873448996 0.039215296506881714 -0.3183503746986389 0.0007982254028320312 -0.0011572176590561867 0 0 0 0
2877171080 0.011295191943645477 -0.31164440512657166 0.0006242673844099045 -0.0013343282043933868 0 0 0 0
2880893164 -0.008640751242637634 -0.30357298254966736 0.0004153857007622719 -0.0015002787113189697 0 0 0 0
2884615248 -0.03055528551340103 -0.29106974601745605 9.849201887845993e-05 -0.0016246279701590538 0 0 0 0
2888337332 -0.055600740015506744 -0.27473148703575134 -0.0001417342573404312 -0.0015488825738430023 0 0 0 0
2892059416 -0.0728340893983841 -0.25846239924430847 -0.0003459770232439041 -0.0014291051775217056 0 0 0 0
2895781500 -0.09015971422195435 -0.23729988932609558 -0.0006971359252929688 -0.001250503584742546 0 0 0 0
2899503584 -0.1030501127243042 -0.21518489718437195 -0.0007382621988654137 -0.0010130461305379868 0 0 0 0
2903225668 -0.11457660049200058 -0.18851011991500854 -0.0007707672193646431 -0.0006400542333722115 0 0 0 0
2906947752 -0.12246757000684738 -0.16246843338012695 -0.0007168427109718323 -0.0003000916913151741 0 0 0 0
2910669836 -0.12543901801109314 -0.13313895463943481 -0.00042869336903095245 -0.00017868541181087494 0 0 0 0
2914391920 -0.12476392090320587 -0.10755661129951477 -0.00042969267815351486 -0.00013903900980949402 0 0 0 0
2918114004 -0.11944074928760529 -0.08236879855394363 -0.0002528997138142586 -4.299916326999664e-05 0 0 0 0
2921836088 -0.11333106458187103 -0.05758856609463692 -0.0002457229420542717 -8.83154571056366e-05 0 0 0 0
2925558172 -0.10441538691520691 -0.033155135810375214 -0.00015538465231657028 -2.7412548661231995e-05 0 0 0 0
2929280256 -0.09110160171985626 -0.00951477326452732 -1.3957731425762177e-05 4.9831345677375793e-05 0 0 0 0
2933002340 -0.07540029287338257 0.012350300326943398 -9.796582162380219e-06 4.386249929666519e-05 0 0 0 0
2936724424 -0.056678514927625656 0.0323805958032608 -5.922280251979828e-05 7.838662713766098e-05 0 0 0 0
2940446508 -0.03628038987517357 0.048088088631629944 -0.00020053423941135406 0.0002413373440504074 0 0 0 0
2944168592 -0.012230920605361462 0.062492046505212784 -0.00019600056111812592 0.0005727056413888931 0 0 0 0
2947890676 0.01167428120970726 0.07305571436882019 -1.2286007404327393e-05 0.0009655654430389404 0 0 0 0
2951612760 0.038524553179740906 0.08160208910703659 0.00038126111030578613 0.0012914352118968964 0 0 0 0
2955334844 0.06695453077554703 0.08460361510515213 0.0010690493509173393 0.001360911875963211 0 0 0 0
2959056928 0.09415334463119507 0.08456544578075409 0.0014906246215105057 0.0011990498751401901 0 0 0 0
2962779012 0.12239547073841095 0.07879035174846649 0.002011377364397049 0.001150478608906269 0 0 0 0
2966501096 0.14725033938884735 0.07056605815887451 0.0025988323614001274 0.0007381653413176537 0 0 0 0
2970223180 0.1710081398487091 0.060701634734869 0.0029828520491719246 0.00020727049559354782 0 0 0 0
2973945264 0.19343696534633636 0.04362289234995842 0.0031258203089237213 -0.0007323920726776123 0 0 0 0
2977667348 0.21374642848968506 0.02484753169119358 0.003107348456978798 -0.0013475706800818443 0 0 0 0
2981389432 0.23120032250881195 0.007256738841533661 0.0026894481852650642 -0.0019199391826987267 0 0 0 0
2985111516 0.2444588541984558 -0.016011755913496017 0.002260318025946617 -0.0022500278428196907 0 0 0 0
2988833600 0.25472965836524963 -0.03705587238073349 0.00177841167896986 -0.0024811988696455956 0 0 0 0
2992555684 0.2617783546447754 -0.05981910973787308 0.0010893568396568298 -0.0025188885629177094 0 0 0 0
2996277768 0.2666923403739929 -0.08339575678110123 0.0006768414750695229 -0.0026026777923107147 0 0 0 0
2999999852 0.2687232196331024 -0.1076648086309433 0.0005079200491309166 -0.0024734828621149063 0 0 0 0
