# HZ S RI R 50
1500000000 -0.15226098895072937 -0.00017445813864469528 0.07172781229019165 -0.03233429789543152 0 0 0 0
1503722084 -0.12742120027542114 0.033701930195093155 0.06319037079811096 -0.045394331216812134 0 0 0 0
1507444168 -0.09721626341342926 0.06302302330732346 0.05254774168133736 -0.0552813820540905 0 0 0 0
1511166252 -0.05983245000243187 0.08788135647773743 0.03945215791463852 -0.0625843033194542 0 0 0 0
1514888336 -0.018608205020427704 0.10689565539360046 0.025177370756864548 -0.06595271825790405 0 0 0 0
1518610420 0.0279474388808012 0.11872325092554092 0.011766474694013596 -0.06605155766010284 0 0 0 0
1522332504 0.07742618769407272 0.1225481852889061 0.00020969286561012268 -0.06402665376663208 0 0 0 0
1526054588 0.12774558365345 0.11710534244775772 -0.010151917114853859 -0.05987146496772766 0 0 0 0
1529776672 0.17709146440029144 0.10361026972532272 -0.01907830685377121 -0.05432196706533432 0 0 0 0
1533498756 0.22506478428840637 0.08017362654209137 -0.026317015290260315 -0.047677479684352875 0 0 0 0
1537220840 0.2691802978515625 0.049131616950035095 -0.0317537747323513 -0.040446892380714417 0 0 0 0
1540942924 0.3085806965827942 0.009609658271074295 -0.03537677228450775 -0.03288079798221588 0 0 0 0
1544665008 0.34076976776123047 -0.03603962063789368 -0.03719552606344223 -0.025890780612826347 0 0 0 0
1548387092 0.3638882637023926 -0.08796101808547974 -0.0381145216524601 -0.019692888483405113 0 0 0 0
1552109176 0.37919139862060547 -0.14173543453216553 -0.03876983001828194 -0.013518871739506721 0 0 0 0
1555831260 0.38586777448654175 -0.1986628621816635 -0.038548942655324936 -0.007389035075902939 0 0 0 0
1559553344 0.38417354226112366 -0.2554168403148651 -0.03724324703216553 -0.0017146430909633636 0 0 0 0
1563275428 0.3716731071472168 -0.31515374779701233 -0.03522490710020065 0.0031548049300909042 0 0 0 0
1566997512 0.35267797112464905 -0.3677181601524353 -0.03283406421542168 0.00734398327767849 0 0 0 0
1570719596 0.3231580853462219 -0.42000502347946167 -0.030065713450312614 0.010902732610702515 0 0 0 0
1574441680 0.286930650472641 -0.46676674485206604 -0.027075236663222313 0.013599153608083725 0 0 0 0
1578163764 0.24553130567073822 -0.5056049227714539 -0.024316605180501938 0.015869460999965668 0 0 0 0
1581885848 0.1921527087688446 -0.5395960807800293 -0.021697379648685455 0.01791493222117424 0 0 0 0
1585607932 0.14104948937892914 -0.5648374557495117 -0.018745947629213333 0.019646508619189262 0 0 0 0
1589330016 0.08468179404735565 -0.5842900276184082 -0.016147909685969353 0.020922712981700897 0 0 0 0
1593052100 0.023338228464126587 -0.5938669443130493 -0.013414671644568443 0.02192450873553753 0 0 0 0
1596774184 -0.03445715457201004 -0.5965434908866882 -0.011123606003820896 0.02302626147866249 0 0 0 0
1600496268 -0.09587027132511139 -0.5886255502700806 -0.008621565997600555 0.024252930656075478 0 0 0 0
1604218352 -0.15177752077579498 -0.5739472508430481 -0.005728434771299362 0.025572683662176132 0 0 0 0
1607940436 -0.2113068401813507 -0.5485432744026184 -0.0021833330392837524 0.02641780860722065 0 0 0 0
1611662520 -0.2643440365791321 -0.5158337354660034 0.001706407405436039 0.026798304170370102 0 0 0 0
1615384604 -0.3136603534221649 -0.47612324357032776 0.005816974677145481 0.02656354196369648 0 0 0 0
1619106688 -0.35678693652153015 -0.4274553060531616 0.010086920112371445 0.025421276688575745 0 0 0 0
1622828772 -0.3937532603740692 -0.3757452964782715 0.01426757127046585 0.023860402405261993 0 0 0 0
1626550856 -0.4217994213104248 -0.31826597452163696 0.018600961193442345 0.02108069881796837 0 0 0 0
1630272940 -0.4438518285751343 -0.2556440830230713 0.022150874137878418 0.017334993928670883 0 0 0 0
1633995024 -0.4582189619541168 -0.1885916143655777 0.02478158287703991 0.012818953953683376 0 0 0 0
1637717108 -0.461453914642334 -0.12300639599561691 0.02635926753282547 0.008110139518976212 0 0 0 0
1641439192 -0.45613983273506165 -0.05402819812297821 0.02690131962299347 0.002935151569545269 0 0 0 0
1645161276 -0.4396876394748688 0.017991725355386734 0.026264816522598267 -0.001961848698556423 0 0 0 0
1648883360 -0.41254371404647827 0.08689926564693451 0.024901602417230606 -0.006415344774723053 0 0 0 0
1652605444 -0.3725845515727997 0.15298685431480408 0.022730007767677307 -0.010755392722785473 0 0 0 0
1656327528 -0.3245582580566406 0.21009398996829987 0.019931025803089142 -0.014534486457705498 0 0 0 0
1660049612 -0.26704150438308716 0.2593105733394623 0.016369754448533058 -0.017575111240148544 0 0 0 0
1663771696 -0.20301449298858643 0.3004536032676697 0.012369013391435146 -0.0197098720818758 0 0 0 0
1667493780 -0.13153783977031708 0.33326011896133423 0.008144862949848175 -0.0211491622030735 0 0 0 0
1671215864 -0.05464090406894684 0.3556605577468872 0.003714173100888729 -0.021782606840133667 0 0 0 0
1674937948 0.025884687900543213 0.36612555384635925 -0.0011186273768544197 -0.020974112674593925 0 0 0 0
1678660032 0.10774692893028259 0.3634962737560272 -0.004844874143600464 -0.018984785303473473 0 0 0 0
1682382116 0.1888546496629715 0.34688153862953186 -0.007649666629731655 -0.016610316932201385 0 0 0 0
1686104200 0.2672805190086365 0.31763648986816406 -0.009906863793730736 -0.01375944260507822 0 0 0 0
1689826284 0.3402129113674164 0.27493247389793396 -0.011136893182992935 -0.010695846751332283 0 0 0 0
1693548368 0.40437865257263184 0.22151213884353638 -0.011805547401309013 -0.007632690481841564 0 0 0 0
1697270452 0.4588378071784973 0.1577725112438202 -0.011590784415602684 -0.004767903126776218 0 0 0 0
1700992536 0.5031357407569885 0.08915875852108002 -0.01068197377026081 -0.002514271065592766 0 0 0 0
1704714620 0.5347685217857361 0.014132380485534668 -0.009483068250119686 -0.0008217375725507736 0 0 0 0
1708436704 0.5544885396957397 -0.06569711863994598 -0.008214146830141544 0.00027090031653642654 0 0 0 0
1712158788 0.5612474083900452 -0.14960062503814697 -0.006848829798400402 0.0010296013206243515 0 0 0 0
1715880872 0.5533746480941772 -0.2265889197587967 -0.005803617648780346 0.0013703946024179459 0 0 0 0
1719602956 0.5345300436019897 -0.3047521114349365 -0.004893328994512558 0.0014152275398373604 0 0 0 0
1723325040 0.5040796995162964 -0.37722843885421753 -0.00401994027197361 0.0012834994122385979 0 0 0 0
1727047124 0.46556222438812256 -0.4434584379196167 -0.0035723987966775894 0.000813591293990612 0 0 0 0
1730769208 0.41320303082466125 -0.501632809638977 -0.003306124359369278 0.0005117626860737801 0 0 0 0
1734491292 0.3576929271221161 -0.5503711700439453 -0.0032454505562782288 0.00022601988166570663 0 0 0 0
1738213376 0.294260710477829 -0.5899438261985779 -0.0032712575048208237 -4.797615110874176e-05 0 0 0 0
1741935460 0.22415326535701752 -0.6183501482009888 -0.003573167137801647 -0.0004336610436439514 0 0 0 0
1745657544 0.15605148673057556 -0.6353166699409485 -0.004054974764585495 -0.0004172055050730705 0 0 0 0
1749379628 0.08291768282651901 -0.6406444311141968 -0.004777539521455765 -0.00012771133333444595 0 0 0 0
1753101712 0.013075858354568481 -0.6348211765289307 -0.005002874881029129 0.00029772520065307617 0 0 0 0
1756823796 -0.05521778762340546 -0.619667112827301 -0.00521622970700264 0.0008176537230610847 0 0 0 0
1760545880 -0.11296027898788452 -0.5948528051376343 -0.005451984703540802 0.0011712387204170227 0 0 0 0
1764267964 -0.17331549525260925 -0.5591115355491638 -0.0054179588332772255 0.0015516262501478195 0 0 0 0
1767990048 -0.2195451259613037 -0.5224393606185913 -0.005652136169373989 0.0015254141762852669 0 0 0 0
1771712132 -0.2640807032585144 -0.47366034984588623 -0.006399446167051792 0.0015206141397356987 0 0 0 0
1775434216 -0.29808828234672546 -0.423955500125885 -0.007880967110395432 0.0020651957020163536 0 0 0 0
1779156300 -0.3252151906490326 -0.3683507740497589 -0.009354735724627972 0.0036654192954301834 0 0 0 0
1782878384 -0.34389224648475647 -0.3128109276294708 -0.010230551473796368 0.006212398409843445 0 0 0 0
1786600468 -0.3538168668746948 -0.25648170709609985 -0.01056110393255949 0.009266502223908901 0 0 0 0
1790322552 -0.35636189579963684 -0.19967228174209595 -0.009705969132483006 0.012780092656612396 0 0 0 0
1794044636 -0.35185959935188293 -0.14080269634723663 -0.007653173059225082 0.015979817137122154 0 0 0 0
1797766720 -0.33851832151412964 -0.08429047465324402 -0.004979299381375313 0.018757842481136322 0 0 0 0
1801488804 -0.31845346093177795 -0.03151513636112213 -0.0014118961989879608 0.02143588475883007 0 0 0 0
1805210888 -0.28987234830856323 0.018781468272209167 0.0034245308488607407 0.023401692509651184 0 0 0 0
1808932972 -0.252979040145874 0.0645541250705719 0.00900169275701046 0.023866865783929825 0 0 0 0
1812655056 -0.20851917564868927 0.10527904331684113 0.015035102143883705 0.022492939606308937 0 0 0 0
1816377140 -0.158563494682312 0.13533607125282288 0.02033061720430851 0.019934508949518204 0 0 0 0
1820099224 -0.10529905557632446 0.15630219876766205 0.02533857338130474 0.01608983799815178 0 0 0 0
1823821308 -0.048711713403463364 0.16801205277442932 0.02959582582116127 0.00998083408921957 0 0 0 0
1827543392 0.006554063409566879 0.17053723335266113 0.03164365515112877 0.0032764431089162827 0 0 0 0
1831265476 0.059330619871616364 0.16280339658260345 0.032227952033281326 -0.0033921925351023674 0 0 0 0
1834987560 0.10891154408454895 0.14602525532245636 0.03093775548040867 -0.009909296408295631 0 0 0 0
1838709644 0.15408286452293396 0.12370836734771729 0.029026230797171593 -0.01577242836356163 0 0 0 0
1842431728 0.19244742393493652 0.0967734307050705 0.025811588391661644 -0.02111048810184002 0 0 0 0
1846153812 0.2248946875333786 0.06463269144296646 0.02136640064418316 -0.025602038949728012 0 0 0 0
1849875896 0.2518446445465088 0.028331048786640167 0.016451112926006317 -0.029073601588606834 0 0 0 0
1853597980 0.27378198504447937 -0.010340835899114609 0.011018367484211922 -0.03186916932463646 0 0 0 0
1857320064 0.28937268257141113 -0.050316210836172104 0.005361761897802353 -0.033667296171188354 0 0 0 0
1861042148 0.2979237735271454 -0.09269936382770538 0.00017578434199094772 -0.03471415862441063 0 0 0 0
1864764232 0.2981303036212921 -0.13564114272594452 -0.006672552786767483 -0.035314884036779404 0 0 0 0
1868486316 0.2924807071685791 -0.1737150102853775 -0.013713659718632698 -0.034345593303442 0 0 0 0
1872208400 0.27936846017837524 -0.2116360068321228 -0.020287998020648956 -0.030847255140542984 0 0 0 0
1875930484 0.2622879445552826 -0.24748972058296204 -0.026826580986380577 -0.026535160839557648 0 0 0 0
1879652568 0.24051068723201752 -0.27728354930877686 -0.030813436955213547 -0.02103535458445549 0 0 0 0
1883374652 0.21462713181972504 -0.3026379942893982 -0.03354450315237045 -0.015925303101539612 0 0 0 0
1887096736 0.18362799286842346 -0.32404863834381104 -0.03606178238987923 -0.009918185882270336 0 0 0 0
1890818820 0.15245459973812103 -0.33742326498031616 -0.037775203585624695 -0.003953673876821995 0 0 0 0
1894540904 0.11858098208904266 -0.34575754404067993 -0.03856281936168671 0.002784780226647854 0 0 0 0
1898262988 0.08456876873970032 -0.3474668264389038 -0.03794766217470169 0.009792846627533436 0 0 0 0
1901985072 0.049593064934015274 -0.3431837856769562 -0.03544975072145462 0.016815342009067535 0 0 0 0
1905707156 0.01963573694229126 -0.33389514684677124 -0.03204731270670891 0.02249033935368061 0 0 0 0
1909429240 -0.008386895060539246 -0.31845173239707947 -0.028092361986637115 0.02796165831387043 0 0 0 0
1913151324 -0.031573712825775146 -0.2995205521583557 -0.02327726036310196 0.03303101286292076 0 0 0 0
1916873408 -0.05276220664381981 -0.27714288234710693 -0.01734701730310917 0.03730466589331627 0 0 0 0
1920595492 -0.06773220747709274 -0.25212177634239197 -0.010247043333947659 0.040912333875894547 0 0 0 0
1924317576 -0.07850594073534012 -0.22564329206943512 -0.0019361311569809914 0.04317792132496834 0 0 0 0
1928039660 -0.08464114367961884 -0.19802293181419373 0.007649421691894531 0.04287824034690857 0 0 0 0
1931761744 -0.08565153181552887 -0.1717522293329239 0.016496675089001656 0.039781417697668076 0 0 0 0
1935483828 -0.08294978737831116 -0.14419767260551453 0.023460743948817253 0.03440074250102043 0 0 0 0
1939205912 -0.07618814706802368 -0.11706870794296265 0.028579961508512497 0.028158988803625107 0 0 0 0
1942927996 -0.06407823413610458 -0.0921601951122284 0.03184344246983528 0.022175967693328857 0 0 0 0
1946650080 -0.048022087663412094 -0.0696340873837471 0.034250594675540924 0.016247693449258804 0 0 0 0
1950372164 -0.027596253901720047 -0.04997190833091736 0.03592855855822563 0.010438313707709312 0 0 0 0
1954094248 -0.003518633544445038 -0.03443971648812294 0.03720623627305031 0.004759346134960651 0 0 0 0
1957816332 0.023713739588856697 -0.024561157450079918 0.0379486046731472 -0.0018303506076335907 0 0 0 0
1961538416 0.0508749820291996 -0.019636332988739014 0.03700634092092514 -0.008817531168460846 0 0 0 0
1965260500 0.0792340636253357 -0.01962234266102314 0.03457757830619812 -0.015606692992150784 0 0 0 0
1968982584 0.10599096864461899 -0.025553133338689804 0.031214220449328423 -0.021519696339964867 0 0 0 0
1972704668 0.13171644508838654 -0.035328738391399384 0.02700675278902054 -0.026701953262090683 0 0 0 0
1976426752 0.15455588698387146 -0.05056173354387283 0.021227939054369926 -0.03196796774864197 0 0 0 0
1980148836 0.17459352314472198 -0.06998864561319351 0.014411377720534801 -0.03570271283388138 0 0 0 0
1983870920 0.19152040779590607 -0.09137438982725143 0.006972846575081348 -0.037618767470121384 0 0 0 0
1987593004 0.20292863249778748 -0.11746636033058167 -0.0007048714905977249 -0.037631556391716 0 0 0 0
1991315088 0.2092469185590744 -0.14453990757465363 -0.007335228845477104 -0.03648523613810539 0 0 0 0
1995037172 0.20958957076072693 -0.17112118005752563 -0.01434994675219059 -0.03344467282295227 0 0 0 0
1998759256 0.20564717054367065 -0.19678039848804474 -0.019506243988871574 -0.02903386950492859 0 0 0 0
2002481340 0.19710829854011536 -0.22214743494987488 -0.023353219032287598 -0.024446025490760803 0 0 0 0
2006203424 0.18344059586524963 -0.24382507801055908 -0.02620893158018589 -0.020120542496442795 0 0 0 0
2009925508 0.16853511333465576 -0.2624138295650482 -0.028684234246611595 -0.01619132049381733 0 0 0 0
2013647592 0.14655470848083496 -0.27992141246795654 -0.03126343712210655 -0.01178637333214283 0 0 0 0
2017369676 0.12735190987586975 -0.2927907705307007 -0.033747948706150055 -0.006647435948252678 0 0 0 0
2021091760 0.1045311987400055 -0.30164945125579834 -0.03551807254552841 -0.0005739917978644371 0 0 0 0
2024813844 0.07861911505460739 -0.308868408203125 -0.0357440784573555 0.006415568292140961 0 0 0 0
2028535928 0.051265209913253784 -0.3108682930469513 -0.03405106067657471 0.013652203604578972 0 0 0 0
2032258012 0.02504107356071472 -0.30656057596206665 -0.029857821762561798 0.020248504355549812 0 0 0 0
2035980096 0.0020355544984340668 -0.2999228239059448 -0.02528858743607998 0.024829166010022163 0 0 0 0
2039702180 -0.02431991696357727 -0.28868547081947327 -0.019960913807153702 0.028501100838184357 0 0 0 0
2043424264 -0.047428663820028305 -0.2718924283981323 -0.014314406551420689 0.030962875112891197 0 0 0 0
2047146348 -0.06877443194389343 -0.25221332907676697 -0.008533498272299767 0.03221860155463219 0 0 0 0
2050868432 -0.08563994616270065 -0.22939008474349976 -0.0038421833887696266 0.03246912360191345 0 0 0 0
2054590516 -0.0993916392326355 -0.20306147634983063 0.0016728853806853294 0.03256687521934509 0 0 0 0
2058312600 -0.10843706130981445 -0.17376568913459778 0.007345950230956078 0.031905919313430786 0 0 0 0
2062034684 -0.11201619356870651 -0.14427462220191956 0.012661340646445751 0.03023386374115944 0 0 0 0
2065756768 -0.11307771503925323 -0.11390335857868195 0.01771930232644081 0.027400486171245575 0 0 0 0
2069478852 -0.10798808187246323 -0.08220981061458588 0.02224842458963394 0.023342642933130264 0 0 0 0
2073200936 -0.0985754206776619 -0.050663482397794724 0.025122303515672684 0.018607940524816513 0 0 0 0
2076923020 -0.08258813619613647 -0.01915784738957882 0.02720661833882332 0.013229308649897575 0 0 0 0
2080645104 -0.06107252091169357 0.007947860285639763 0.02755274996161461 0.008980047889053822 0 0 0 0
2084367188 -0.03537589684128761 0.03187213093042374 0.027912676334381104 0.005011352710425854 0 0 0 0
2088089272 -0.00376012921333313 0.0512116476893425 0.028076184913516045 0.0017497474327683449 0 0 0 0
2091811356 0.029857702553272247 0.06410552561283112 0.028674263507127762 -0.0021980609744787216 0 0 0 0
2095533440 0.0649803951382637 0.07170923799276352 0.0288917925208807 -0.006550163961946964 0 0 0 0
2099255524 0.10114862024784088 0.07263685762882233 0.02852962724864483 -0.011771311052143574 0 0 0 0
2102977608 0.13621364533901215 0.06822121888399124 0.026428475975990295 -0.017576606944203377 0 0 0 0
2106699692 0.16976752877235413 0.058773644268512726 0.022767959162592888 -0.022798681631684303 0 0 0 0
2110421776 0.20300282537937164 0.04166077822446823 0.017626306042075157 -0.02686956524848938 0 0 0 0
2114143860 0.23256909847259521 0.021542780101299286 0.012041663751006126 -0.029514923691749573 0 0 0 0
2117865944 0.2579124867916107 -0.0034824609756469727 0.006443018093705177 -0.031107589602470398 0 0 0 0
2121588028 0.27782872319221497 -0.03244195878505707 0.0004201093688607216 -0.03200196474790573 0 0 0 0
2125310112 0.29336678981781006 -0.06358399242162704 -0.006093842908740044 -0.03136148303747177 0 0 0 0
2129032196 0.30176979303359985 -0.09850815683603287 -0.012209733948111534 -0.02886076271533966 0 0 0 0
2132754280 0.30752232670783997 -0.13165372610092163 -0.017351526767015457 -0.025187455117702484 0 0 0 0
2136476364 0.3059101998806 -0.1668858528137207 -0.021259566769003868 -0.02018115669488907 0 0 0 0
2140198448 0.2975190579891205 -0.20032648742198944 -0.023034803569316864 -0.015369170345366001 0 0 0 0
2143920532 0.28606975078582764 -0.2318466156721115 -0.0243875440210104 -0.010867247357964516 0 0 0 0
2147642616 0.26915228366851807 -0.25837916135787964 -0.024688923731446266 -0.006896704435348511 0 0 0 0
2151364700 0.2495604157447815 -0.281664103269577 -0.02467852458357811 -0.002925645560026169 0 0 0 0
2155086784 0.22387491166591644 -0.3051050901412964 -0.024383924901485443 0.0009361971169710159 0 0 0 0
2158808868 0.19881439208984375 -0.31878262758255005 -0.02353016845881939 0.004207048565149307 0 0 0 0
2162530952 0.1676686406135559 -0.33294981718063354 -0.02221876196563244 0.007673964835703373 0 0 0 0
2166253036 0.13824735581874847 -0.33907634019851685 -0.02087939903140068 0.010303879156708717 0 0 0 0
2169975120 0.10766015946865082 -0.34134432673454285 -0.019399411976337433 0.012944554910063744 0 0 0 0
2173697204 0.0772986114025116 -0.3393249809741974 -0.017700372263789177 0.016002047806978226 0 0 0 0
2177419288 0.04629037529230118 -0.33131107687950134 -0.014972440898418427 0.019096534699201584 0 0 0 0
2181141372 0.022105365991592407 -0.3203417658805847 -0.01195274107158184 0.021747073158621788 0 0 0 0
2184863456 -0.004346907138824463 -0.3061782121658325 -0.008081736974418163 0.02354425936937332 0 0 0 0
2188585540 -0.02625643089413643 -0.286914587020874 -0.003961286507546902 0.025021934881806374 0 0 0 0
2192307624 -0.04635991156101227 -0.2630595862865448 0.0002833036705851555 0.025759505107998848 0 0 0 0
2196029708 -0.06127156317234039 -0.23754340410232544 0.005244585685431957 0.02569582499563694 0 0 0 0
2199751792 -0.071461521089077 -0.20901203155517578 0.010519159957766533 0.02403644099831581 0 0 0 0
2203473876 -0.0751122385263443 -0.18225254118442535 0.015085693448781967 0.02127983793616295 0 0 0 0
2207195960 -0.07998143881559372 -0.15207010507583618 0.01841568760573864 0.017916643992066383 0 0 0 0
2210918044 -0.07490715384483337 -0.12393330782651901 0.021072283387184143 0.013420339673757553 0 0 0 0
2214640128 -0.06649984419345856 -0.0974377989768982 0.022654511034488678 0.009010670706629753 0 0 0 0
2218362212 -0.055676259100437164 -0.07079820334911346 0.023265443742275238 0.00402811449021101 0 0 0 0
2222084296 -0.03976357355713844 -0.04690700024366379 0.022336995229125023 -0.0005242004990577698 0 0 0 0
2225806380 -0.019069528207182884 -0.025834301486611366 0.02095053717494011 -0.0037834355607628822 0 0 0 0
2229528464 0.0042093368247151375 -0.008531869389116764 0.019408680498600006 -0.00712606031447649 0 0 0 0
2233250548 0.030559513717889786 0.004257664084434509 0.017900614067912102 -0.009916276670992374 0 0 0 0
2236972632 0.0585668571293354 0.011720270849764347 0.015784097835421562 -0.012995139695703983 0 0 0 0
2240694716 0.08690766990184784 0.012141838669776917 0.013165612705051899 -0.015581878833472729 0 0 0 0
2244416800 0.11392317712306976 0.009865015745162964 0.009565001353621483 -0.017573244869709015 0 0 0 0
2248138884 0.1396809071302414 0.0017620287835597992 0.005834103561937809 -0.01863669976592064 0 0 0 0
2251860968 0.1630721092224121 -0.01242886483669281 0.0020333314314484596 -0.019167648628354073 0 0 0 0
2255583052 0.18374155461788177 -0.025996267795562744 -0.0017435383051633835 -0.018986113369464874 0 0 0 0
2259305136 0.20105703175067902 -0.04384221136569977 -0.005249837413430214 -0.01757425256073475 0 0 0 0
2263027220 0.2150077074766159 -0.06272238492965698 -0.008075263351202011 -0.01545487530529499 0 0 0 0
2266749304 0.22416457533836365 -0.08791583776473999 -0.01002509705722332 -0.01341213658452034 0 0 0 0
2270471388 0.22977371513843536 -0.11112179607152939 -0.011701232753694057 -0.011298874393105507 0 0 0 0
2274193472 0.23595470190048218 -0.13150237500667572 -0.013101020827889442 -0.008931622840464115 0 0 0 0
2277915556 0.23171326518058777 -0.15658032894134521 -0.013896821066737175 -0.006514018401503563 0 0 0 0
2281637640 0.22319422662258148 -0.18452376127243042 -0.014313716441392899 -0.003997696563601494 0 0 0 0
2285359724 0.2146698534488678 -0.20149856805801392 -0.014098907820880413 -0.0018547093495726585 0 0 0 0
2289081808 0.19685488939285278 -0.22270096838474274 -0.013972231186926365 5.411263555288315e-05 0 0 0 0
2292803892 0.18301233649253845 -0.2352668046951294 -0.01329413428902626 0.0020842216908931732 0 0 0 0
2296525976 0.16224128007888794 -0.24733246862888336 -0.012391699478030205 0.0038602277636528015 0 0 0 0
2300248060 0.14024823904037476 -0.2563911974430084 -0.011594366282224655 0.0051711322739720345 0 0 0 0
2303970144 0.1221509501338005 -0.2637939751148224 -0.010633742436766624 0.006460145115852356 0 0 0 0
2307692228 0.10036873072385788 -0.2633344531059265 -0.0095876045525074 0.007835601456463337 0 0 0 0
2311414312 0.07719696313142776 -0.26055800914764404 -0.008093446493148804 0.009004047140479088 0 0 0 0
2315136396 0.051673244684934616 -0.2556915283203125 -0.005689689889550209 0.00991723220795393 0 0 0 0
2318858480 0.031866028904914856 -0.24570974707603455 -0.004386358894407749 0.009587522596120834 0 0 0 0
2322580564 0.012075066566467285 -0.2302856147289276 -0.0030102217569947243 0.00939628854393959 0 0 0 0
2326302648 -0.005964337848126888 -0.21230806410312653 -0.001732843928039074 0.009164278395473957 0 0 0 0
2330024732 -0.014092322438955307 -0.19167187809944153 -0.0010366840288043022 0.008721839636564255 0 0 0 0
2333746816 -0.028064902871847153 -0.1693049818277359 -6.248429417610168e-05 0.008409653790295124 0 0 0 0
2337468900 -0.03163376450538635 -0.14485542476177216 0.0007220245897769928 0.0080703254789114 0 0 0 0
2341190984 -0.034906432032585144 -0.11835593730211258 0.0016612522304058075 0.007703075185418129 0 0 0 0
2344913068 -0.03193993866443634 -0.0919722467660904 0.0024562329053878784 0.006838260218501091 0 0 0 0
2348635152 -0.02239646203815937 -0.0670652836561203 0.002844812348484993 0.005911892279982567 0 0 0 0
2352357236 -0.010585552081465721 -0.04338421672582626 0.0031907344236969948 0.0054302457720041275 0 0 0 0
2356079320 0.007308090105652809 -0.021535411477088928 0.0032085543498396873 0.004716650582849979 0 0 0 0
2359801404 0.02810797281563282 -0.0029931263998150826 0.0032837530598044395 0.004217886365950108 0 0 0 0
2363523488 0.05211114510893822 0.01174992322921753 0.003258488141000271 0.0036521870642900467 0 0 0 0
2367245572 0.07932461053133011 0.021624566987156868 0.003198721446096897 0.0033653024584054947 0 0 0 0
2370967656 0.10769359767436981 0.02625635266304016 0.0030516162514686584 0.0029885899275541306 0 0 0 0
2374689740 0.13571877777576447 0.025333762168884277 0.0031731724739074707 0.0029236609116196632 0 0 0 0
2378411824 0.16285854578018188 0.01879969611763954 0.003216080367565155 0.0025758659467101097 0 0 0 0
2382133908 0.188892662525177 0.011221297085285187 0.0031129270792007446 0.002438528463244438 0 0 0 0
2385855992 0.2127552181482315 -0.004224924370646477 0.0031221983954310417 0.002094714902341366 0 0 0 0
2389578076 0.23566772043704987 -0.020538058131933212 0.0029610712081193924 0.0019137794151902199 0 0 0 0
2393300160 0.25404518842697144 -0.040877565741539 0.002759830094873905 0.002145105041563511 0 0 0 0
2397022244 0.26890265941619873 -0.06262858211994171 0.002960851415991783 0.002825663425028324 0 0 0 0
2400744328 0.28090202808380127 -0.09068665653467178 0.004082389175891876 0.003169819712638855 0 0 0 0
2404466412 0.28787821531295776 -0.11645233631134033 0.005390574224293232 0.002829192206263542 0 0 0 0
2408188496 0.28864526748657227 -0.14689908921718597 0.0063160378485918045 0.0017197038978338242 0 0 0 0
2411910580 0.2889958620071411 -0.16827699542045593 0.007081858813762665 0.000417548231780529 0 0 0 0
2415632664 0.28186067938804626 -0.2002745270729065 0.00732404924929142 -0.0007304726168513298 0 0 0 0
2419354748 0.2689443528652191 -0.22656196355819702 0.007191674783825874 -0.002128266729414463 0 0 0 0
2423076832 0.25380510091781616 -0.2500215768814087 0.006899396888911724 -0.0036103716120123863 0 0 0 0
2426798916 0.23514527082443237 -0.27147048711776733 0.006294538266956806 -0.0049614375457167625 0 0 0 0
2430521000 0.21607983112335205 -0.28877827525138855 0.003720850683748722 -0.004581674002110958 0 0 0 0
2434243084 0.1944626271724701 -0.30329659581184387 0.0037813158705830574 -0.006603972986340523 0 0 0 0
2437965168 0.17020171880722046 -0.3145577013492584 0.0031484905630350113 -0.0070158084854483604 0 0 0 0
2441687252 0.14327599108219147 -0.3232751786708832 0.0021204007789492607 -0.007375285029411316 0 0 0 0
2445409336 0.1141795963048935 -0.3286430835723877 0.0012025022879242897 -0.007691504433751106 0 0 0 0
2449131420 0.08327595144510269 -0.32900843024253845 0.0004799226298928261 -0.00788082368671894 0 0 0 0
2452853504 0.05633256584405899 -0.3223055303096771 -0.0003073951229453087 -0.008184608072042465 0 0 0 0
2456575588 0.031462833285331726 -0.3133695125579834 -0.001363540068268776 -0.008737829513847828 0 0 0 0
2460297672 0.0023008156567811966 -0.30008992552757263 -0.002140505239367485 -0.009354821406304836 0 0 0 0
2464019756 -0.02244631201028824 -0.28366583585739136 -0.0039674462750554085 -0.00984662864357233 0 0 0 0
2467741840 -0.04050686955451965 -0.26335811614990234 -0.00591925997287035 -0.0098414346575737 0 0 0 0
2471463924 -0.059881702065467834 -0.23924565315246582 -0.0082054752856493 -0.009319642558693886 0 0 0 0
2475186008 -0.07366850972175598 -0.21360397338867188 -0.009970876388251781 -0.008330647833645344 0 0 0 0
2478908092 -0.08290937542915344 -0.1855906993150711 -0.012042512185871601 -0.007125111296772957 0 0 0 0
2482630176 -0.08863050490617752 -0.15626220405101776 -0.01378623116761446 -0.0048607150092720985 0 0 0 0
2486352260 -0.091036356985569 -0.12517493963241577 -0.015201102942228317 -0.002270899713039398 0 0 0 0
2490074344 -0.08642999827861786 -0.09501957893371582 -0.015902195125818253 0.000506620854139328 0 0 0 0
2493796428 -0.07730036973953247 -0.06618420779705048 -0.0160303246229887 0.0032296031713485718 0 0 0 0
2497518512 -0.06487889587879181 -0.039306312799453735 -0.015314551070332527 0.006333797238767147 0 0 0 0
2501240596 -0.047147370874881744 -0.013735871762037277 -0.014043456874787807 0.008966498076915741 0 0 0 0
2504962680 -0.02678811363875866 0.0088099529966712 -0.01271209865808487 0.011049560271203518 0 0 0 0
2508684764 -0.0027694450691342354 0.02758452109992504 -0.010881895199418068 0.01346125639975071 0 0 0 0
2512406848 0.023896779865026474 0.04236052930355072 -0.008648226037621498 0.01579621247947216 0 0 0 0
2516128932 0.05300615355372429 0.053057894110679626 -0.0054259393364191055 0.017630193382501602 0 0 0 0
2519851016 0.08419474214315414 0.05799903720617294 -0.0015795975923538208 0.01858421415090561 0 0 0 0
2523573100 0.11509699374437332 0.057224664837121964 0.0023090140894055367 0.018174678087234497 0 0 0 0
2527295184 0.14533033967018127 0.0500166192650795 0.005597473122179508 0.016998153179883957 0 0 0 0
2531017268 0.17329847812652588 0.04116297513246536 0.008485550060868263 0.015630977228283882 0 0 0 0
2534739352 0.19761258363723755 0.025196343660354614 0.011340687982738018 0.013717688620090485 0 0 0 0
2538461436 0.2190799117088318 0.007272340357303619 0.013877282850444317 0.011020981706678867 0 0 0 0
2542183520 0.23594263195991516 -0.013948604464530945 0.015702664852142334 0.007828508503735065 0 0 0 0
2545905604 0.2493358701467514 -0.038854435086250305 0.016722017899155617 0.004049096256494522 0 0 0 0
2549627688 0.2576677203178406 -0.06195040047168732 0.0167347714304924 0.0005771713331341743 0 0 0 0
2553349772 0.26318225264549255 -0.08373038470745087 0.016064485535025597 -0.003073921427130699 0 0 0 0
2557071856 0.2640209197998047 -0.1075231209397316 0.01422189176082611 -0.006341372616589069 0 0 0 0
2560793940 0.2631680369377136 -0.1300288736820221 0.011853823438286781 -0.00865540374070406 0 0 0 0
2564516024 0.2580254077911377 -0.15155074000358582 0.009217694401741028 -0.010099458508193493 0 0 0 0
2568238108 0.251708060503006 -0.1703939437866211 0.0069861505180597305 -0.010892598889768124 0 0 0 0
2571960192 0.23997768759727478 -0.18986758589744568 0.004539354704320431 -0.011211436241865158 0 0 0 0
2575682276 0.23039567470550537 -0.20413172245025635 0.0024415934458374977 -0.011086627840995789 0 0 0 0
2579404360 0.21694041788578033 -0.21825386583805084 0.0007027182728052139 -0.010694403201341629 0 0 0 0
2583126444 0.20242939889431 -0.2303536981344223 -0.0007667550817131996 -0.010208393447101116 0 0 0 0
2586848528 0.18650861084461212 -0.24097013473510742 -0.002195904962718487 -0.009738989174365997 0 0 0 0
2590570612 0.1703839898109436 -0.24861766397953033 -0.0036387424916028976 -0.009122444316744804 0 0 0 0
2594292696 0.15453706681728363 -0.25250133872032166 -0.004825318232178688 -0.008099458180367947 0 0 0 0
2598014780 0.13654492795467377 -0.2573642134666443 -0.005915071815252304 -0.007058246061205864 0 0 0 0
2601736864 0.11682434380054474 -0.2560981810092926 -0.006733903661370277 -0.005690211430191994 0 0 0 0
2605458948 0.09862960875034332 -0.2541574239730835 -0.007454686798155308 -0.0041053518652915955 0 0 0 0
2609181032 0.08303247392177582 -0.24790789186954498 -0.007349278777837753 -0.002688930369913578 0 0 0 0
2612903116 0.06513354182243347 -0.23962071537971497 -0.006974612362682819 -0.0012537483125925064 0 0 0 0
2616625200 0.05257371813058853 -0.22753696143627167 -0.006151681765913963 -9.40132886171341e-05 0 0 0 0
2620347284 0.04375438019633293 -0.21567460894584656 -0.005278094671666622 0.0004920465871691704 0 0 0 0
2624069368 0.034568678587675095 -0.20269270241260529 -0.004418894648551941 0.0007489891722798347 0 0 0 0
2627791452 0.029208041727542877 -0.18840709328651428 -0.003805982880294323 0.0007096566259860992 0 0 0 0
2631513536 0.02676926553249359 -0.1733430027961731 -0.0036836881190538406 0.0003207670524716377 0 0 0 0
2635235620 0.02669045701622963 -0.15977895259857178 -0.003888143226504326 0.000350230373442173 0 0 0 0
2638957704 0.028309881687164307 -0.14718753099441528 -0.003841085359454155 0.0006514564156532288 0 0 0 0
2642679788 0.031262338161468506 -0.13422106206417084 -0.004025341011583805 0.000813070684671402 0 0 0 0
2646401872 0.037418026477098465 -0.12326507270336151 -0.0038631772622466087 0.001417449675500393 0 0 0 0
2650123956 0.04474906623363495 -0.11344276368618011 -0.003526912070810795 0.0015636840835213661 0 0 0 0
2653846040 0.052546244114637375 -0.10506843775510788 -0.003180096857249737 0.0018077967688441277 0 0 0 0
2657568124 0.06371982395648956 -0.09869977086782455 -0.002950098365545273 0.0018000975251197815 0 0 0 0
2661290208 0.07751443237066269 -0.09466486424207687 -0.003172336146235466 0.0017327573150396347 0 0 0 0
2665012292 0.08874386548995972 -0.09606295824050903 -0.0031226864084601402 0.0022142287343740463 0 0 0 0
2668734376 0.09877938032150269 -0.09973711520433426 -0.0032432256266474724 0.002663946710526943 0 0 0 0
2672456460 0.1086948812007904 -0.1043088361620903 -0.0030683819204568863 0.003449687734246254 0 0 0 0
2676178544 0.11331672966480255 -0.11307612806558609 -0.002288862131536007 0.0038919569924473763 0 0 0 0
2679900628 0.11857473105192184 -0.11970517784357071 -0.0018099881708621979 0.004538306966423988 0 0 0 0
2683622712 0.12150261551141739 -0.12749923765659332 -0.0008917925879359245 0.004793849773705006 0 0 0 0
2687344796 0.12245973944664001 -0.13485869765281677 5.312543362379074e-05 0.004882962442934513 0 0 0 0
2691066880 0.12149285525083542 -0.14339862763881683 0.0011019902303814888 0.004700684919953346 0 0 0 0
2694788964 0.12052580714225769 -0.149506613612175 0.0019531548023223877 0.004428640939295292 0 0 0 0
2698511048 0.11742627620697021 -0.15629081428050995 0.0029964977875351906 0.0038090702146291733 0 0 0 0
2702233132 0.11443310976028442 -0.163862943649292 0.003760796971619129 0.003020958974957466 0 0 0 0
2705955216 0.10914558172225952 -0.17090356349945068 0.004174697212874889 0.001867339015007019 0 0 0 0
2709677300 0.1018819808959961 -0.17695453763008118 0.004321807064116001 0.000833640806376934 0 0 0 0
2713399384 0.09092028439044952 -0.18182384967803955 0.004087643697857857 -0.0002031838521361351 0 0 0 0
2717121468 0.08308637142181396 -0.18566718697547913 0.0036121970042586327 -0.0008907299488782883 0 0 0 0
2720843552 0.06836700439453125 -0.18594953417778015 0.003159274347126484 -0.001568223349750042 0 0 0 0
2724565636 0.055763572454452515 -0.18396346271038055 0.002574162557721138 -0.001765490509569645 0 0 0 0
2728287720 0.04298998415470123 -0.1786128133535385 0.0021949708461761475 -0.0019290316849946976 0 0 0 0
2732009804 0.033112771809101105 -0.17159521579742432 0.0019653616473078728 -0.0018323399126529694 0 0 0 0
2735731888 0.02477804571390152 -0.1609298437833786 0.001938600093126297 -0.0018659122288227081 0 0 0 0
2739453972 0.015129707753658295 -0.1504845768213272 0.0018954705446958542 -0.002187213860452175 0 0 0 0
2743176056 0.008540228009223938 -0.13802292943000793 0.0015183547511696815 -0.002712762914597988 0 0 0 0
2746898140 0.003347206860780716 -0.12362862378358841 0.0012869499623775482 -0.00276144128292799 0 0 0 0
2750620224 0.0020663365721702576 -0.10873378813266754 0.000927499495446682 -0.0030247243121266365 0 0 0 0
2754342308 0.003025868907570839 -0.09316842257976532 0.0007255552336573601 -0.0034184809774160385 0 0 0 0
2758064392 0.00546695850789547 -0.07791845500469208 0.0001518717035651207 -0.0037961769849061966 0 0 0 0
2761786476 0.01069159246981144 -0.062036119401454926 -0.0006117979064583778 -0.003909507766366005 0 0 0 0
2765508560 0.019769251346588135 -0.04645441845059395 -0.0014642169699072838 -0.003590693697333336 0 0 0 0
2769230644 0.03090587444603443 -0.03238236904144287 -0.0020694267004728317 -0.0030795587226748466 0 0 0 0
2772952728 0.045183658599853516 -0.020550508052110672 -0.00228104367852211 -0.0024433359503746033 0 0 0 0
2776674812 0.06127118319272995 -0.011642424389719963 -0.002479962073266506 -0.002063961699604988 0 0 0 0
2780396896 0.07883410155773163 -0.004510382190346718 -0.002520577050745487 -0.0018854308873414993 0 0 0 0
2784118980 0.09739518910646439 -2.0626932382583618e-05 -0.0028489818796515465 -0.001437225379049778 0 0 0 0
2787841064 0.11694549024105072 0.002043887972831726 -0.002965218387544155 -0.000804816372692585 0 0 0 0
2791563148 0.13661393523216248 -0.00036112964153289795 -0.00280018150806427 -0.00014221202582120895 0 0 0 0
2795285232 0.15714797377586365 -0.003939174115657806 -0.0024781227111816406 0.00033914949744939804 0 0 0 0
2799007316 0.1785157173871994 -0.012060552835464478 -0.001896102912724018 0.0006883405148983002 0 0 0 0
2802729400 0.1978696584701538 -0.026457451283931732 -0.0015058508142828941 0.0005503762513399124 0 0 0 0
2806451484 0.21429431438446045 -0.0410628467798233 -0.0014746831730008125 0.00030732154846191406 0 0 0 0
2810173568 0.2288317084312439 -0.058250270783901215 -0.0015377132222056389 0.00045896507799625397 0 0 0 0
2813895652 0.2402706742286682 -0.07721880078315735 -0.001546286977827549 0.0008869394659996033 0 0 0 0
2817617736 0.24941182136535645 -0.100275918841362 -0.0010465504601597786 0.0011379551142454147 0 0 0 0
2821339820 0.253097802400589 -0.12419355660676956 -0.0006259772926568985 0.0011232318356633186 0 0 0 0
2825061904 0.2539352476596832 -0.14716538786888123 -0.0003098314628005028 0.0009411806240677834 0 0 0 0
2828783988 0.251726895570755 -0.16961166262626648 -0.00018536951392889023 0.0007411688566207886 0 0 0 0
2832506072 0.24441710114479065 -0.19378148019313812 -6.519630551338196e-05 0.0006006946787238121 0 0 0 0
2836228156 0.23571361601352692 -0.21596267819404602 -4.958081990480423e-05 0.0005486197769641876 0 0 0 0
2839950240 0.22574695944786072 -0.23491741716861725 0.0001351563259959221 0.0006803935393691063 0 0 0 0
2843672324 0.2117869257926941 -0.2528938055038452 0.0003248937427997589 0.0005943700671195984 0 0 0 0
2847394408 0.19489943981170654 -0.2717723548412323 0.0005161566659808159 0.00043837912380695343 0 0 0 0
2851116492 0.17675626277923584 -0.2857895493507385 0.0006946111097931862 0.00019920896738767624 0 0 0 0
2854838576 0.15693384408950806 -0.29898473620414734 0.0007672067731618881 -6.410479545593262e-05 0 0 0 0
2858560660 0.13825061917304993 -0.3092496395111084 0.0008322363719344139 -0.0006111254915595055 0 0 0 0
2862282744 0.10879993438720703 -0.3173491358757019 0.0007279589772224426 -0.0008775461465120316 0 0 0 0
2866004828 0.08696793764829636 -0.32121074199676514 0.0007250485941767693 -0.0008080154657363892 0 0 0 0
2869726912 0.06497175246477127 -0.3205627501010895 0.0007313098758459091 -0.0009929519146680832 0 0 0 0
2873448996 0.037874042987823486 -0.3179301917552948 0.0005785813555121422 -0.0012071551755070686 0 0 0 0
2877171080 0.014035254716873169 -0.3115740120410919 0.0002748146653175354 -0.0014430582523345947 0 0 0 0
2880893164 -0.012517133727669716 -0.3018432855606079 -4.3975189328193665e-05 -0.0014571845531463623 0 0 0 0
2884615248 -0.030786514282226562 -0.2898663878440857 -0.0003838641569018364 -0.0013496624305844307 0 0 0 0
2888337332 -0.05293545126914978 -0.2748599946498871 -0.0006272029131650925 -0.0010434174910187721 0 0 0 0
2892059416 -0.07269734889268875 -0.25632452964782715 -0.0006798366084694862 -0.0007628099992871284 0 0 0 0
2895781500 -0.08856069296598434 -0.23678885400295258 -0.0007774122059345245 -0.0005036396905779839 0 0 0 0
2899503584 -0.10329990088939667 -0.2129451483488083 -0.0006948923692107201 -0.0001689000055193901 0 0 0 0
2903225668 -0.11281169950962067 -0.1899397075176239 -0.00048394035547971725 0.0002744188532233238 0 0 0 0
2906947752 -0.12161249667406082 -0.16338883340358734 -0.0001062760129570961 0.00038655009120702744 0 0 0 0
2910669836 -0.12428925186395645 -0.13656701147556305 0.0003520399332046509 0.0003793090581893921 0 0 0 0
2914391920 -0.12365570664405823 -0.1096455380320549 0.0007234597578644753 0.00011165998876094818 0 0 0 0
2918114004 -0.12006232142448425 -0.08450672030448914 0.0007367217913269997 -5.877949297428131e-05 0 0 0 0
2921836088 -0.11359275877475739 -0.05859491601586342 0.0008077751845121384 -0.00028837844729423523 0 0 0 0
2925558172 -0.10466519743204117 -0.03356108069419861 0.0007917853072285652 -0.0004949802532792091 0 0 0 0
2929280256 -0.09191087633371353 -0.010395064949989319 0.0007134759798645973 -0.0005647577345371246 0 0 0 0
2933002340 -0.07656717300415039 0.0113269267603755 0.0005432553589344025 -0.0007857773452997208 0 0 0 0
2936724424 -0.058112576603889465 0.030292686074972153 0.0002913139760494232 -0.0006496962159872055 0 0 0 0
2940446508 -0.037204205989837646 0.04729699343442917 0.00010210275650024414 -0.0006619961932301521 0 0 0 0
2944168592 -0.014719858765602112 0.061542659997940063 -6.229151040315628e-05 -0.00044498220086097717 0 0 0 0
2947890676 0.010043568909168243 0.07350613176822662 -0.00017284508794546127 -4.938151687383652e-05 0 0 0 0
2951612760 0.03708331286907196 0.08200966566801071 0.00013092532753944397 0.00024637673050165176 0 0 0 0
2955334844 0.06525631248950958 0.08522531390190125 0.0003183390945196152 0.0005099037662148476 0 0 0 0
2959056928 0.09322608262300491 0.08596251159906387 0.0007578311488032341 0.000520375557243824 0 0 0 0
2962779012 0.12092325091362 0.0805167704820633 0.0011489959433674812 0.0006292760372161865 0 0 0 0
2966501096 0.14741180837154388 0.07182709872722626 0.0016148826107382774 0.0005316305905580521 0 0 0 0
2970223180 0.17086099088191986 0.06077546253800392 0.001982579007744789 0.00016955099999904633 0 0 0 0
2973945264 0.1929963231086731 0.046943299472332 0.0022025220096111298 -0.0003860015422105789 0 0 0 0
2977667348 0.21336758136749268 0.029306374490261078 0.002241300418972969 -0.0008499817922711372 0 0 0 0
2981389432 0.2298831343650818 0.00864797830581665 0.0020079249516129494 -0.0012970659881830215 0 0 0 0
2985111516 0.24576227366924286 -0.010789401829242706 0.0018290001899003983 -0.0015178117901086807 0 0 0 0
2988833600 0.2573205828666687 -0.03645116090774536 0.0015234053134918213 -0.0019618067890405655 0 0 0 0
2992555684 0.26579034328460693 -0.05663134157657623 0.0010659322142601013 -0.002192464657127857 0 0 0 0
2996277768 0.27019062638282776 -0.08144558221101761 0.000698561780154705 -0.0022412948310375214 0 0 0 0
2999999852 0.27215713262557983 -0.1086898222565651 0.0003369636833667755 -0.0020681461319327354 0 0 0 0
