# HZ S RI R 50
1500000000 -0.15103958547115326 0.006087435409426689 0.07167334109544754 -0.034992679953575134 0 0 0 0
1503722084 -0.12510773539543152 0.03861839324235916 0.0628402829170227 -0.04704846069216728 0 0 0 0
1507444168 -0.09261059015989304 0.06800708174705505 0.05106521025300026 -0.0570862740278244 0 0 0 0
1511166252 -0.05439291149377823 0.09229926019906998 0.037128984928131104 -0.06448552012443542 0 0 0 0
1514888336 -0.011187415570020676 0.10931699723005295 0.02244703471660614 -0.06730819493532181 0 0 0 0
1518610420 0.03593636304140091 0.11886733025312424 0.00842726044356823 -0.0664462074637413 0 0 0 0
1522332504 0.08490381389856339 0.11947450786828995 -0.003520641475915909 -0.06271366775035858 0 0 0 0
1526054588 0.13274434208869934 0.11196950078010559 -0.013245997950434685 -0.05702026188373566 0 0 0 0
1529776672 0.179619699716568 0.09733603149652481 -0.020393118262290955 -0.050937362015247345 0 0 0 0
1533498756 0.22500114142894745 0.07351074367761612 -0.026404673233628273 -0.04405856877565384 0 0 0 0
1537220840 0.26804208755493164 0.04342978820204735 -0.03084489330649376 -0.037222087383270264 0 0 0 0
1540942924 0.30538904666900635 0.004536688327789307 -0.033468641340732574 -0.030443567782640457 0 0 0 0
1544665008 0.3370029926300049 -0.039593812078237534 -0.03521890938282013 -0.024572383612394333 0 0 0 0
1548387092 0.3611706793308258 -0.08788871765136719 -0.036458082497119904 -0.01912280172109604 0 0 0 0
1552109176 0.37629231810569763 -0.14208778738975525 -0.03739618510007858 -0.013176490552723408 0 0 0 0
1555831260 0.3830147385597229 -0.19890883564949036 -0.03740261495113373 -0.007281809113919735 0 0 0 0
1559553344 0.3811991810798645 -0.2548130750656128 -0.036142073571681976 -0.0017490237951278687 0 0 0 0
1563275428 0.37186938524246216 -0.3102715313434601 -0.03422888368368149 0.002845548093318939 0 0 0 0
1566997512 0.3537548780441284 -0.36507338285446167 -0.03191306069493294 0.0069165779277682304 0 0 0 0
1570719596 0.32401734590530396 -0.419922411441803 -0.029055839404463768 0.010574987158179283 0 0 0 0
1574441680 0.2850104868412018 -0.4687107801437378 -0.02625262178480625 0.012999494560062885 0 0 0 0
1578163764 0.24558143317699432 -0.5077245235443115 -0.023701241239905357 0.014999384060502052 0 0 0 0
1581885848 0.19121679663658142 -0.5415552258491516 -0.02129453979432583 0.016857940703630447 0 0 0 0
1585607932 0.14007863402366638 -0.5659713745117188 -0.01883844844996929 0.01853361539542675 0 0 0 0
1589330016 0.08499324321746826 -0.583987295627594 -0.016219528391957283 0.019872045144438744 0 0 0 0
1593052100 0.024281352758407593 -0.5934671759605408 -0.01415465772151947 0.020961230620741844 0 0 0 0
1596774184 -0.033038824796676636 -0.5963631868362427 -0.012375302612781525 0.02238917537033558 0 0 0 0
1600496268 -0.09827530384063721 -0.5890699625015259 -0.009801867417991161 0.02450805902481079 0 0 0 0
1604218352 -0.15554600954055786 -0.5719091892242432 -0.00647358875721693 0.02633693814277649 0 0 0 0
1607940436 -0.2134913057088852 -0.547615647315979 -0.002446914091706276 0.02754569798707962 0 0 0 0
1611662520 -0.2684398293495178 -0.5144003033638 0.0017741750925779343 0.027928652241826057 0 0 0 0
1615384604 -0.3134145140647888 -0.4757574796676636 0.006132039241492748 0.02752504125237465 0 0 0 0
1619106688 -0.35602790117263794 -0.42940831184387207 0.010541461408138275 0.026284538209438324 0 0 0 0
1622828772 -0.39234331250190735 -0.3756837546825409 0.01461670733988285 0.024725213646888733 0 0 0 0
1626550856 -0.42252689599990845 -0.3193640410900116 0.019179120659828186 0.02210468053817749 0 0 0 0
1630272940 -0.44424307346343994 -0.25681206583976746 0.023070326074957848 0.018293265253305435 0 0 0 0
1633995024 -0.4590111970901489 -0.19202707707881927 0.026068806648254395 0.013811981305480003 0 0 0 0
1637717108 -0.4633582830429077 -0.12307949364185333 0.028114914894104004 0.008515138179063797 0 0 0 0
1641439192 -0.4596351087093353 -0.05164787173271179 0.02891453728079796 0.0026693958789110184 0 0 0 0
1645161276 -0.44255778193473816 0.01872747391462326 0.028171133249998093 -0.0030928151682019234 0 0 0 0
1648883360 -0.4144866466522217 0.0880235880613327 0.026264570653438568 -0.008096463046967983 0 0 0 0
1652605444 -0.37511909008026123 0.15430127084255219 0.02346889302134514 -0.012425226159393787 0 0 0 0
1656327528 -0.32677534222602844 0.21051698923110962 0.020187320187687874 -0.01592882350087166 0 0 0 0
1660049612 -0.2665465474128723 0.26162585616111755 0.01632457785308361 -0.01882276125252247 0 0 0 0
1663771696 -0.2024255245923996 0.30090853571891785 0.012095439247786999 -0.020744239911437035 0 0 0 0
1667493780 -0.13040120899677277 0.3334433436393738 0.007267504930496216 -0.022099796682596207 0 0 0 0
1671215864 -0.05524571239948273 0.35601675510406494 0.002615460194647312 -0.022022325545549393 0 0 0 0
1674937948 0.023512929677963257 0.365943968296051 -0.001822182908654213 -0.02056870609521866 0 0 0 0
1678660032 0.10520873963832855 0.3638767898082733 -0.005245102569460869 -0.01814751699566841 0 0 0 0
1682382116 0.18723657727241516 0.346689373254776 -0.007826901972293854 -0.01548578217625618 0 0 0 0
1686104200 0.26599234342575073 0.3183215260505676 -0.009593186900019646 -0.012646331451833248 0 0 0 0
1689826284 0.3375120460987091 0.2764045298099518 -0.010292177088558674 -0.009596621617674828 0 0 0 0
1693548368 0.4032765328884125 0.22226236760616302 -0.010372785851359367 -0.007259192876517773 0 0 0 0
1697270452 0.45704278349876404 0.1614934355020523 -0.01006287056952715 -0.005091520957648754 0 0 0 0
1700992536 0.5024879574775696 0.09092206507921219 -0.009810703806579113 -0.0037108762189745903 0 0 0 0
1704714620 0.5346360802650452 0.011791497468948364 -0.009387950412929058 -0.002068145200610161 0 0 0 0
1708436704 0.5541363954544067 -0.06510543823242188 -0.008755218237638474 -0.0005353735759854317 0 0 0 0
1712158788 0.5614326596260071 -0.1448860615491867 -0.00764890294522047 0.0007064603269100189 0 0 0 0
1715880872 0.5539668798446655 -0.2273520827293396 -0.006224410608410835 0.001476549543440342 0 0 0 0
1719602956 0.5360406041145325 -0.3025757074356079 -0.004867370240390301 0.0016696210950613022 0 0 0 0
1723325040 0.5021346807479858 -0.3797145187854767 -0.0037960652261972427 0.0011899545788764954 0 0 0 0
1727047124 0.46603748202323914 -0.44082123041152954 -0.0032269852235913277 0.0003963923081755638 0 0 0 0
1730769208 0.41597890853881836 -0.5000109672546387 -0.0031831851229071617 -9.628850966691971e-05 0 0 0 0
1734491292 0.3580806851387024 -0.5507149696350098 -0.003405586816370487 -0.00041812099516391754 0 0 0 0
1738213376 0.2947017550468445 -0.591406524181366 -0.0037670237943530083 -0.0006650472059845924 0 0 0 0
1741935460 0.22205297648906708 -0.6204730272293091 -0.0041493019089102745 -0.0008359011262655258 0 0 0 0
1745657544 0.1585795283317566 -0.6340610980987549 -0.004814832471311092 -0.0009358609095215797 0 0 0 0
1749379628 0.08363249897956848 -0.6423094272613525 -0.0055196937173604965 -0.0005630841478705406 0 0 0 0
1753101712 0.01309589110314846 -0.6366739273071289 -0.005988749675452709 -3.817211836576462e-05 0 0 0 0
1756823796 -0.0565674751996994 -0.6198702454566956 -0.006455347873270512 0.0006919940933585167 0 0 0 0
1760545880 -0.11625918745994568 -0.5949888229370117 -0.006831564009189606 0.0014186976477503777 0 0 0 0
1764267964 -0.17355480790138245 -0.5595916509628296 -0.007263893261551857 0.0023067807778716087 0 0 0 0
1767990048 -0.22492586076259613 -0.521030068397522 -0.007241173647344112 0.003333691507577896 0 0 0 0
1771712132 -0.2651779055595398 -0.47420307993888855 -0.007315315306186676 0.0042692190036177635 0 0 0 0
1775434216 -0.30101433396339417 -0.4233517050743103 -0.007579663768410683 0.005015078000724316 0 0 0 0
1779156300 -0.3277117609977722 -0.3686106204986572 -0.007967272773385048 0.0063236178830266 0 0 0 0
1782878384 -0.34541386365890503 -0.3145509362220764 -0.00820686761289835 0.00786859542131424 0 0 0 0
1786600468 -0.3561120629310608 -0.2569860517978668 -0.00833851657807827 0.010014310479164124 0 0 0 0
1790322552 -0.359634667634964 -0.1952335238456726 -0.007600476965308189 0.012607456184923649 0 0 0 0
1794044636 -0.35454556345939636 -0.1366417109966278 -0.005995023995637894 0.015198501758277416 0 0 0 0
1797766720 -0.33993247151374817 -0.08031565696001053 -0.003920438699424267 0.01777476817369461 0 0 0 0
1801488804 -0.3184462785720825 -0.02761230617761612 -0.001096181571483612 0.020578471943736076 0 0 0 0
1805210888 -0.289732962846756 0.022993184626102448 0.003438718616962433 0.023103885352611542 0 0 0 0
1808932972 -0.2528439462184906 0.06832520663738251 0.009256110526621342 0.024190781638026237 0 0 0 0
1812655056 -0.20595288276672363 0.10990501940250397 0.015812214463949203 0.022875621914863586 0 0 0 0
1816377140 -0.15578724443912506 0.1393226832151413 0.021654674783349037 0.020142583176493645 0 0 0 0
1820099224 -0.10103572905063629 0.15802517533302307 0.02718404307961464 0.015560471452772617 0 0 0 0
1823821308 -0.04566141590476036 0.16823610663414001 0.03146376088261604 0.0092123132199049 0 0 0 0
1827543392 0.008656200021505356 0.16955089569091797 0.03346433490514755 0.0016153203323483467 0 0 0 0
1831265476 0.06068980693817139 0.16209547221660614 0.03344719111919403 -0.0058166757225990295 0 0 0 0
1834987560 0.11032400280237198 0.14588230848312378 0.03161283954977989 -0.012837762013077736 0 0 0 0
1838709644 0.1548023521900177 0.12398228794336319 0.028476521372795105 -0.018779711797833443 0 0 0 0
1842431728 0.19449356198310852 0.09607069939374924 0.024165142327547073 -0.02408994734287262 0 0 0 0
1846153812 0.22744044661521912 0.06199100613594055 0.019194819033145905 -0.027795448899269104 0 0 0 0
1849875896 0.25335025787353516 0.024872466921806335 0.013473349623382092 -0.030557328835129738 0 0 0 0
1853597980 0.27396199107170105 -0.012368246912956238 0.007733439095318317 -0.032149143517017365 0 0 0 0
1857320064 0.28866928815841675 -0.05247537046670914 0.0027183322235941887 -0.032480161637067795 0 0 0 0
1861042148 0.29574769735336304 -0.09487433731555939 -0.00235582422465086 -0.03305671736598015 0 0 0 0
1864764232 0.29569464921951294 -0.13676387071609497 -0.008052127435803413 -0.03345247730612755 0 0 0 0
1868486316 0.2888277471065521 -0.17529457807540894 -0.014300198294222355 -0.03216717764735222 0 0 0 0
1872208400 0.27696987986564636 -0.21145206689834595 -0.020350884646177292 -0.028905102983117104 0 0 0 0
1875930484 0.260187566280365 -0.24406147003173828 -0.024563686922192574 -0.024723075330257416 0 0 0 0
1879652568 0.2389155626296997 -0.273555189371109 -0.028286447748541832 -0.02045343443751335 0 0 0 0
1883374652 0.21202577650547028 -0.2997739911079407 -0.031661972403526306 -0.01573559269309044 0 0 0 0
1887096736 0.18392549455165863 -0.31982144713401794 -0.03470243141055107 -0.010537149384617805 0 0 0 0
1890818820 0.15305384993553162 -0.3337728977203369 -0.0367276556789875 -0.0045518893748521805 0 0 0 0
1894540904 0.11843641847372055 -0.3420986533164978 -0.03750130161643028 0.0021001212298870087 0 0 0 0
1898262988 0.08577048778533936 -0.3427605628967285 -0.036937810480594635 0.009097952395677567 0 0 0 0
1901985072 0.05274687707424164 -0.33919769525527954 -0.03504461422562599 0.01578592136502266 0 0 0 0
1905707156 0.02153472602367401 -0.3305473327636719 -0.03149079903960228 0.021899042651057243 0 0 0 0
1909429240 -0.0042118653655052185 -0.3157373368740082 -0.027485685423016548 0.027232924476265907 0 0 0 0
1913151324 -0.027675315737724304 -0.2981787919998169 -0.022790255025029182 0.03191310539841652 0 0 0 0
1916873408 -0.04730430990457535 -0.27749598026275635 -0.017122965306043625 0.03620906546711922 0 0 0 0
1920595492 -0.06410647928714752 -0.2533199191093445 -0.009827760048210621 0.03951659053564072 0 0 0 0
1924317576 -0.07340824604034424 -0.2280915379524231 -0.0019528260454535484 0.04129710793495178 0 0 0 0
1928039660 -0.079978808760643 -0.2022894024848938 0.006208263337612152 0.04099506139755249 0 0 0 0
1931761744 -0.08345337212085724 -0.17643271386623383 0.014582810923457146 0.03843979164958 0 0 0 0
1935483828 -0.08270986378192902 -0.15039952099323273 0.02156299538910389 0.03424898162484169 0 0 0 0
1939205912 -0.07811316102743149 -0.12371131032705307 0.026993878185749054 0.028876448050141335 0 0 0 0
1942927996 -0.06788713485002518 -0.09692277014255524 0.03093067929148674 0.022854093462228775 0 0 0 0
1946650080 -0.05306338146328926 -0.07238762080669403 0.03347781300544739 0.017216358333826065 0 0 0 0
1950372164 -0.03297056257724762 -0.05086721107363701 0.03525494784116745 0.011904451996088028 0 0 0 0
1954094248 -0.009032659232616425 -0.033777013421058655 0.037278104573488235 0.0057709114626049995 0 0 0 0
1957816332 0.019120313227176666 -0.022303897887468338 0.038463059812784195 -0.0007776040583848953 0 0 0 0
1961538416 0.04836541414260864 -0.016635097563266754 0.03726252540946007 -0.009061949327588081 0 0 0 0
1965260500 0.0777227059006691 -0.0169136393815279 0.034647103399038315 -0.01571459136903286 0 0 0 0
1968982584 0.10669821500778198 -0.022683218121528625 0.031245335936546326 -0.02167792245745659 0 0 0 0
1972704668 0.1322525590658188 -0.034225717186927795 0.02693016827106476 -0.027003545314073563 0 0 0 0
1976426752 0.15520712733268738 -0.049775395542383194 0.020835047587752342 -0.03207889199256897 0 0 0 0
1980148836 0.17596127092838287 -0.06863092631101608 0.014441137202084064 -0.035361308604478836 0 0 0 0
1983870920 0.19228658080101013 -0.09072162210941315 0.007059384137392044 -0.03727371618151665 0 0 0 0
1987593004 0.20352940261363983 -0.11726101487874985 -0.0004108669236302376 -0.03724312409758568 0 0 0 0
1991315088 0.2088506519794464 -0.14377090334892273 -0.00721156969666481 -0.03624953702092171 0 0 0 0
1995037172 0.21007627248764038 -0.16950887441635132 -0.014239486306905746 -0.033837758004665375 0 0 0 0
1998759256 0.20506569743156433 -0.19609281420707703 -0.01982039585709572 -0.02976616844534874 0 0 0 0
2002481340 0.19620263576507568 -0.2223718911409378 -0.023968663066625595 -0.02501026540994644 0 0 0 0
2006203424 0.184668630361557 -0.24323005974292755 -0.027154095470905304 -0.0202871635556221 0 0 0 0
2009925508 0.16835680603981018 -0.2625184953212738 -0.02953837439417839 -0.01564531773328781 0 0 0 0
2013647592 0.14794762432575226 -0.28002020716667175 -0.031900979578495026 -0.010171997360885143 0 0 0 0
2017369676 0.12885600328445435 -0.29215049743652344 -0.03325958922505379 -0.005225608125329018 0 0 0 0
2021091760 0.10507874190807343 -0.302647203207016 -0.03457227721810341 0.0008409740403294563 0 0 0 0
2024813844 0.07841943204402924 -0.30896517634391785 -0.034333549439907074 0.007209996692836285 0 0 0 0
2028535928 0.05095938593149185 -0.31135377287864685 -0.03242572769522667 0.01414154376834631 0 0 0 0
2032258012 0.024498995393514633 -0.30785277485847473 -0.029032252728939056 0.019827501848340034 0 0 0 0
2035980096 0.0010032206773757935 -0.3006954789161682 -0.02452629804611206 0.02428838424384594 0 0 0 0
2039702180 -0.025658011436462402 -0.28910717368125916 -0.019399136304855347 0.027646701782941818 0 0 0 0
2043424264 -0.05066598206758499 -0.27170509099960327 -0.014063968323171139 0.030235540121793747 0 0 0 0
2047146348 -0.06893627345561981 -0.25188979506492615 -0.008574491366744041 0.03153633326292038 0 0 0 0
2050868432 -0.0870060995221138 -0.228522390127182 -0.003559923730790615 0.03222730755805969 0 0 0 0
2054590516 -0.09942673146724701 -0.20171694457530975 0.001495780423283577 0.03223580867052078 0 0 0 0
2058312600 -0.10829632729291916 -0.17343540489673615 0.0066756997257471085 0.03162971884012222 0 0 0 0
2062034684 -0.11321989446878433 -0.1435542106628418 0.012384640984237194 0.030159851536154747 0 0 0 0
2065756768 -0.11425261199474335 -0.11230066418647766 0.017382288351655006 0.02734314277768135 0 0 0 0
2069478852 -0.10918229818344116 -0.08118407428264618 0.021755672991275787 0.02345394901931286 0 0 0 0
2073200936 -0.09937459230422974 -0.048345811665058136 0.02529962733387947 0.018466472625732422 0 0 0 0
2076923020 -0.0830056294798851 -0.01796262152493 0.026950063183903694 0.013340087607502937 0 0 0 0
2080645104 -0.06160501763224602 0.009980443865060806 0.027395766228437424 0.008739929646253586 0 0 0 0
2084367188 -0.03388490900397301 0.034077975898981094 0.02756473794579506 0.004480859264731407 0 0 0 0
2088089272 -0.002828570082783699 0.05290132761001587 0.02749684639275074 0.001595623791217804 0 0 0 0
2091811356 0.031385768204927444 0.06568270921707153 0.028254434466362 -0.002008942887187004 0 0 0 0
2095533440 0.06686265021562576 0.07194612175226212 0.02852739952504635 -0.006111246533691883 0 0 0 0
2099255524 0.10252819210290909 0.07286117970943451 0.02842174842953682 -0.011123807169497013 0 0 0 0
2102977608 0.13763345777988434 0.06853707879781723 0.026609119027853012 -0.016741011291742325 0 0 0 0
2106699692 0.1718621551990509 0.05702850595116615 0.0225686002522707 -0.02242806740105152 0 0 0 0
2110421776 0.20418041944503784 0.04245881736278534 0.0182105153799057 -0.02638430893421173 0 0 0 0
2114143860 0.2343338131904602 0.019745424389839172 0.01270529255270958 -0.02912527695298195 0 0 0 0
2117865944 0.25830078125 -0.0064741820096969604 0.007344701327383518 -0.03104075789451599 0 0 0 0
2121588028 0.27793994545936584 -0.035433463752269745 0.0008948855102062225 -0.03240227326750755 0 0 0 0
2125310112 0.29283010959625244 -0.0664970725774765 -0.005597504787147045 -0.03192969411611557 0 0 0 0
2129032196 0.3016604781150818 -0.09945780783891678 -0.012026225216686726 -0.029170282185077667 0 0 0 0
2132754280 0.30566632747650146 -0.13252487778663635 -0.017078790813684464 -0.02532905340194702 0 0 0 0
2136476364 0.30248454213142395 -0.16723228991031647 -0.02081562764942646 -0.020763300359249115 0 0 0 0
2140198448 0.2956047058105469 -0.19922026991844177 -0.023081324994564056 -0.01600620709359646 0 0 0 0
2143920532 0.28512340784072876 -0.22870393097400665 -0.024527784436941147 -0.011533426120877266 0 0 0 0
2147642616 0.2673923075199127 -0.2576477527618408 -0.025163277983665466 -0.007240439765155315 0 0 0 0
2151364700 0.24684780836105347 -0.2813432514667511 -0.024964042007923126 -0.003101976588368416 0 0 0 0
2155086784 0.22235044836997986 -0.30429142713546753 -0.024314234033226967 0.0005213497206568718 0 0 0 0
2158808868 0.19287912547588348 -0.3209514021873474 -0.02380472607910633 0.0035785995423793793 0 0 0 0
2162530952 0.1663089543581009 -0.32996469736099243 -0.022769447416067123 0.006992749869823456 0 0 0 0
2166253036 0.13571129739284515 -0.33681702613830566 -0.02164938673377037 0.009857562370598316 0 0 0 0
2169975120 0.1076304167509079 -0.3379969596862793 -0.02044886164367199 0.013011348433792591 0 0 0 0
2173697204 0.07898120582103729 -0.3351895809173584 -0.018635675311088562 0.016463173553347588 0 0 0 0
2177419288 0.05052303522825241 -0.3277614116668701 -0.015848251059651375 0.019517140462994576 0 0 0 0
2181141372 0.025415923446416855 -0.3175507187843323 -0.012682144530117512 0.02219884656369686 0 0 0 0
2184863456 4.450976848602295e-05 -0.3037683665752411 -0.008860119618475437 0.024414442479610443 0 0 0 0
2188585540 -0.022705301642417908 -0.2860552668571472 -0.00449025072157383 0.02625993639230728 0 0 0 0
2192307624 -0.04169818013906479 -0.2645772099494934 0.0006510429084300995 0.027120962738990784 0 0 0 0
2196029708 -0.05823254585266113 -0.23990558087825775 0.006198275834321976 0.026801858097314835 0 0 0 0
2199751792 -0.06794120371341705 -0.2155238687992096 0.011440670117735863 0.025013798847794533 0 0 0 0
2203473876 -0.0780874714255333 -0.184919074177742 0.01621316373348236 0.02144000120460987 0 0 0 0
2207195960 -0.08069783449172974 -0.1566234678030014 0.019690435379743576 0.017696628347039223 0 0 0 0
2210918044 -0.07821019738912582 -0.12613309919834137 0.022104451432824135 0.013259087689220905 0 0 0 0
2214640128 -0.07069900631904602 -0.09676961600780487 0.024003522470593452 0.008546062745153904 0 0 0 0
2218362212 -0.05703604221343994 -0.07053152471780777 0.024385076016187668 0.0032534636557102203 0 0 0 0
2222084296 -0.04027761518955231 -0.04615144431591034 0.02340245060622692 -0.001476280391216278 0 0 0 0
2225806380 -0.01995263248682022 -0.024821804836392403 0.021562103182077408 -0.005527283065021038 0 0 0 0
2229528464 0.0046914080157876015 -0.008924053981900215 0.01955276168882847 -0.009161917492747307 0 0 0 0
2233250548 0.030168576166033745 0.0024199802428483963 0.017086580395698547 -0.011761778965592384 0 0 0 0
2236972632 0.05703120678663254 0.009475496597588062 0.014346057549118996 -0.014114554040133953 0 0 0 0
2240694716 0.0845409408211708 0.011204198934137821 0.011357413604855537 -0.015916945412755013 0 0 0 0
2244416800 0.11088375747203827 0.008069992065429688 0.008263109251856804 -0.017025604844093323 0 0 0 0
2248138884 0.13618777692317963 0.0027452409267425537 0.004917989484965801 -0.017869263887405396 0 0 0 0
2251860968 0.1605905443429947 -0.007744446396827698 0.0018092403188347816 -0.018196498975157738 0 0 0 0
2255583052 0.18291811645030975 -0.022213544696569443 -0.001534019596874714 -0.01802019402384758 0 0 0 0
2259305136 0.20231512188911438 -0.04074351489543915 -0.0046905046328902245 -0.01694905199110508 0 0 0 0
2263027220 0.2184702754020691 -0.06076689064502716 -0.007391151040792465 -0.01530703529715538 0 0 0 0
2266749304 0.2269136756658554 -0.08911117166280746 -0.009679312817752361 -0.013222863897681236 0 0 0 0
2270471388 0.23266145586967468 -0.11281265318393707 -0.011235008016228676 -0.011403605341911316 0 0 0 0
2274193472 0.2382999062538147 -0.1317872852087021 -0.012666931375861168 -0.009120211936533451 0 0 0 0
2277915556 0.2323680818080902 -0.15946921706199646 -0.013684999197721481 -0.006899653002619743 0 0 0 0
2281637640 0.21996812522411346 -0.1890569031238556 -0.014134418219327927 -0.004495582543313503 0 0 0 0
2285359724 0.214018315076828 -0.2020980715751648 -0.01444799080491066 -0.002622010186314583 0 0 0 0
2289081808 0.19705505669116974 -0.22177354991436005 -0.01454048603773117 -0.00042361393570899963 0 0 0 0
2292803892 0.17937494814395905 -0.23570582270622253 -0.014245119877159595 0.001969887875020504 0 0 0 0
2296525976 0.16443459689617157 -0.24439814686775208 -0.013794779777526855 0.003902595490217209 0 0 0 0
2300248060 0.14016291499137878 -0.25492146611213684 -0.012693462893366814 0.005764694884419441 0 0 0 0
2303970144 0.12590444087982178 -0.26107609272003174 -0.011316215619444847 0.007846315391361713 0 0 0 0
2307692228 0.09664982557296753 -0.26305243372917175 -0.009796361438930035 0.00930385384708643 0 0 0 0
2311414312 0.07697096467018127 -0.2601342797279358 -0.007787253707647324 0.010496561415493488 0 0 0 0
2315136396 0.0533895269036293 -0.25425586104393005 -0.0052287383005023 0.01080173160880804 0 0 0 0
2318858480 0.03587198629975319 -0.24292388558387756 -0.0031237322837114334 0.010279660113155842 0 0 0 0
2322580564 0.011036217212677002 -0.22849169373512268 -0.0014970889315009117 0.009553520940244198 0 0 0 0
2326302648 -0.0017196014523506165 -0.21094688773155212 -0.0006860904395580292 0.008730888366699219 0 0 0 0
2330024732 -0.014422517269849777 -0.1904788464307785 -0.0002163127064704895 0.008098538964986801 0 0 0 0
2333746816 -0.025793612003326416 -0.16783785820007324 9.905174374580383e-05 0.007632399909198284 0 0 0 0
2337468900 -0.032038480043411255 -0.1438179314136505 0.0010398300364613533 0.007627224549651146 0 0 0 0
2341190984 -0.03280309587717056 -0.11823564022779465 0.0017937682569026947 0.006989942863583565 0 0 0 0
2344913068 -0.02903721109032631 -0.09255627542734146 0.002308259718120098 0.0061902496963739395 0 0 0 0
2348635152 -0.0199058186262846 -0.06766524910926819 0.0025897249579429626 0.005776295438408852 0 0 0 0
2352357236 -0.008803296834230423 -0.04395446926355362 0.002632802352309227 0.004991668276488781 0 0 0 0
2356079320 0.009017777629196644 -0.02232188731431961 0.0027647865936160088 0.004492749460041523 0 0 0 0
2359801404 0.02990439347922802 -0.004770117811858654 0.0030630268156528473 0.0040573738515377045 0 0 0 0
2363523488 0.053698424249887466 0.009195400401949883 0.003256840631365776 0.00348722655326128 0 0 0 0
2367245572 0.0797763243317604 0.01879998669028282 0.0028855837881565094 0.0030044736340641975 0 0 0 0
2370967656 0.10720588266849518 0.022629618644714355 0.002742738462984562 0.0026483796536922455 0 0 0 0
2374689740 0.13512283563613892 0.02211044728755951 0.0027798237279057503 0.0026471326127648354 0 0 0 0
2378411824 0.16182279586791992 0.016843490302562714 0.002681942656636238 0.002323082648217678 0 0 0 0
2382133908 0.18688656389713287 0.008006013929843903 0.0025919554755091667 0.0022349627688527107 0 0 0 0
2385855992 0.210865318775177 -0.004545658826828003 0.0025339918211102486 0.0024376865476369858 0 0 0 0
2389578076 0.23149967193603516 -0.021382123231887817 0.0026029571890830994 0.0025013312697410583 0 0 0 0
2393300160 0.24962732195854187 -0.04191630333662033 0.0025909170508384705 0.002705933526158333 0 0 0 0
2397022244 0.2655191123485565 -0.0635872483253479 0.0029260562732815742 0.003117535263299942 0 0 0 0
2400744328 0.27450454235076904 -0.09041216224431992 0.0038622813299298286 0.003370278514921665 0 0 0 0
2404466412 0.28433799743652344 -0.11500395834445953 0.005157246254384518 0.0032768677920103073 0 0 0 0
2408188496 0.2872806191444397 -0.14430712163448334 0.006061095744371414 0.0024513397365808487 0 0 0 0
2411910580 0.2869524359703064 -0.16759060323238373 0.006999272853136063 0.0014640362933278084 0 0 0 0
2415632664 0.27986377477645874 -0.197342649102211 0.007517646998167038 9.338557720184326e-05 0 0 0 0
2419354748 0.26858144998550415 -0.2237492948770523 0.007880535908043385 -0.0013561267405748367 0 0 0 0
2423076832 0.2540726661682129 -0.24936071038246155 0.007916404865682125 -0.0018463488668203354 0 0 0 0
2426798916 0.23862211406230927 -0.2681606411933899 0.00726219080388546 -0.004632224328815937 0 0 0 0
2430521000 0.21405690908432007 -0.2879149615764618 0.006029276177287102 -0.00621552299708128 0 0 0 0
2434243084 0.1928848922252655 -0.3018322288990021 0.00473568681627512 -0.00698564387857914 0 0 0 0
2437965168 0.16982385516166687 -0.3126726746559143 0.003458520397543907 -0.0075460392981767654 0 0 0 0
2441687252 0.14387619495391846 -0.32224100828170776 0.0025062095373868942 -0.007616938091814518 0 0 0 0
2445409336 0.11568654328584671 -0.3276718854904175 0.0017542634159326553 -0.007919826544821262 0 0 0 0
2449131420 0.08715018630027771 -0.32778018712997437 0.0012092608958482742 -0.008502942509949207 0 0 0 0
2452853504 0.059143148362636566 -0.3224685788154602 0.000324898399412632 -0.009130316786468029 0 0 0 0
2456575588 0.028180386871099472 -0.31277790665626526 -0.0009789001196622849 -0.00986092071980238 0 0 0 0
2460297672 0.006429806351661682 -0.30086690187454224 -0.0025712456554174423 -0.010765086859464645 0 0 0 0
2464019756 -0.018314123153686523 -0.2834165692329407 -0.004765030927956104 -0.011026399210095406 0 0 0 0
2467741840 -0.039846524596214294 -0.26294007897377014 -0.007142125628888607 -0.010593132115900517 0 0 0 0
2471463924 -0.05721406266093254 -0.2398376166820526 -0.009378835558891296 -0.009509304538369179 0 0 0 0
2475186008 -0.07225857675075531 -0.2144642323255539 -0.01121704000979662 -0.008221104741096497 0 0 0 0
2478908092 -0.08125361055135727 -0.18708664178848267 -0.012918383814394474 -0.00662767980247736 0 0 0 0
2482630176 -0.08830024302005768 -0.15727384388446808 -0.014537335373461246 -0.004222705960273743 0 0 0 0
2486352260 -0.089002326130867 -0.12781615555286407 -0.015294788405299187 -0.0020037302747368813 0 0 0 0
2490074344 -0.08635343611240387 -0.09701189398765564 -0.016123643144965172 0.0006109056994318962 0 0 0 0
2493796428 -0.07886523753404617 -0.06607100367546082 -0.016285918653011322 0.0035125436261296272 0 0 0 0
2497518512 -0.06567174196243286 -0.038999173790216446 -0.01568019762635231 0.00658900011330843 0 0 0 0
2501240596 -0.048437509685754776 -0.01294909417629242 -0.014400145038962364 0.00920373946428299 0 0 0 0
2504962680 -0.02609279192984104 0.009280561469495296 -0.013108300045132637 0.0112497853115201 0 0 0 0
2508684764 -0.002002319321036339 0.02707509882748127 -0.011458677239716053 0.013785820454359055 0 0 0 0
2512406848 0.02496594563126564 0.04116768389940262 -0.009142615832388401 0.0164583008736372 0 0 0 0
2516128932 0.054190799593925476 0.05121888220310211 -0.00591353140771389 0.018625464290380478 0 0 0 0
2519851016 0.08422236889600754 0.05628696829080582 -0.0018816441297531128 0.019733881577849388 0 0 0 0
2523573100 0.1151060089468956 0.05369417741894722 0.002372174523770809 0.019333217293024063 0 0 0 0
2527295184 0.14422063529491425 0.04751163721084595 0.006277196109294891 0.018182536587119102 0 0 0 0
2531017268 0.17053408920764923 0.03776074945926666 0.009561784565448761 0.016462650150060654 0 0 0 0
2534739352 0.19344103336334229 0.022440321743488312 0.01235203631222248 0.014153854921460152 0 0 0 0
2538461436 0.2134474664926529 0.006203552708029747 0.014861169271171093 0.010985922068357468 0 0 0 0
2542183520 0.2294476479291916 -0.014552220702171326 0.01624324545264244 0.007550646550953388 0 0 0 0
2545905604 0.242773175239563 -0.03496737778186798 0.017113395035266876 0.003945950418710709 0 0 0 0
2549627688 0.2529985308647156 -0.05838032811880112 0.017258886247873306 9.678676724433899e-05 0 0 0 0
2553349772 0.26029300689697266 -0.07649745047092438 0.01641019433736801 -0.003427194431424141 0 0 0 0
2557071856 0.2625436782836914 -0.09983472526073456 0.014537902548909187 -0.006734934635460377 0 0 0 0
2560793940 0.26310503482818604 -0.12199432402849197 0.012013496831059456 -0.009161034598946571 0 0 0 0
2564516024 0.26036638021469116 -0.14475691318511963 0.00946767907589674 -0.01052122563123703 0 0 0 0
2568238108 0.2538597285747528 -0.16517692804336548 0.006807067431509495 -0.01122305542230606 0 0 0 0
2571960192 0.24546153843402863 -0.18391066789627075 0.004716495051980019 -0.011392900720238686 0 0 0 0
2575682276 0.23541538417339325 -0.20152434706687927 0.00243493914604187 -0.01137227937579155 0 0 0 0
2579404360 0.22292479872703552 -0.21758918464183807 0.0007021715864539146 -0.011061811819672585 0 0 0 0
2583126444 0.20936308801174164 -0.22930696606636047 -0.0006483346223831177 -0.010513391345739365 0 0 0 0
2586848528 0.19007354974746704 -0.24180647730827332 -0.002182209864258766 -0.010240234434604645 0 0 0 0
2590570612 0.17410892248153687 -0.25041669607162476 -0.0036256788298487663 -0.009657220914959908 0 0 0 0
2594292696 0.15776905417442322 -0.2544642686843872 -0.004947740584611893 -0.008680669590830803 0 0 0 0
2598014780 0.13814175128936768 -0.25872424244880676 -0.006232532672584057 -0.007612763904035091 0 0 0 0
2601736864 0.12009409070014954 -0.25804403424263 -0.007343077100813389 -0.006027171388268471 0 0 0 0
2605458948 0.10203336924314499 -0.2564469575881958 -0.00799139216542244 -0.004476504400372505 0 0 0 0
2609181032 0.08382534980773926 -0.2514330744743347 -0.007917899638414383 -0.002745312638580799 0 0 0 0
2612903116 0.06740403920412064 -0.24290485680103302 -0.007636622525751591 -0.0013068215921521187 0 0 0 0
2616625200 0.05385079234838486 -0.23198793828487396 -0.0070279184728860855 -0.0001308610662817955 0 0 0 0
2620347284 0.040233172476291656 -0.22073514759540558 -0.006284340284764767 0.0008073225617408752 0 0 0 0
2624069368 0.031009674072265625 -0.20673343539237976 -0.005352974869310856 0.001509576104581356 0 0 0 0
2627791452 0.026324905455112457 -0.19205093383789062 -0.0048421164974570274 0.0015240414068102837 0 0 0 0
2631513536 0.022023744881153107 -0.17589053511619568 -0.004403052851557732 0.0015552360564470291 0 0 0 0
2635235620 0.021614141762256622 -0.16134113073349 -0.004109804518520832 0.0016799531877040863 0 0 0 0
2638957704 0.023732848465442657 -0.14585889875888824 -0.0036108549684286118 0.0020976662635803223 0 0 0 0
2642679788 0.026819538325071335 -0.13362042605876923 -0.0030051041394472122 0.0021149152889847755 0 0 0 0
2646401872 0.03282642737030983 -0.1219901517033577 -0.002614041790366173 0.002008833922445774 0 0 0 0
2650123956 0.041895851492881775 -0.11134660989046097 -0.002336551435291767 0.0017777439206838608 0 0 0 0
2653846040 0.05235942825675011 -0.10265748202800751 -0.0021893195807933807 0.0015191035345196724 0 0 0 0
2657568124 0.06271093338727951 -0.09616629779338837 -0.002366313710808754 0.0013277065008878708 0 0 0 0
2661290208 0.07537226378917694 -0.09409686923027039 -0.0027402471750974655 0.001239309087395668 0 0 0 0
2665012292 0.08773251622915268 -0.09363797307014465 -0.003021896816790104 0.0014987736940383911 0 0 0 0
2668734376 0.09736762940883636 -0.09687206894159317 -0.0031613921746611595 0.002072046510875225 0 0 0 0
2672456460 0.10673623532056808 -0.10195872187614441 -0.003131919540464878 0.0028740158304572105 0 0 0 0
2676178544 0.1140335351228714 -0.1084689050912857 -0.0027470728382468224 0.003774356096982956 0 0 0 0
2679900628 0.12014437466859818 -0.11595571786165237 -0.0019224286079406738 0.0044010719284415245 0 0 0 0
2683622712 0.12165045738220215 -0.12534552812576294 -0.001070014201104641 0.004956462420523167 0 0 0 0
2687344796 0.12351925671100616 -0.13370047509670258 0.00012008845806121826 0.00502264779061079 0 0 0 0
2691066880 0.12554974853992462 -0.14045874774456024 0.001061541959643364 0.004661936312913895 0 0 0 0
2694788964 0.12251872569322586 -0.14968177676200867 0.0017409659922122955 0.004178729839622974 0 0 0 0
2698511048 0.12020200490951538 -0.15689589083194733 0.002411707304418087 0.0038329921662807465 0 0 0 0
2702233132 0.11529149115085602 -0.16529299318790436 0.0033468781039118767 0.0033066198229789734 0 0 0 0
2705955216 0.11016352474689484 -0.17072685062885284 0.0040886979550123215 0.0026085153222084045 0 0 0 0
2709677300 0.10187667608261108 -0.1780170351266861 0.004478689283132553 0.0013643037527799606 0 0 0 0
2713399384 0.09302175045013428 -0.18283182382583618 0.004583018831908703 0.00019453838467597961 0 0 0 0
2717121468 0.08099228888750076 -0.18521222472190857 0.004190070554614067 -0.0006682286038994789 0 0 0 0
2720843552 0.06952086091041565 -0.18757814168930054 0.003825482912361622 -0.0014788070693612099 0 0 0 0
2724565636 0.05857844278216362 -0.1839524805545807 0.0032019587233662605 -0.002142452634871006 0 0 0 0
2728287720 0.04508213698863983 -0.18033120036125183 0.002620457671582699 -0.0024568764492869377 0 0 0 0
2732009804 0.03470555692911148 -0.17346405982971191 0.0019506355747580528 -0.0025659287348389626 0 0 0 0
2735731888 0.02307182550430298 -0.1641729176044464 0.0016018571332097054 -0.0027209194377064705 0 0 0 0
2739453972 0.015519257634878159 -0.15433137118816376 0.0011452911421656609 -0.002815358340740204 0 0 0 0
2743176056 0.0076341787353158 -0.1411610096693039 0.0007398054003715515 -0.002710547298192978 0 0 0 0
2746898140 0.0024975910782814026 -0.12645450234413147 0.0007075341418385506 -0.0025128331035375595 0 0 0 0
2750620224 -8.770078420639038e-05 -0.1109825000166893 0.0006363745778799057 -0.0025079790502786636 0 0 0 0
2754342308 0.0003546290099620819 -0.09405358135700226 0.0007356610149145126 -0.002892289310693741 0 0 0 0
2758064392 0.00224459171295166 -0.07904865592718124 0.00046790577471256256 -0.0035218261182308197 0 0 0 0
2761786476 0.0086369588971138 -0.06232092157006264 -0.00027517881244421005 -0.003922850824892521 0 0 0 0
2765508560 0.016155827790498734 -0.046227484941482544 -0.001337677240371704 -0.0038377996534109116 0 0 0 0
2769230644 0.028305325657129288 -0.03164529427886009 -0.0023370645940303802 -0.0034479042515158653 0 0 0 0
2772952728 0.04250215366482735 -0.01936918869614601 -0.002803133800625801 -0.0026482976973056793 0 0 0 0
2776674812 0.05887839198112488 -0.009957758709788322 -0.002892361953854561 -0.0019174106419086456 0 0 0 0
2780396896 0.07711271941661835 -0.0022825486958026886 -0.0029159942641854286 -0.0014794953167438507 0 0 0 0
2784118980 0.0966959148645401 0.0026111938059329987 -0.0030027776956558228 -0.0008387202396988869 0 0 0 0
2787841064 0.11651356518268585 0.004378309473395348 -0.0026559336110949516 -0.00024698488414287567 0 0 0 0
2791563148 0.13797776401042938 0.002687603235244751 -0.002434629015624523 0.00020546559244394302 0 0 0 0
2795285232 0.15943540632724762 -0.0015114322304725647 -0.002095220610499382 0.00045768264681100845 0 0 0 0
2799007316 0.18005400896072388 -0.010928869247436523 -0.0015285778790712357 0.0005170879885554314 0 0 0 0
2802729400 0.19896984100341797 -0.023060478270053864 -0.0010721851140260696 0.0003851708024740219 0 0 0 0
2806451484 0.21631541848182678 -0.03977829962968826 -0.001116291619837284 -0.0001046573743224144 0 0 0 0
2810173568 0.23057760298252106 -0.058891069144010544 -0.001450132578611374 9.125471115112305e-05 0 0 0 0
2813895652 0.24373725056648254 -0.07713844627141953 -0.0015592370182275772 0.0003774920478463173 0 0 0 0
2817617736 0.25136637687683105 -0.10020928084850311 -0.0013774316757917404 0.0008200742304325104 0 0 0 0
2821339820 0.2534688413143158 -0.12636376917362213 -0.0009917393326759338 0.0009909719228744507 0 0 0 0
2825061904 0.2547503411769867 -0.14787210524082184 -0.000540396198630333 0.0010244445875287056 0 0 0 0
2828783988 0.2516850233078003 -0.17205075919628143 -0.00034000538289546967 0.0009116875007748604 0 0 0 0
2832506072 0.24589364230632782 -0.19406521320343018 -0.00014699436724185944 0.0009425235912203789 0 0 0 0
2836228156 0.23695239424705505 -0.21586458384990692 0.00012560468167066574 0.0006646141409873962 0 0 0 0
2839950240 0.22617803514003754 -0.23805153369903564 0.0002589412033557892 0.0005376609042286873 0 0 0 0
2843672324 0.21011418104171753 -0.25627291202545166 0.00037384964525699615 0.0002625212073326111 0 0 0 0
2847394408 0.1944572776556015 -0.27186405658721924 0.000248100608587265 0.00018514320254325867 0 0 0 0
2851116492 0.1741792857646942 -0.28752076625823975 0.0001885024830698967 0.00013218820095062256 0 0 0 0
2854838576 0.15422774851322174 -0.29878997802734375 0.00019399821758270264 0.00017420481890439987 0 0 0 0
2858560660 0.13914445042610168 -0.30699604749679565 0.0005812030285596848 -0.0001894645392894745 0 0 0 0
2862282744 0.1103585809469223 -0.3175140917301178 0.0005990779027342796 -0.00030540861189365387 0 0 0 0
2866004828 0.08601828664541245 -0.3209647834300995 0.0007181456312537193 -0.00022249948233366013 0 0 0 0
2869726912 0.06349781900644302 -0.32124578952789307 0.0008854754269123077 -0.00047419872134923935 0 0 0 0
2873448996 0.03765438497066498 -0.3183194398880005 0.0008983621373772621 -0.0006834780797362328 0 0 0 0
2877171080 0.010811954736709595 -0.31187957525253296 0.0007293159142136574 -0.0008857613429427147 0 0 0 0
2880893164 -0.008708104491233826 -0.3042730689048767 0.0006468407809734344 -0.0011307159438729286 0 0 0 0
2884615248 -0.03505024313926697 -0.2898728847503662 0.00046081095933914185 -0.0012256288900971413 0 0 0 0
2888337332 -0.056646738201379776 -0.27477920055389404 0.0002876725047826767 -0.0012923413887619972 0 0 0 0
2892059416 -0.07484324276447296 -0.25585541129112244 3.516674041748047e-05 -0.0012536877766251564 0 0 0 0
2895781500 -0.09120751172304153 -0.23575326800346375 -0.00018783286213874817 -0.0011652186512947083 0 0 0 0
2899503584 -0.10335279256105423 -0.21204061806201935 -0.00032023899257183075 -0.0009657572954893112 0 0 0 0
2903225668 -0.11647207289934158 -0.18622265756130219 -0.0003758855164051056 -0.000730256550014019 0 0 0 0
2906947752 -0.12159743905067444 -0.16130365431308746 -0.00036510638892650604 -0.00044897105544805527 0 0 0 0
2910669836 -0.12536218762397766 -0.13445842266082764 -9.137392044067383e-05 -0.0003060773015022278 0 0 0 0
2914391920 -0.12275266647338867 -0.10785802453756332 5.61736524105072e-05 -0.00015621166676282883 0 0 0 0
2918114004 -0.1192016750574112 -0.0821506679058075 0.00023180991411209106 -0.00036354176700115204 0 0 0 0
2921836088 -0.11230064928531647 -0.05807476490736008 0.00018559768795967102 -0.0003763735294342041 0 0 0 0
2925558172 -0.10332845151424408 -0.033199433237314224 0.0003907885402441025 -0.0004957579076290131 0 0 0 0
2929280256 -0.09137600660324097 -0.009242195636034012 0.00019972305744886398 -0.0005554333329200745 0 0 0 0
2933002340 -0.0755164623260498 0.011888314038515091 9.18051227927208e-05 -0.0006776079535484314 0 0 0 0
2936724424 -0.05610013008117676 0.03129008039832115 -0.00018774345517158508 -0.0005550486966967583 0 0 0 0
2940446508 -0.036082543432712555 0.047626011073589325 -0.0004964480176568031 -0.00033005140721797943 0 0 0 0
2944168592 -0.013295672833919525 0.06202225387096405 -0.00052618607878685 -7.45793804526329e-05 0 0 0 0
2947890676 0.01242868509143591 0.07315176725387573 -0.0004222160205245018 0.00047560781240463257 0 0 0 0
2951612760 0.03955613821744919 0.08082234114408493 -8.944887667894363e-05 0.0009081363677978516 0 0 0 0
2955334844 0.06659197807312012 0.08454185724258423 0.00037734396755695343 0.0010199984535574913 0 0 0 0
2959056928 0.09570306539535522 0.08285593241453171 0.0008226046338677406 0.0010958025231957436 0 0 0 0
2962779012 0.122292660176754 0.07841228693723679 0.001363838091492653 0.001117919571697712 0 0 0 0
2966501096 0.14741219580173492 0.07127305865287781 0.0018977690488100052 0.0009727776050567627 0 0 0 0
2970223180 0.17149341106414795 0.0581635981798172 0.0024605635553598404 0.0006118323653936386 0 0 0 0
2973945264 0.19331547617912292 0.044025130569934845 0.0028071990236639977 -0.0001305295154452324 0 0 0 0
2977667348 0.21319124102592468 0.026954658329486847 0.002901415340602398 -0.0007813731208443642 0 0 0 0
2981389432 0.23114436864852905 0.00649338960647583 0.00279995147138834 -0.0015324782580137253 0 0 0 0
2985111516 0.24428018927574158 -0.013674169778823853 0.0023530256003141403 -0.002151297405362129 0 0 0 0
2988833600 0.2546975910663605 -0.03647630289196968 0.0018770555034279823 -0.002600407227873802 0 0 0 0
2992555684 0.2632172405719757 -0.061184726655483246 0.0010827472433447838 -0.0026211868971586227 0 0 0 0
2996277768 0.2668936848640442 -0.08395732194185257 0.0005600117146968842 -0.00230536051094532 0 0 0 0
2999999852 0.2703239321708679 -0.10796979069709778 0.00025381240993738174 -0.002310972660779953 0 0 0 0
