# HZ S RI R 50
1500000000 -0.15348359942436218 0.005641790106892586 0.07367347180843353 -0.03552884981036186 0 0 0 0
1503722084 -0.127493754029274 0.0405031219124794 0.06440601497888565 -0.04835254326462746 0 0 0 0
1507444168 -0.09461472928524017 0.06979645043611526 0.05235787481069565 -0.05838944762945175 0 0 0 0
1511166252 -0.05586693435907364 0.09435247629880905 0.038359384983778 -0.06566669046878815 0 0 0 0
1514888336 -0.011352775618433952 0.11204669624567032 0.023022491484880447 -0.06876092404127121 0 0 0 0
1518610420 0.0360882505774498 0.12167780101299286 0.008679329417645931 -0.06782471388578415 0 0 0 0
1522332504 0.08554147928953171 0.12209863215684891 -0.00365564227104187 -0.0640028715133667 0 0 0 0
1526054588 0.13444925844669342 0.11506284028291702 -0.013271406292915344 -0.058871813118457794 0 0 0 0
1529776672 0.18269963562488556 0.09936097264289856 -0.021681884303689003 -0.05254165828227997 0 0 0 0
1533498756 0.22939057648181915 0.0749979019165039 -0.028613388538360596 -0.04490642994642258 0 0 0 0
1537220840 0.2721562385559082 0.04336651414632797 -0.03296589106321335 -0.037099797278642654 0 0 0 0
1540942924 0.3087367117404938 0.003432825207710266 -0.03517603874206543 -0.02956092730164528 0 0 0 0
1544665008 0.3394770622253418 -0.04190041124820709 -0.03618326410651207 -0.023336200043559074 0 0 0 0
1548387092 0.36058980226516724 -0.09432084858417511 -0.036912571638822556 -0.017759043723344803 0 0 0 0
1552109176 0.3746182322502136 -0.14528635144233704 -0.03747093677520752 -0.01229745801538229 0 0 0 0
1555831260 0.3802233636379242 -0.20294302701950073 -0.03731740638613701 -0.006552334874868393 0 0 0 0
1559553344 0.3800300359725952 -0.2553408145904541 -0.035889945924282074 -0.0011839810758829117 0 0 0 0
1563275428 0.36702829599380493 -0.3119596838951111 -0.03388504683971405 0.0036168117076158524 0 0 0 0
1566997512 0.3494238555431366 -0.36563435196876526 -0.031348228454589844 0.0076258834451437 0 0 0 0
1570719596 0.32292383909225464 -0.4175871014595032 -0.02840036153793335 0.01078870240598917 0 0 0 0
1574441680 0.2870345711708069 -0.46422135829925537 -0.025646530091762543 0.012868199497461319 0 0 0 0
1578163764 0.24282127618789673 -0.5060650110244751 -0.023340927436947823 0.014824754558503628 0 0 0 0
1581885848 0.1933651864528656 -0.5395815968513489 -0.021364115178585052 0.016718607395887375 0 0 0 0
1585607932 0.1422283798456192 -0.5652332901954651 -0.018630731850862503 0.01891235262155533 0 0 0 0
1589330016 0.08518210053443909 -0.5830836892127991 -0.015977604314684868 0.020099734887480736 0 0 0 0
1593052100 0.02319490909576416 -0.594575047492981 -0.013751127757132053 0.02120007574558258 0 0 0 0
1596774184 -0.0352821871638298 -0.5978233814239502 -0.011661764234304428 0.02247091755270958 0 0 0 0
1600496268 -0.09518459439277649 -0.5908239483833313 -0.00945118349045515 0.024171246215701103 0 0 0 0
1604218352 -0.15901997685432434 -0.5736197233200073 -0.0062111662700772285 0.02615479752421379 0 0 0 0
1607940436 -0.21440725028514862 -0.5488346219062805 -0.0021271277219057083 0.027348238974809647 0 0 0 0
1611662520 -0.2658008635044098 -0.5163666009902954 0.0018491297960281372 0.02774501033127308 0 0 0 0
1615384604 -0.31605416536331177 -0.47511762380599976 0.006533698178827763 0.027371060103178024 0 0 0 0
1619106688 -0.3577723205089569 -0.4273953437805176 0.010850619524717331 0.0262028556317091 0 0 0 0
1622828772 -0.3933306932449341 -0.3752474784851074 0.01524144597351551 0.024420645087957382 0 0 0 0
1626550856 -0.4233492314815521 -0.3160941004753113 0.019742494449019432 0.02153114229440689 0 0 0 0
1630272940 -0.4429404139518738 -0.25644877552986145 0.02341838739812374 0.017415175214409828 0 0 0 0
1633995024 -0.45815810561180115 -0.18944241106510162 0.02603018842637539 0.012516217306256294 0 0 0 0
1637717108 -0.4631717801094055 -0.11977298557758331 0.02767365425825119 0.007294964045286179 0 0 0 0
1641439192 -0.4570024609565735 -0.05136372148990631 0.02787008509039879 0.001754741184413433 0 0 0 0
1645161276 -0.44194239377975464 0.016922876238822937 0.02690000832080841 -0.002948649227619171 0 0 0 0
1648883360 -0.41294944286346436 0.08876286447048187 0.0251997672021389 -0.007563507184386253 0 0 0 0
1652605444 -0.37319043278694153 0.15414664149284363 0.023019611835479736 -0.011509484611451626 0 0 0 0
1656327528 -0.3235742449760437 0.21096545457839966 0.019829686731100082 -0.015360552817583084 0 0 0 0
1660049612 -0.2662286162376404 0.2596237361431122 0.01635170727968216 -0.018044738098978996 0 0 0 0
1663771696 -0.20012511312961578 0.30118033289909363 0.012123477645218372 -0.02009459398686886 0 0 0 0
1667493780 -0.13042941689491272 0.33197861909866333 0.007981782779097557 -0.0212267953902483 0 0 0 0
1671215864 -0.054240114986896515 0.3543262481689453 0.003558872267603874 -0.021612808108329773 0 0 0 0
1674937948 0.023577019572257996 0.3643045127391815 -0.0009673358872532845 -0.020650187507271767 0 0 0 0
1678660032 0.10668778419494629 0.3617410957813263 -0.0045903027057647705 -0.018705103546380997 0 0 0 0
1682382116 0.18545784056186676 0.3458142578601837 -0.007507749833166599 -0.016296133399009705 0 0 0 0
1686104200 0.26429322361946106 0.3171148896217346 -0.009694447740912437 -0.013405917212367058 0 0 0 0
1689826284 0.3370833396911621 0.27606573700904846 -0.010825365781784058 -0.010192064568400383 0 0 0 0
1693548368 0.4026688039302826 0.2216675579547882 -0.011080288328230381 -0.007252978160977364 0 0 0 0
1697270452 0.45773929357528687 0.16052168607711792 -0.010703025385737419 -0.0047995345667004585 0 0 0 0
1700992536 0.5016340017318726 0.0881233811378479 -0.009876292198896408 -0.0029415786266326904 0 0 0 0
1704714620 0.5332158207893372 0.01195111870765686 -0.00905627105385065 -0.0013780295848846436 0 0 0 0
1708436704 0.552575409412384 -0.06665018200874329 -0.007946500554680824 -0.0002734130248427391 0 0 0 0
1712158788 0.560050368309021 -0.14504821598529816 -0.006758356466889381 0.00046890322118997574 0 0 0 0
1715880872 0.5545339584350586 -0.22496585547924042 -0.005665026605129242 0.0006786370649933815 0 0 0 0
1719602956 0.5337703227996826 -0.3058241605758667 -0.004831171594560146 0.0009507304057478905 0 0 0 0
1723325040 0.50429767370224 -0.3766348659992218 -0.004048574715852737 0.0006201043725013733 0 0 0 0
1727047124 0.4649865925312042 -0.4408634901046753 -0.0035790707916021347 0.00013787578791379929 0 0 0 0
1730769208 0.4176824986934662 -0.49868983030319214 -0.0035259565338492393 -0.00025231949985027313 0 0 0 0
1734491292 0.35663115978240967 -0.5511237382888794 -0.003774970769882202 -0.00046588480472564697 0 0 0 0
1738213376 0.29353681206703186 -0.591459333896637 -0.004083977080881596 -0.0005437154322862625 0 0 0 0
1741935460 0.22639034688472748 -0.6173861026763916 -0.004358571022748947 -0.0006733648478984833 0 0 0 0
1745657544 0.15801957249641418 -0.6343154907226562 -0.0048766834661364555 -0.0006738975644111633 0 0 0 0
1749379628 0.08299411833286285 -0.6421303749084473 -0.005552701652050018 -0.00030559953302145004 0 0 0 0
1753101712 0.01250004768371582 -0.6362431049346924 -0.005947635509073734 0.00028316956013441086 0 0 0 0
1756823796 -0.05555230379104614 -0.6208822727203369 -0.006167362444102764 0.0008441200479865074 0 0 0 0
1760545880 -0.11558759212493896 -0.5945059657096863 -0.006487159989774227 0.0013502389192581177 0 0 0 0
1764267964 -0.17355036735534668 -0.5610864758491516 -0.00676898006349802 0.0019954266026616096 0 0 0 0
1767990048 -0.22308602929115295 -0.5196530222892761 -0.007094113156199455 0.0025450754910707474 0 0 0 0
1771712132 -0.2643930912017822 -0.47436168789863586 -0.007549947127699852 0.0032494422048330307 0 0 0 0
1775434216 -0.2997451424598694 -0.42257067561149597 -0.008223440498113632 0.0042280228808522224 0 0 0 0
1779156300 -0.3252282440662384 -0.36932849884033203 -0.009027593769133091 0.005792914889752865 0 0 0 0
1782878384 -0.3434189558029175 -0.31372907757759094 -0.00950170960277319 0.008048845455050468 0 0 0 0
1786600468 -0.35511162877082825 -0.25581493973731995 -0.009338620118796825 0.010755022056400776 0 0 0 0
1790322552 -0.3593596816062927 -0.19567832350730896 -0.008223947137594223 0.013666896149516106 0 0 0 0
1794044636 -0.35380926728248596 -0.13822515308856964 -0.0061191413551568985 0.016471125185489655 0 0 0 0
1797766720 -0.3401798903942108 -0.08312415331602097 -0.0037225326523184776 0.01891995780169964 0 0 0 0
1801488804 -0.3193458318710327 -0.027881644666194916 -0.00042702537029981613 0.021525532007217407 0 0 0 0
1805210888 -0.2907908856868744 0.02043287456035614 0.003941196948289871 0.023488841950893402 0 0 0 0
1808932972 -0.254375696182251 0.06685837358236313 0.00988781452178955 0.024566737934947014 0 0 0 0
1812655056 -0.20882198214530945 0.10824217647314072 0.01644437201321125 0.023117821663618088 0 0 0 0
1816377140 -0.15813693404197693 0.13810016214847565 0.022136900573968887 0.020449470728635788 0 0 0 0
1820099224 -0.10313674062490463 0.1582813411951065 0.02767929434776306 0.016105324029922485 0 0 0 0
1823821308 -0.04715992510318756 0.16934756934642792 0.03229287266731262 0.00947824027389288 0 0 0 0
1827543392 0.007463183254003525 0.17063365876674652 0.03448081016540527 0.0015227505937218666 0 0 0 0
1831265476 0.06083283945918083 0.16258569061756134 0.03437969461083412 -0.00618140771985054 0 0 0 0
1834987560 0.11019665002822876 0.1462964564561844 0.0319344736635685 -0.013516911305487156 0 0 0 0
1838709644 0.1553262621164322 0.1240549311041832 0.02814953774213791 -0.01966205984354019 0 0 0 0
1842431728 0.19474148750305176 0.09635944664478302 0.02389780804514885 -0.024263298138976097 0 0 0 0
1846153812 0.22768567502498627 0.061509910970926285 0.01869809255003929 -0.028100203722715378 0 0 0 0
1849875896 0.2537459135055542 0.025300107896327972 0.013353009708225727 -0.030782002955675125 0 0 0 0
1853597980 0.27451151609420776 -0.012148469686508179 0.007760071195662022 -0.03234090656042099 0 0 0 0
1857320064 0.2888564467430115 -0.05490034073591232 0.002348204143345356 -0.032862722873687744 0 0 0 0
1861042148 0.296579509973526 -0.09542713314294815 -0.002612045034766197 -0.03325333446264267 0 0 0 0
1864764232 0.2948077619075775 -0.13798825442790985 -0.008530785329639912 -0.03322303295135498 0 0 0 0
1868486316 0.28835350275039673 -0.17358215153217316 -0.014545676298439503 -0.03169284760951996 0 0 0 0
1872208400 0.2770340144634247 -0.20955519378185272 -0.02008780650794506 -0.028726886957883835 0 0 0 0
1875930484 0.2597965598106384 -0.24338677525520325 -0.025012191385030746 -0.024777090176939964 0 0 0 0
1879652568 0.23702269792556763 -0.2748523950576782 -0.028966575860977173 -0.02011660858988762 0 0 0 0
1883374652 0.21597962081432343 -0.2983347475528717 -0.031991954892873764 -0.015567933209240437 0 0 0 0
1887096736 0.18319779634475708 -0.320081502199173 -0.034836217761039734 -0.010027548298239708 0 0 0 0
1890818820 0.150533989071846 -0.33450064063072205 -0.03692870959639549 -0.00405013095587492 0 0 0 0
1894540904 0.11918065696954727 -0.3422088325023651 -0.0378909595310688 0.0026346491649746895 0 0 0 0
1898262988 0.08644331991672516 -0.3447737693786621 -0.03774213418364525 0.009398308582603931 0 0 0 0
1901985072 0.05192910134792328 -0.34044700860977173 -0.03576670214533806 0.016991304233670235 0 0 0 0
1905707156 0.02132776379585266 -0.3317349851131439 -0.032080672681331635 0.023326795548200607 0 0 0 0
1909429240 -0.005503706634044647 -0.316091924905777 -0.027059055864810944 0.028865868225693703 0 0 0 0
1913151324 -0.028532322496175766 -0.29818490147590637 -0.02174445241689682 0.03350042924284935 0 0 0 0
1916873408 -0.049156688153743744 -0.277261346578598 -0.01575751230120659 0.037357110530138016 0 0 0 0
1920595492 -0.0643848106265068 -0.25284436345100403 -0.00846155546605587 0.040322646498680115 0 0 0 0
1924317576 -0.07429623603820801 -0.22751671075820923 -0.00019768159836530685 0.04158143699169159 0 0 0 0
1928039660 -0.08092880249023438 -0.20129796862602234 0.008201833814382553 0.04083744436502457 0 0 0 0
1931761744 -0.08351339399814606 -0.17532190680503845 0.016209887340664864 0.03781996667385101 0 0 0 0
1935483828 -0.08211085200309753 -0.1488323211669922 0.022954314947128296 0.033087797462940216 0 0 0 0
1939205912 -0.07670076191425323 -0.12229149043560028 0.02790071628987789 0.027141625061631203 0 0 0 0
1942927996 -0.06613438576459885 -0.09686683863401413 0.030769025906920433 0.021350502967834473 0 0 0 0
1946650080 -0.05187312886118889 -0.07312129437923431 0.033035531640052795 0.015768207609653473 0 0 0 0
1950372164 -0.03233281895518303 -0.05130629241466522 0.034831564873456955 0.010617395862936974 0 0 0 0
1954094248 -0.008013682439923286 -0.034056175500154495 0.036716096103191376 0.005352392792701721 0 0 0 0
1957816332 0.01938893087208271 -0.02167433686554432 0.03781045973300934 -0.002081538550555706 0 0 0 0
1961538416 0.04904331639409065 -0.0161900594830513 0.036957379430532455 -0.009291348978877068 0 0 0 0
1965260500 0.07883909344673157 -0.01669580675661564 0.034723252058029175 -0.0159527026116848 0 0 0 0
1968982584 0.10724329948425293 -0.023223549127578735 0.031112058088183403 -0.02210031822323799 0 0 0 0
1972704668 0.13309092819690704 -0.03496282175183296 0.02620779722929001 -0.027532119303941727 0 0 0 0
1976426752 0.15652838349342346 -0.050214603543281555 0.020415356382727623 -0.03240484744310379 0 0 0 0
1980148836 0.1755557507276535 -0.06976675987243652 0.013704909011721611 -0.03579781576991081 0 0 0 0
1983870920 0.1921173632144928 -0.09261961281299591 0.005907265469431877 -0.03753659874200821 0 0 0 0
1987593004 0.20295855402946472 -0.11766452342271805 -0.0015562372282147408 -0.037443142384290695 0 0 0 0
1991315088 0.20796844363212585 -0.1452585607767105 -0.008870936930179596 -0.03567555546760559 0 0 0 0
1995037172 0.20728828012943268 -0.17218667268753052 -0.015038310550153255 -0.032756511121988297 0 0 0 0
1998759256 0.20514249801635742 -0.1961393654346466 -0.020601628348231316 -0.028080031275749207 0 0 0 0
2002481340 0.19625979661941528 -0.22156058251857758 -0.024096395820379257 -0.023510586470365524 0 0 0 0
2006203424 0.18160800635814667 -0.24453800916671753 -0.026784704998135567 -0.01877225749194622 0 0 0 0
2009925508 0.16687269508838654 -0.2620665431022644 -0.028977837413549423 -0.01464204303920269 0 0 0 0
2013647592 0.14807327091693878 -0.2777508795261383 -0.030858216807246208 -0.010246443562209606 0 0 0 0
2017369676 0.1274380385875702 -0.292047917842865 -0.032833706587553024 -0.005088457837700844 0 0 0 0
2021091760 0.10344094783067703 -0.30263254046440125 -0.033936116844415665 0.0009289756417274475 0 0 0 0
2024813844 0.08013471215963364 -0.3083944320678711 -0.033711645752191544 0.007419425994157791 0 0 0 0
2028535928 0.05281958729028702 -0.31175899505615234 -0.0316498689353466 0.013605226762592793 0 0 0 0
2032258012 0.025917470455169678 -0.3081691265106201 -0.028383182361721992 0.019232898950576782 0 0 0 0
2035980096 -0.000425189733505249 -0.30035093426704407 -0.02409505657851696 0.023751169443130493 0 0 0 0
2039702180 -0.026846326887607574 -0.2889118194580078 -0.01893114112317562 0.027361445128917694 0 0 0 0
2043424264 -0.0498189851641655 -0.2714706361293793 -0.01361824106425047 0.02957521192729473 0 0 0 0
2047146348 -0.06848255544900894 -0.2515312433242798 -0.008723183535039425 0.030645284801721573 0 0 0 0
2050868432 -0.08497262001037598 -0.22842325270175934 -0.0036545488983392715 0.03125308081507683 0 0 0 0
2054590516 -0.09912565350532532 -0.20083652436733246 0.0009733419865369797 0.03104109689593315 0 0 0 0
2058312600 -0.10650474578142166 -0.17321065068244934 0.006204152479767799 0.030606688931584358 0 0 0 0
2062034684 -0.1112780049443245 -0.14339579641819 0.011246465146541595 0.02892283722758293 0 0 0 0
2065756768 -0.1119764968752861 -0.11284469813108444 0.015724647790193558 0.026590000838041306 0 0 0 0
2069478852 -0.10730986297130585 -0.08161584287881851 0.02003292553126812 0.023675616830587387 0 0 0 0
2073200936 -0.09816277027130127 -0.04937690496444702 0.0232382845133543 0.019235339015722275 0 0 0 0
2076923020 -0.08206595480442047 -0.019042138010263443 0.025769619271159172 0.014800582081079483 0 0 0 0
2080645104 -0.06102631986141205 0.008153468370437622 0.02692681923508644 0.010526732541620731 0 0 0 0
2084367188 -0.03445279598236084 0.03188114985823631 0.0277915857732296 0.006877013482153416 0 0 0 0
2088089272 -0.0030275750905275345 0.051376063376665115 0.028728429228067398 0.0032664183527231216 0 0 0 0
2091811356 0.03027532249689102 0.06402011215686798 0.029745489358901978 -0.0010899007320404053 0 0 0 0
2095533440 0.06571771949529648 0.07058683037757874 0.02995528094470501 -0.0063322437927126884 0 0 0 0
2099255524 0.10100279748439789 0.0719238743185997 0.029459955170750618 -0.012093326076865196 0 0 0 0
2102977608 0.13622190058231354 0.06791546195745468 0.027152296155691147 -0.01780162937939167 0 0 0 0
2106699692 0.1707441210746765 0.057421475648880005 0.02315843105316162 -0.02306182123720646 0 0 0 0
2110421776 0.2031535804271698 0.04230302572250366 0.018320079892873764 -0.027041107416152954 0 0 0 0
2114143860 0.23278221487998962 0.01989317685365677 0.012613413855433464 -0.02969762310385704 0 0 0 0
2117865944 0.2573283016681671 -0.0069715604186058044 0.0068109165877103806 -0.03141513094305992 0 0 0 0
2121588028 0.27669262886047363 -0.03391411155462265 0.0008694902062416077 -0.03235691040754318 0 0 0 0
2125310112 0.29180461168289185 -0.06437106430530548 -0.005921968258917332 -0.032123200595378876 0 0 0 0
2129032196 0.3015822470188141 -0.09754505753517151 -0.01228093821555376 -0.029587503522634506 0 0 0 0
2132754280 0.3048830032348633 -0.13252808153629303 -0.017897214740514755 -0.02551860734820366 0 0 0 0
2136476364 0.3031644821166992 -0.16536569595336914 -0.021467547863721848 -0.02056901715695858 0 0 0 0
2140198448 0.29560595750808716 -0.19913144409656525 -0.023543499410152435 -0.015554017387330532 0 0 0 0
2143920532 0.28377673029899597 -0.2294471561908722 -0.02468056045472622 -0.010931791737675667 0 0 0 0
2147642616 0.26934197545051575 -0.25579628348350525 -0.025245560333132744 -0.006944328546524048 0 0 0 0
2151364700 0.24642758071422577 -0.28225985169410706 -0.025212902575731277 -0.0025906823575496674 0 0 0 0
2155086784 0.22084300220012665 -0.3036922216415405 -0.02475481852889061 0.0013231029734015465 0 0 0 0
2158808868 0.19869136810302734 -0.3179253041744232 -0.02378832921385765 0.004521521739661694 0 0 0 0
2162530952 0.1676367223262787 -0.3300609290599823 -0.022513791918754578 0.00805644877254963 0 0 0 0
2166253036 0.13654367625713348 -0.33690840005874634 -0.020779071375727654 0.01072639785706997 0 0 0 0
2169975120 0.10819151252508163 -0.3380235433578491 -0.01924293488264084 0.013338517397642136 0 0 0 0
2173697204 0.07827259600162506 -0.3365664780139923 -0.017556192353367805 0.016491489484906197 0 0 0 0
2177419288 0.051363490521907806 -0.3292689919471741 -0.015118991956114769 0.01958976686000824 0 0 0 0
2181141372 0.025615887716412544 -0.31862571835517883 -0.011838006787002087 0.022248437628149986 0 0 0 0
2184863456 0.0014360249042510986 -0.3040388822555542 -0.007859576493501663 0.02400508150458336 0 0 0 0
2188585540 -0.022946283221244812 -0.2858712673187256 -0.0033749202266335487 0.025370337069034576 0 0 0 0
2192307624 -0.04175702482461929 -0.2642454504966736 0.0011614905670285225 0.025921091437339783 0 0 0 0
2196029708 -0.056621234863996506 -0.23996789753437042 0.006182241253554821 0.025510836392641068 0 0 0 0
2199751792 -0.06715967506170273 -0.21391087770462036 0.011193116195499897 0.02357323467731476 0 0 0 0
2203473876 -0.07473558187484741 -0.18622465431690216 0.015623833052814007 0.020529262721538544 0 0 0 0
2207195960 -0.07997655868530273 -0.15649768710136414 0.018962858244776726 0.016862919554114342 0 0 0 0
2210918044 -0.0772244855761528 -0.12646068632602692 0.02126935124397278 0.012390932068228722 0 0 0 0
2214640128 -0.0705774649977684 -0.09570261836051941 0.022763613611459732 0.007833003997802734 0 0 0 0
2218362212 -0.056679584085941315 -0.06900924444198608 0.023240335285663605 0.003155125305056572 0 0 0 0
2222084296 -0.03882088512182236 -0.04648272693157196 0.022023875266313553 -0.001423317939043045 0 0 0 0
2225806380 -0.01773281954228878 -0.026451461017131805 0.0205996073782444 -0.004686255007982254 0 0 0 0
2229528464 0.00547083280980587 -0.010932836681604385 0.018940836191177368 -0.007989337667822838 0 0 0 0
2233250548 0.030236953869462013 0.0010982304811477661 0.01710330881178379 -0.010548919439315796 0 0 0 0
2236972632 0.05661538243293762 0.008255727589130402 0.014480292797088623 -0.013371395878493786 0 0 0 0
2240694716 0.08376064896583557 0.011324819177389145 0.011977123096585274 -0.01547381840646267 0 0 0 0
2244416800 0.11036346107721329 0.008178416639566422 0.008570762351155281 -0.017269834876060486 0 0 0 0
2248138884 0.13536371290683746 0.0008638426661491394 0.0051151057705283165 -0.01815136894583702 0 0 0 0
2251860968 0.15958932042121887 -0.01071368157863617 0.001457497477531433 -0.01860257424414158 0 0 0 0
2255583052 0.18116123974323273 -0.02337658405303955 -0.0022961990907788277 -0.01792588084936142 0 0 0 0
2259305136 0.20013540983200073 -0.03830799460411072 -0.0050791045650839806 -0.016542360186576843 0 0 0 0
2263027220 0.2155105471611023 -0.06007136404514313 -0.0074776336550712585 -0.014712434262037277 0 0 0 0
2266749304 0.22526317834854126 -0.084149070084095 -0.009053990244865417 -0.012994220480322838 0 0 0 0
2270471388 0.2328471839427948 -0.10747925937175751 -0.010468576103448868 -0.01127408817410469 0 0 0 0
2274193472 0.23519550263881683 -0.12957152724266052 -0.01202133484184742 -0.009387806057929993 0 0 0 0
2277915556 0.23108366131782532 -0.15875115990638733 -0.013241440057754517 -0.007302049547433853 0 0 0 0
2281637640 0.22727687656879425 -0.17734834551811218 -0.014025538228452206 -0.00503977295011282 0 0 0 0
2285359724 0.21573132276535034 -0.19915573298931122 -0.014387352392077446 -0.0029141632840037346 0 0 0 0
2289081808 0.1976022720336914 -0.21998320519924164 -0.014540072530508041 -0.0005237068980932236 0 0 0 0
2292803892 0.1844235509634018 -0.23221510648727417 -0.01426779106259346 0.0016045095399022102 0 0 0 0
2296525976 0.16236549615859985 -0.24518530070781708 -0.013417116366326809 0.003825981169939041 0 0 0 0
2300248060 0.1412006914615631 -0.25491663813591003 -0.012119236402213573 0.005718984641134739 0 0 0 0
2303970144 0.12759265303611755 -0.2603012025356293 -0.01093185506761074 0.007061943411827087 0 0 0 0
2307692228 0.10040786862373352 -0.2623504400253296 -0.00987813901156187 0.008447429165244102 0 0 0 0
2311414312 0.08290551602840424 -0.2599332332611084 -0.007816250436007977 0.009646427817642689 0 0 0 0
2315136396 0.06035958230495453 -0.2560049593448639 -0.005652282387018204 0.010302504524588585 0 0 0 0
2318858480 0.032475247979164124 -0.24783137440681458 -0.003652871586382389 0.0102506373077631 0 0 0 0
2322580564 0.015339009463787079 -0.2331346869468689 -0.002359566278755665 0.009556736797094345 0 0 0 0
2326302648 -0.0027912016957998276 -0.21538574993610382 -0.0013270750641822815 0.008939148858189583 0 0 0 0
2330024732 -0.01882874220609665 -0.19513361155986786 -0.00031546782702207565 0.008406713604927063 0 0 0 0
2333746816 -0.026998311281204224 -0.17293493449687958 2.835690975189209e-05 0.007805526256561279 0 0 0 0
2337468900 -0.03383111581206322 -0.14826767146587372 0.0007230071350932121 0.007602234371006489 0 0 0 0
2341190984 -0.037174973636865616 -0.12090592086315155 0.0014556720852851868 0.0070380549877882 0 0 0 0
2344913068 -0.03325008973479271 -0.09510697424411774 0.0019249478355050087 0.006417984142899513 0 0 0 0
2348635152 -0.023672934621572495 -0.06933443993330002 0.0022470327094197273 0.005764267407357693 0 0 0 0
2352357236 -0.013574196957051754 -0.043868228793144226 0.0025025466457009315 0.005243235267698765 0 0 0 0
2356079320 0.004386712796986103 -0.021476294845342636 0.002370181493461132 0.0048798974603414536 0 0 0 0
2359801404 0.025623565539717674 -0.0027764076367020607 0.002634083852171898 0.004600723274052143 0 0 0 0
2363523488 0.04977065324783325 0.011259041726589203 0.002990851178765297 0.004130151122808456 0 0 0 0
2367245572 0.0763259008526802 0.021702686324715614 0.0029851626604795456 0.003735191188752651 0 0 0 0
2370967656 0.10475596785545349 0.026572540402412415 0.0029939552769064903 0.0034755393862724304 0 0 0 0
2374689740 0.13336467742919922 0.02687263675034046 0.0033014705404639244 0.0032730503007769585 0 0 0 0
2378411824 0.16050271689891815 0.021624155342578888 0.0033452827483415604 0.0028211409226059914 0 0 0 0
2382133908 0.18756897747516632 0.013836903497576714 0.003101913258433342 0.002565681003034115 0 0 0 0
2385855992 0.21343298256397247 -0.0005845073610544205 0.003085433505475521 0.002281609922647476 0 0 0 0
2389578076 0.23502156138420105 -0.016925737261772156 0.0029629841446876526 0.002172372303903103 0 0 0 0
2393300160 0.2552594244480133 -0.038591690361499786 0.002826404757797718 0.002588481642305851 0 0 0 0
2397022244 0.26981282234191895 -0.0604211762547493 0.003136618994176388 0.0031798677518963814 0 0 0 0
2400744328 0.2792447805404663 -0.08998218178749084 0.004095914773643017 0.0034219296649098396 0 0 0 0
2404466412 0.2884179651737213 -0.11669578403234482 0.005377314053475857 0.003332842141389847 0 0 0 0
2408188496 0.29009371995925903 -0.1450473517179489 0.0064163124188780785 0.0022308407351374626 0 0 0 0
2411910580 0.2888031303882599 -0.1742355227470398 0.0072143590077757835 0.0010507218539714813 0 0 0 0
2415632664 0.28269875049591064 -0.19816119968891144 0.0076747192069888115 -0.00015938561409711838 0 0 0 0
2419354748 0.2698894739151001 -0.22391368448734283 0.007805481553077698 -0.0015345374122262 0 0 0 0
2423076832 0.25390681624412537 -0.2493956983089447 0.0077894097194075584 -0.0032192515209317207 0 0 0 0
2426798916 0.237605020403862 -0.26957041025161743 0.007108159363269806 -0.004843980073928833 0 0 0 0
2430521000 0.2175433337688446 -0.28767597675323486 0.006268559955060482 -0.00624309666454792 0 0 0 0
2434243084 0.19312936067581177 -0.3033813536167145 0.004879076033830643 -0.007026419974863529 0 0 0 0
2437965168 0.1701500117778778 -0.31371062994003296 0.0036801164969801903 -0.007337712682783604 0 0 0 0
2441687252 0.14240731298923492 -0.32348084449768066 0.002556377090513706 -0.007667260244488716 0 0 0 0
2445409336 0.11783341318368912 -0.3269875943660736 0.001947036013007164 -0.008132625371217728 0 0 0 0
2449131420 0.08446111530065536 -0.3291476368904114 0.0012592170387506485 -0.008534223772585392 0 0 0 0
2452853504 0.05620303750038147 -0.3232215940952301 0.0002960478886961937 -0.009126908145844936 0 0 0 0
2456575588 0.030821315944194794 -0.3140633702278137 -0.0008601779118180275 -0.009782087057828903 0 0 0 0
2460297672 0.006060123443603516 -0.2994827926158905 -0.002431858330965042 -0.010508546605706215 0 0 0 0
2464019756 -0.01841478794813156 -0.28315699100494385 -0.0047197844833135605 -0.010741699486970901 0 0 0 0
2467741840 -0.037782564759254456 -0.26321282982826233 -0.006911851465702057 -0.010360077023506165 0 0 0 0
2471463924 -0.05902576819062233 -0.2404439002275467 -0.008748168125748634 -0.009361441247165203 0 0 0 0
2475186008 -0.06986008584499359 -0.215526282787323 -0.010411337018013 -0.008137544617056847 0 0 0 0
2478908092 -0.08005993068218231 -0.1876307874917984 -0.012156429700553417 -0.006756899878382683 0 0 0 0
2482630176 -0.08632559329271317 -0.15807275474071503 -0.013477735221385956 -0.004951612092554569 0 0 0 0
2486352260 -0.08749984949827194 -0.1292801946401596 -0.01465820986777544 -0.002801668830215931 0 0 0 0
2490074344 -0.08540269732475281 -0.09963095188140869 -0.0156329944729805 -0.0002889474853873253 0 0 0 0
2493796428 -0.07795709371566772 -0.0692833960056305 -0.016054455190896988 0.0028046872466802597 0 0 0 0
2497518512 -0.06608663499355316 -0.04179992154240608 -0.015525986440479755 0.005838667042553425 0 0 0 0
2501240596 -0.04965335130691528 -0.015454376116394997 -0.014205580577254295 0.008470529690384865 0 0 0 0
2504962680 -0.028513118624687195 0.006987189874053001 -0.013003834523260593 0.01085604541003704 0 0 0 0
2508684764 -0.003894984722137451 0.026243368163704872 -0.011315520852804184 0.013287940062582493 0 0 0 0
2512406848 0.022915823385119438 0.04127204418182373 -0.00901024416089058 0.015880435705184937 0 0 0 0
2516128932 0.05272430554032326 0.05145275592803955 -0.005674096755683422 0.017599090933799744 0 0 0 0
2519851016 0.08326128125190735 0.05672628432512283 -0.0015678824856877327 0.018311133608222008 0 0 0 0
2523573100 0.11439763009548187 0.05460807681083679 0.0023326613008975983 0.017898008227348328 0 0 0 0
2527295184 0.14360471069812775 0.04908399283885956 0.005294208414852619 0.016894033178687096 0 0 0 0
2531017268 0.17007339000701904 0.037475209683179855 0.008474646136164665 0.014988024719059467 0 0 0 0
2534739352 0.1932719200849533 0.020717620849609375 0.011099125258624554 0.013010064139962196 0 0 0 0
2538461436 0.2129996418952942 0.00657315831631422 0.013156953267753124 0.010420290753245354 0 0 0 0
2542183520 0.23008203506469727 -0.01394280418753624 0.014749282039701939 0.007491830736398697 0 0 0 0
2545905604 0.24321089684963226 -0.036268241703510284 0.015702519565820694 0.004173267632722855 0 0 0 0
2549627688 0.2536865770816803 -0.056306514889001846 0.016092929989099503 0.0007600830867886543 0 0 0 0
2553349772 0.2604070007801056 -0.0791156142950058 0.015415672212839127 -0.0029155202209949493 0 0 0 0
2557071856 0.2637905478477478 -0.1036214679479599 0.013556700199842453 -0.006260339170694351 0 0 0 0
2560793940 0.26383042335510254 -0.12331527471542358 0.011118108406662941 -0.008366841822862625 0 0 0 0
2564516024 0.25929224491119385 -0.14961019158363342 0.008503864519298077 -0.009617741219699383 0 0 0 0
2568238108 0.25440526008605957 -0.1663246899843216 0.006381748244166374 -0.010245252400636673 0 0 0 0
2571960192 0.2453301101922989 -0.18517331779003143 0.004222836345434189 -0.010346870869398117 0 0 0 0
2575682276 0.23318305611610413 -0.20234020054340363 0.002215414308011532 -0.010353426449000835 0 0 0 0
2579404360 0.21857231855392456 -0.2203759402036667 0.0005863877013325691 -0.009786040522158146 0 0 0 0
2583126444 0.20546740293502808 -0.2301110476255417 -0.0004327036440372467 -0.009498793631792068 0 0 0 0
2586848528 0.1901826560497284 -0.2404496818780899 -0.0015838546678423882 -0.009479355067014694 0 0 0 0
2590570612 0.1732376366853714 -0.24879899621009827 -0.0031479820609092712 -0.00890797283500433 0 0 0 0
2594292696 0.15593037009239197 -0.2538333237171173 -0.004410935565829277 -0.008014078252017498 0 0 0 0
2598014780 0.13547192513942719 -0.25932425260543823 -0.0056686075404286385 -0.0070642633363604546 0 0 0 0
2601736864 0.12209957838058472 -0.25745633244514465 -0.006490055471658707 -0.006092634983360767 0 0 0 0
2605458948 0.10132820904254913 -0.25459563732147217 -0.007381112314760685 -0.004619518294930458 0 0 0 0
2609181032 0.08395756781101227 -0.2496860921382904 -0.007656790316104889 -0.0027070874348282814 0 0 0 0
2612903116 0.06642603129148483 -0.24127653241157532 -0.007148841395974159 -0.001084672287106514 0 0 0 0
2616625200 0.05288521945476532 -0.2305518090724945 -0.006645367480814457 -5.785748362541199e-05 0 0 0 0
2620347284 0.04192468523979187 -0.2191970944404602 -0.005795909091830254 0.0006870180368423462 0 0 0 0
2624069368 0.03247635439038277 -0.2052638679742813 -0.00487504992634058 0.0011322572827339172 0 0 0 0
2627791452 0.024405360221862793 -0.19046932458877563 -0.0041275471448898315 0.001117158681154251 0 0 0 0
2631513536 0.021595031023025513 -0.1750364452600479 -0.0038146525621414185 0.0009149825200438499 0 0 0 0
2635235620 0.022081192582845688 -0.15974168479442596 -0.0037701474502682686 0.0009938469156622887 0 0 0 0
2638957704 0.024224240332841873 -0.14463795721530914 -0.0037173377349972725 0.001290951855480671 0 0 0 0
2642679788 0.02810370922088623 -0.13255943357944489 -0.003350909799337387 0.0015682978555560112 0 0 0 0
2646401872 0.03491850197315216 -0.12073718756437302 -0.0029142778366804123 0.0017569120973348618 0 0 0 0
2650123956 0.04405674338340759 -0.110040582716465 -0.0025847302749753 0.001680837944149971 0 0 0 0
2653846040 0.05260376259684563 -0.10265211015939713 -0.002277282066643238 0.0014182515442371368 0 0 0 0
2657568124 0.06470942497253418 -0.09650424867868423 -0.0024598799645900726 0.0010781418532133102 0 0 0 0
2661290208 0.07733829319477081 -0.09447009861469269 -0.002894277684390545 0.0012588948011398315 0 0 0 0
2665012292 0.08877874165773392 -0.09495194256305695 -0.003152303397655487 0.0017852801829576492 0 0 0 0
2668734376 0.09758830815553665 -0.09832530468702316 -0.0031250156462192535 0.002251727506518364 0 0 0 0
2672456460 0.1079966276884079 -0.10344801843166351 -0.0031252987682819366 0.002841576002538204 0 0 0 0
2676178544 0.11365199089050293 -0.11043377965688705 -0.0027497494593262672 0.0035763904452323914 0 0 0 0
2679900628 0.12043099105358124 -0.11745177954435349 -0.0020285388454794884 0.00438731350004673 0 0 0 0
2683622712 0.12375031411647797 -0.1257593333721161 -0.0012340666726231575 0.0047934651374816895 0 0 0 0
2687344796 0.1228761225938797 -0.1350879818201065 -0.000134994275867939 0.004862644709646702 0 0 0 0
2691066880 0.12429575622081757 -0.14266671240329742 0.0005444278940558434 0.004677072167396545 0 0 0 0
2694788964 0.12204760313034058 -0.14986668527126312 0.001248382031917572 0.004526145756244659 0 0 0 0
2698511048 0.11827320605516434 -0.15782278776168823 0.002079200930893421 0.004406023770570755 0 0 0 0
2702233132 0.11481241881847382 -0.1645752191543579 0.003354812040925026 0.003972724080085754 0 0 0 0
2705955216 0.10771287232637405 -0.17166675627231598 0.004318050108850002 0.0030748210847377777 0 0 0 0
2709677300 0.0994778424501419 -0.17785736918449402 0.004987518303096294 0.001627597026526928 0 0 0 0
2713399384 0.09098052978515625 -0.18281158804893494 0.004940975457429886 0.00014531239867210388 0 0 0 0
2717121468 0.0816226452589035 -0.18411505222320557 0.00449155829846859 -0.0009394204244017601 0 0 0 0
2720843552 0.07009528577327728 -0.18551483750343323 0.003942037932574749 -0.0017582690343260765 0 0 0 0
2724565636 0.057744648307561874 -0.18390247225761414 0.0031570354476571083 -0.0022118957713246346 0 0 0 0
2728287720 0.04582298547029495 -0.1798664778470993 0.00258020032197237 -0.002399660646915436 0 0 0 0
2732009804 0.03469720855355263 -0.1728348433971405 0.002013365738093853 -0.0023247189819812775 0 0 0 0
2735731888 0.02421244978904724 -0.16370044648647308 0.0018344493582844734 -0.0023754071444272995 0 0 0 0
2739453972 0.015312939882278442 -0.15364529192447662 0.0015683434903621674 -0.0025955066084861755 0 0 0 0
2743176056 0.006902497261762619 -0.1400548815727234 0.0012192493304610252 -0.0027426527813076973 0 0 0 0
2746898140 0.002396347001194954 -0.12515246868133545 0.0009742435067892075 -0.0027650902047753334 0 0 0 0
2750620224 0.0009153448045253754 -0.10915568470954895 0.0010466547682881355 -0.0029103364795446396 0 0 0 0
2754342308 0.0016471333801746368 -0.09290364384651184 0.0009233597666025162 -0.003254212439060211 0 0 0 0
2758064392 0.004285583272576332 -0.07725246250629425 0.0002704933285713196 -0.003915381617844105 0 0 0 0
2761786476 0.010368706658482552 -0.0613066628575325 -0.0005322517827153206 -0.004088058136403561 0 0 0 0
2765508560 0.019399283453822136 -0.046032533049583435 -0.001575082540512085 -0.003954834304749966 0 0 0 0
2769230644 0.030978579074144363 -0.031925275921821594 -0.0023011695593595505 -0.0033493060618638992 0 0 0 0
2772952728 0.04527518153190613 -0.02079644612967968 -0.002671264111995697 -0.0026428475975990295 0 0 0 0
2776674812 0.061536554247140884 -0.01046205684542656 -0.0027108965441584587 -0.0022352496162056923 0 0 0 0
2780396896 0.07928020507097244 -0.005158895626664162 -0.002814045175909996 -0.0018177572637796402 0 0 0 0
2784118980 0.09723390638828278 8.918717503547668e-05 -0.00292885210365057 -0.0012573227286338806 0 0 0 0
2787841064 0.11663859337568283 0.0017149532213807106 -0.0029639527201652527 -0.0006646327674388885 0 0 0 0
2791563148 0.13678616285324097 0.00023999810218811035 -0.0027936017140746117 -0.00019823666661977768 0 0 0 0
2795285232 0.15799368917942047 -0.0035567358136177063 -0.0024495841935276985 0.00014680065214633942 0 0 0 0
2799007316 0.17841097712516785 -0.011490501463413239 -0.00206120777875185 0.0004434501752257347 0 0 0 0
2802729400 0.19635692238807678 -0.025219738483428955 -0.0017133988440036774 0.00031067803502082825 0 0 0 0
2806451484 0.21426483988761902 -0.04048322141170502 -0.0017727920785546303 0.00018203910440206528 0 0 0 0
2810173568 0.22947272658348083 -0.05564256012439728 -0.002040884457528591 0.0003645550459623337 0 0 0 0
2813895652 0.24106460809707642 -0.07857906818389893 -0.0020344052463769913 0.0007927259430289268 0 0 0 0
2817617736 0.24830663204193115 -0.09973712265491486 -0.0016993405297398567 0.001303602010011673 0 0 0 0
2821339820 0.25293681025505066 -0.12159916013479233 -0.00122093316167593 0.0016754884272813797 0 0 0 0
2825061904 0.2522796392440796 -0.14705514907836914 -0.0006308779120445251 0.001750119961798191 0 0 0 0
2828783988 0.2505217492580414 -0.1702689230442047 -0.0001323232427239418 0.0015525072813034058 0 0 0 0
2832506072 0.24609914422035217 -0.19171039760112762 0.00016377773135900497 0.001329098828136921 0 0 0 0
2836228156 0.23520328104496002 -0.21674475073814392 0.00048196129500865936 0.0010342467576265335 0 0 0 0
2839950240 0.22590355575084686 -0.23558273911476135 0.0007115388289093971 0.0009214272722601891 0 0 0 0
2843672324 0.21339201927185059 -0.2523494064807892 0.0009115971624851227 0.0005502775311470032 0 0 0 0
2847394408 0.19535961747169495 -0.26905009150505066 0.0007928935810923576 0.0003719376400113106 0 0 0 0
2851116492 0.175815150141716 -0.2861250042915344 0.0007700882852077484 9.09268856048584e-05 0 0 0 0
2854838576 0.15574222803115845 -0.29740601778030396 0.0007766829803586006 4.819873720407486e-05 0 0 0 0
2858560660 0.138082817196846 -0.30623599886894226 0.000881158746778965 -0.0005703829228878021 0 0 0 0
2862282744 0.11075951159000397 -0.3165462613105774 0.0007345397025346756 -0.0006256159394979477 0 0 0 0
2866004828 0.08591543138027191 -0.3205410838127136 0.0008337134495377541 -0.0006067324429750443 0 0 0 0
2869726912 0.06500886380672455 -0.32098889350891113 0.0009603854268789291 -0.0008192742243409157 0 0 0 0
2873448996 0.04023253917694092 -0.3181767761707306 0.0009042359888553619 -0.001071123406291008 0 0 0 0
2877171080 0.013936690986156464 -0.31172671914100647 0.0007790587842464447 -0.001260685734450817 0 0 0 0
2880893164 -0.010830491781234741 -0.30320993065834045 0.0005068043246865273 -0.0014374079182744026 0 0 0 0
2884615248 -0.029033072292804718 -0.2906399369239807 0.0001896992325782776 -0.0016105547547340393 0 0 0 0
2888337332 -0.054903917014598846 -0.2754490077495575 -3.443099558353424e-05 -0.0013370728120207787 0 0 0 0
2892059416 -0.0742635577917099 -0.25700080394744873 -0.000283263623714447 -0.0012814998626708984 0 0 0 0
2895781500 -0.09003528952598572 -0.23750311136245728 -0.00048692431300878525 -0.0010423436760902405 0 0 0 0
2899503584 -0.10463342815637589 -0.21331346035003662 -0.0007150238379836082 -0.000848080962896347 0 0 0 0
2903225668 -0.11594091355800629 -0.18814973533153534 -0.0006103496998548508 -0.0004975004121661186 0 0 0 0
2906947752 -0.12179700285196304 -0.16260769963264465 -0.0004539024084806442 -0.000277642160654068 0 0 0 0
2910669836 -0.1250307261943817 -0.13548119366168976 -0.0001577623188495636 -0.00010743830353021622 0 0 0 0
2914391920 -0.12469539046287537 -0.10728798806667328 2.053380012512207e-05 -0.00011033285409212112 0 0 0 0
2918114004 -0.11992128938436508 -0.08286155760288239 0.00010317284613847733 -0.0001688459888100624 0 0 0 0
2921836088 -0.11249952018260956 -0.05843467265367508 0.00011641625314950943 -0.0001429487019777298 0 0 0 0
2925558172 -0.10452955961227417 -0.03348873183131218 0.00032742321491241455 -0.00018317811191082 0 0 0 0
2929280256 -0.09156051278114319 -0.008955573663115501 0.00032779574394226074 -0.0003893021494150162 0 0 0 0
2933002340 -0.07583768665790558 0.012110557407140732 0.00018162745982408524 -0.0004161810502409935 0 0 0 0
2936724424 -0.05688482150435448 0.031328245997428894 -6.935838609933853e-05 -0.00027905218303203583 0 0 0 0
2940446508 -0.0365588441491127 0.047599319368600845 -8.988380432128906e-05 -0.0002537611871957779 0 0 0 0
2944168592 -0.013134272769093513 0.06202949583530426 -0.00013859383761882782 8.957739919424057e-05 0 0 0 0
2947890676 0.012136707082390785 0.07302309572696686 1.1374242603778839e-05 0.0005820635706186295 0 0 0 0
2951612760 0.0384678915143013 0.08138976991176605 0.0002973470836877823 0.0007573943585157394 0 0 0 0
2955334844 0.06609180569648743 0.08466173708438873 0.0008199447765946388 0.0010555591434240341 0 0 0 0
2959056928 0.0943281427025795 0.08432959020137787 0.0012371707707643509 0.0009698700159788132 0 0 0 0
2962779012 0.1213180422782898 0.08013275265693665 0.001721416600048542 0.000837801955640316 0 0 0 0
2966501096 0.14743860065937042 0.06998444348573685 0.002144846133887768 0.0005810940638184547 0 0 0 0
2970223180 0.1706562489271164 0.06260897219181061 0.002495650202035904 6.870273500680923e-05 0 0 0 0
2973945264 0.19380611181259155 0.04410404711961746 0.0025740908458828926 -0.0005534347146749496 0 0 0 0
2977667348 0.21465054154396057 0.028404153883457184 0.002548670396208763 -0.0010764915496110916 0 0 0 0
2981389432 0.23163041472434998 0.009739041328430176 0.002281344495713711 -0.001661962829530239 0 0 0 0
2985111516 0.24593320488929749 -0.013238497078418732 0.001920921728014946 -0.00199153833091259 0 0 0 0
2988833600 0.25601857900619507 -0.035741087049245834 0.0016084695234894753 -0.002093602903187275 0 0 0 0
2992555684 0.26387670636177063 -0.06106860935688019 0.001198556274175644 -0.0023244181647896767 0 0 0 0
2996277768 0.26782041788101196 -0.08562184870243073 0.000655478797852993 -0.0024122633039951324 0 0 0 0
2999999852 0.26923221349716187 -0.10967747122049332 0.000270133838057518 -0.002202964387834072 0 0 0 0
