# HZ S RI R 50
1500000000 -0.1485568732023239 -0.01891906186938286 0.069168820977211 -0.031029751524329185 0 0 0 0
1503722084 -0.12706147134304047 0.013660233467817307 0.06127175688743591 -0.04292141646146774 0 0 0 0
1507444168 -0.10000727325677872 0.042236194014549255 0.05146580934524536 -0.05284249410033226 0 0 0 0
1511166252 -0.06804396212100983 0.06719700992107391 0.03861526399850845 -0.06068887561559677 0 0 0 0
1514888336 -0.03077155351638794 0.0873740091919899 0.02453838847577572 -0.06462304294109344 0 0 0 0
1518610420 0.01109149307012558 0.10222664475440979 0.011273739859461784 -0.06475929170846939 0 0 0 0
1522332504 0.056117407977581024 0.10930370539426804 -0.000655151903629303 -0.062080010771751404 0 0 0 0
1526054588 0.10294576734304428 0.10822977125644684 -0.010790104046463966 -0.057322077453136444 0 0 0 0
1529776672 0.14999309182167053 0.09994897246360779 -0.018958814442157745 -0.051870860159397125 0 0 0 0
1533498756 0.1968844085931778 0.0857383981347084 -0.02574256807565689 -0.04570521414279938 0 0 0 0
1537220840 0.24431520700454712 0.06124819815158844 -0.03133232146501541 -0.03850536048412323 0 0 0 0
1540942924 0.28701549768447876 0.02769574522972107 -0.034530289471149445 -0.030683983117341995 0 0 0 0
1544665008 0.3243686854839325 -0.015816643834114075 -0.03604727238416672 -0.02349097467958927 0 0 0 0
1548387092 0.3532179892063141 -0.06459683179855347 -0.03628471866250038 -0.017577871680259705 0 0 0 0
1552109176 0.37374967336654663 -0.1176857054233551 -0.036410555243492126 -0.011848334223031998 0 0 0 0
1555831260 0.38587844371795654 -0.172600656747818 -0.03581147640943527 -0.0067400624975562096 0 0 0 0
1559553344 0.3873562812805176 -0.23221427202224731 -0.03470660746097565 -0.0016785040497779846 0 0 0 0
1563275428 0.3819122016429901 -0.289495587348938 -0.03283385932445526 0.0027818698436021805 0 0 0 0
1566997512 0.3677632212638855 -0.348326712846756 -0.03064974583685398 0.006644544191658497 0 0 0 0
1570719596 0.3422764837741852 -0.40352103114128113 -0.028016358613967896 0.009854004718363285 0 0 0 0
1574441680 0.3094680607318878 -0.45465996861457825 -0.02530970610678196 0.012207305058836937 0 0 0 0
1578163764 0.263694703578949 -0.5025019645690918 -0.022920217365026474 0.014261586591601372 0 0 0 0
1581885848 0.21987275779247284 -0.5385554432868958 -0.020904328674077988 0.015944700688123703 0 0 0 0
1585607932 0.16356375813484192 -0.5700564980506897 -0.01851537823677063 0.017945721745491028 0 0 0 0
1589330016 0.10403498262166977 -0.5928393006324768 -0.01590808667242527 0.01935616508126259 0 0 0 0
1593052100 0.04023370146751404 -0.6072990894317627 -0.013667169958353043 0.020543841645121574 0 0 0 0
1596774184 -0.023327559232711792 -0.6111422777175903 -0.01145215891301632 0.021869178861379623 0 0 0 0
1600496268 -0.08721250295639038 -0.6056163907051086 -0.009030605666339397 0.023540271446108818 0 0 0 0
1604218352 -0.14799822866916656 -0.5922479629516602 -0.00599259976297617 0.024700263515114784 0 0 0 0
1607940436 -0.2095564901828766 -0.5677368640899658 -0.002356964163482189 0.02540764957666397 0 0 0 0
1611662520 -0.26722124218940735 -0.5347464084625244 0.0012313928455114365 0.025592265650629997 0 0 0 0
1615384604 -0.3207431733608246 -0.4944257438182831 0.004872663877904415 0.025328274816274643 0 0 0 0
1619106688 -0.36666402220726013 -0.445083349943161 0.008413633331656456 0.024750951677560806 0 0 0 0
1622828772 -0.40641534328460693 -0.3880201280117035 0.01245102845132351 0.023633521050214767 0 0 0 0
1626550856 -0.43632954359054565 -0.3301577568054199 0.016669979318976402 0.02178165316581726 0 0 0 0
1630272940 -0.458251416683197 -0.2628849148750305 0.02060147374868393 0.01850184053182602 0 0 0 0
1633995024 -0.4736489951610565 -0.19488903880119324 0.023714277893304825 0.014526745304465294 0 0 0 0
1637717108 -0.4788648188114166 -0.12180930376052856 0.025905776768922806 0.009946757927536964 0 0 0 0
1641439192 -0.4728667736053467 -0.04798239469528198 0.02691400796175003 0.004845588468015194 0 0 0 0
1645161276 -0.45484983921051025 0.02444744110107422 0.026952873915433884 -0.00015999190509319305 0 0 0 0
1648883360 -0.42473191022872925 0.09940680861473083 0.026151519268751144 -0.004838780499994755 0 0 0 0
1652605444 -0.38212770223617554 0.16508939862251282 0.024644773453474045 -0.009449390694499016 0 0 0 0
1656327528 -0.3317193388938904 0.22150836884975433 0.022199220955371857 -0.013659952208399773 0 0 0 0
1660049612 -0.26844584941864014 0.27359524369239807 0.018519718199968338 -0.017480412498116493 0 0 0 0
1663771696 -0.20088011026382446 0.31432729959487915 0.014518490061163902 -0.02001386135816574 0 0 0 0
1667493780 -0.12692159414291382 0.3453711271286011 0.009938374161720276 -0.021892521530389786 0 0 0 0
1671215864 -0.04714606702327728 0.36419013142585754 0.005046599544584751 -0.02273685857653618 0 0 0 0
1674937948 0.03163842856884003 0.3724132776260376 0.00017380528151988983 -0.022123638540506363 0 0 0 0
1678660032 0.1144757866859436 0.3671022057533264 -0.0037875184789299965 -0.020247682929039 0 0 0 0
1682382116 0.19608213007450104 0.347510427236557 -0.007134086452424526 -0.01772972196340561 0 0 0 0
1686104200 0.2740608751773834 0.3158780038356781 -0.009410977363586426 -0.01484320405870676 0 0 0 0
1689826284 0.346042275428772 0.27180004119873047 -0.010985533706843853 -0.01161572802811861 0 0 0 0
1693548368 0.408133864402771 0.21858322620391846 -0.011526387184858322 -0.008796989917755127 0 0 0 0
1697270452 0.46154898405075073 0.15371108055114746 -0.011446627788245678 -0.006120107136666775 0 0 0 0
1700992536 0.5048301219940186 0.08364182710647583 -0.011051686480641365 -0.004195522516965866 0 0 0 0
1704714620 0.5347229838371277 0.007244527339935303 -0.010729368776082993 -0.002449273131787777 0 0 0 0
1708436704 0.5530589818954468 -0.07042883336544037 -0.010218638926744461 -0.0005912110209465027 0 0 0 0
1712158788 0.5587349534034729 -0.1498032808303833 -0.009008524939417839 0.0010500960052013397 0 0 0 0
1715880872 0.5523885488510132 -0.23217658698558807 -0.007330297492444515 0.002175925299525261 0 0 0 0
1719602956 0.5331429839134216 -0.3060981035232544 -0.005734496749937534 0.002457085996866226 0 0 0 0
1723325040 0.5023038387298584 -0.37881922721862793 -0.004378735087811947 0.0021729646250605583 0 0 0 0
1727047124 0.46303603053092957 -0.44419947266578674 -0.003701314330101013 0.001570381224155426 0 0 0 0
1730769208 0.4116717576980591 -0.5031992793083191 -0.003514849580824375 0.0010456619784235954 0 0 0 0
1734491292 0.354986310005188 -0.5510727763175964 -0.003548447974026203 0.0008292412385344505 0 0 0 0
1738213376 0.2887765169143677 -0.5907429456710815 -0.003650055266916752 0.0006183004006743431 0 0 0 0
1741935460 0.22058624029159546 -0.618529736995697 -0.003656926564872265 0.0005361642688512802 0 0 0 0
1745657544 0.15769335627555847 -0.633269727230072 -0.0040529640391469 0.0003822632133960724 0 0 0 0
1749379628 0.08425427973270416 -0.639959990978241 -0.00434747152030468 0.0009150570258498192 0 0 0 0
1753101712 0.010852634906768799 -0.6344616413116455 -0.0043015144765377045 0.0012535937130451202 0 0 0 0
1756823796 -0.05221182107925415 -0.6197590231895447 -0.004224240779876709 0.0013421298936009407 0 0 0 0
1760545880 -0.11489085853099823 -0.593414843082428 -0.004354209639132023 0.0012716827914118767 0 0 0 0
1764267964 -0.17018452286720276 -0.5599653720855713 -0.004765369929373264 0.0012601148337125778 0 0 0 0
1767990048 -0.218889057636261 -0.5209007263183594 -0.005274167284369469 0.0014934549108147621 0 0 0 0
1771712132 -0.26651349663734436 -0.47195005416870117 -0.005916598252952099 0.001782165840268135 0 0 0 0
1775434216 -0.29659852385520935 -0.42375239729881287 -0.007037641480565071 0.002277165651321411 0 0 0 0
1779156300 -0.3237881064414978 -0.3698536157608032 -0.008312905207276344 0.0034675132483243942 0 0 0 0
1782878384 -0.3439566493034363 -0.3143594264984131 -0.009354476816952229 0.0056482525542378426 0 0 0 0
1786600468 -0.3543347716331482 -0.25787582993507385 -0.009686002507805824 0.00858305487781763 0 0 0 0
1790322552 -0.35839492082595825 -0.19948238134384155 -0.008867419324815273 0.01162155531346798 0 0 0 0
1794044636 -0.35420501232147217 -0.14165957272052765 -0.007086648605763912 0.0144986342638731 0 0 0 0
1797766720 -0.34130236506462097 -0.08650673925876617 -0.0051421113312244415 0.017088519409298897 0 0 0 0
1801488804 -0.3216017782688141 -0.033374667167663574 -0.002325727604329586 0.019940562546253204 0 0 0 0
1805210888 -0.2932553291320801 0.020788617432117462 0.0020018918439745903 0.02208387665450573 0 0 0 0
1808932972 -0.2577313482761383 0.06652133911848068 0.007209521718323231 0.023333651944994926 0 0 0 0
1812655056 -0.2128162682056427 0.10749155282974243 0.012850357219576836 0.02278810180723667 0 0 0 0
1816377140 -0.1631186604499817 0.13788604736328125 0.018409453332424164 0.021122317761182785 0 0 0 0
1820099224 -0.10896658897399902 0.159354567527771 0.024420635774731636 0.017777226865291595 0 0 0 0
1823821308 -0.051642827689647675 0.17201894521713257 0.029648898169398308 0.011769572272896767 0 0 0 0
1827543392 0.004905123263597488 0.17454425990581512 0.03227420151233673 0.0043787769973278046 0 0 0 0
1831265476 0.05726338177919388 0.16801519691944122 0.03292363882064819 -0.0026596691459417343 0 0 0 0
1834987560 0.10775431990623474 0.15259253978729248 0.03163580968976021 -0.009655848145484924 0 0 0 0
1838709644 0.1541372537612915 0.13105985522270203 0.02883341535925865 -0.015961093828082085 0 0 0 0
1842431728 0.19511455297470093 0.10371042788028717 0.02520185522735119 -0.020634805783629417 0 0 0 0
1846153812 0.23038774728775024 0.06972779333591461 0.020907161757349968 -0.024882560595870018 0 0 0 0
1849875896 0.259611040353775 0.03342145308852196 0.016462689265608788 -0.02837781235575676 0 0 0 0
1853597980 0.2818180322647095 -0.007894828915596008 0.011202947236597538 -0.030963342636823654 0 0 0 0
1857320064 0.29709264636039734 -0.04914027452468872 0.0059767961502075195 -0.03252846375107765 0 0 0 0
1861042148 0.30382049083709717 -0.09512833505868912 0.0008255960419774055 -0.03354913741350174 0 0 0 0
1864764232 0.3043745458126068 -0.13627655804157257 -0.005168131552636623 -0.034162603318691254 0 0 0 0
1868486316 0.29696398973464966 -0.1769208461046219 -0.011958304792642593 -0.033271919935941696 0 0 0 0
1872208400 0.2851791977882385 -0.21402713656425476 -0.01793176680803299 -0.03080757148563862 0 0 0 0
1875930484 0.26921185851097107 -0.2489871382713318 -0.023386109620332718 -0.02721821889281273 0 0 0 0
1879652568 0.24571646749973297 -0.2816155254840851 -0.02789650298655033 -0.022797435522079468 0 0 0 0
1883374652 0.21968060731887817 -0.308582067489624 -0.03156633302569389 -0.01800420880317688 0 0 0 0
1887096736 0.1881643533706665 -0.33031100034713745 -0.03482042998075485 -0.012443451210856438 0 0 0 0
1890818820 0.15188001096248627 -0.34609758853912354 -0.03669712319970131 -0.006457814015448093 0 0 0 0
1894540904 0.11492402851581573 -0.35381025075912476 -0.03776850551366806 0.00012712553143501282 0 0 0 0
1898262988 0.08198858797550201 -0.35360080003738403 -0.038083821535110474 0.006705783307552338 0 0 0 0
1901985072 0.04563548415899277 -0.3495089113712311 -0.03667706623673439 0.01399990264326334 0 0 0 0
1905707156 0.016048043966293335 -0.33763962984085083 -0.033964768052101135 0.020046282559633255 0 0 0 0
1909429240 -0.013978160917758942 -0.32291775941848755 -0.029855605214834213 0.026048138737678528 0 0 0 0
1913151324 -0.0369829460978508 -0.3040522634983063 -0.026060104370117188 0.03110426850616932 0 0 0 0
1916873408 -0.05824205279350281 -0.28119993209838867 -0.020612148568034172 0.036378953605890274 0 0 0 0
1920595492 -0.07602307200431824 -0.25497379899024963 -0.013609026558697224 0.04085169732570648 0 0 0 0
1924317576 -0.08754821121692657 -0.2267618477344513 -0.004859669134020805 0.04370284453034401 0 0 0 0
1928039660 -0.09264011681079865 -0.1976543366909027 0.004106512293219566 0.04417372867465019 0 0 0 0
1931761744 -0.0935182124376297 -0.16884520649909973 0.013137261383235455 0.042208798229694366 0 0 0 0
1935483828 -0.09085343033075333 -0.14051301777362823 0.021519655361771584 0.0380517840385437 0 0 0 0
1939205912 -0.08326558023691177 -0.1114330142736435 0.027833443135023117 0.03192516043782234 0 0 0 0
1942927996 -0.06975165009498596 -0.08562597632408142 0.032158996909856796 0.025522928684949875 0 0 0 0
1946650080 -0.05222370848059654 -0.061659492552280426 0.03522166609764099 0.01935611106455326 0 0 0 0
1950372164 -0.030018821358680725 -0.04085315763950348 0.037701718509197235 0.013092074543237686 0 0 0 0
1954094248 -0.0032724225893616676 -0.024567823857069016 0.039676837623119354 0.007388886995613575 0 0 0 0
1957816332 0.02551748976111412 -0.01452021673321724 0.04114968329668045 -0.00047641247510910034 0 0 0 0
1961538416 0.05565081536769867 -0.01080828532576561 0.040150370448827744 -0.008758187294006348 0 0 0 0
1965260500 0.08528517931699753 -0.011354580521583557 0.037431880831718445 -0.016055013984441757 0 0 0 0
1968982584 0.11462382227182388 -0.018914805725216866 0.03337387368083 -0.022157641127705574 0 0 0 0
1972704668 0.14113055169582367 -0.030760403722524643 0.02939390018582344 -0.027635471895337105 0 0 0 0
1976426752 0.16468143463134766 -0.04907142370939255 0.023795679211616516 -0.033247899264097214 0 0 0 0
1980148836 0.1854354739189148 -0.07024489343166351 0.017333636060357094 -0.03765709698200226 0 0 0 0
1983870920 0.20226167142391205 -0.09362883865833282 0.009890567511320114 -0.040574342012405396 0 0 0 0
1987593004 0.21221674978733063 -0.1229720413684845 0.0012884801253676414 -0.04178287833929062 0 0 0 0
1991315088 0.21612343192100525 -0.1520799845457077 -0.007657167501747608 -0.041084788739681244 0 0 0 0
1995037172 0.21481060981750488 -0.17990714311599731 -0.015700172632932663 -0.03815506398677826 0 0 0 0
1998759256 0.20804207026958466 -0.20701344311237335 -0.022129233926534653 -0.03369838371872902 0 0 0 0
2002481340 0.19641456007957458 -0.23192252218723297 -0.027201449498534203 -0.02798120491206646 0 0 0 0
2006203424 0.18251104652881622 -0.25255289673805237 -0.030902646481990814 -0.022368498146533966 0 0 0 0
2009925508 0.1639915555715561 -0.27076801657676697 -0.03352640941739082 -0.016680900007486343 0 0 0 0
2013647592 0.14524587988853455 -0.2842758297920227 -0.03548566624522209 -0.011034632101655006 0 0 0 0
2017369676 0.12015771865844727 -0.2979496717453003 -0.0371740348637104 -0.004982879385352135 0 0 0 0
2021091760 0.09853830188512802 -0.30628710985183716 -0.03808610886335373 0.001428825780749321 0 0 0 0
2024813844 0.0756649523973465 -0.3102339208126068 -0.0378398597240448 0.00862347986549139 0 0 0 0
2028535928 0.04514192417263985 -0.3116939663887024 -0.035204894840717316 0.01620359532535076 0 0 0 0
2032258012 0.02302272617816925 -0.30815112590789795 -0.031174663454294205 0.022392183542251587 0 0 0 0
2035980096 -0.0038612335920333862 -0.30015090107917786 -0.02624521777033806 0.027500951662659645 0 0 0 0
2039702180 -0.02830902487039566 -0.2875548005104065 -0.02069203555583954 0.03138230741024017 0 0 0 0
2043424264 -0.05096379667520523 -0.2709163427352905 -0.014396285638213158 0.03400076553225517 0 0 0 0
2047146348 -0.06993508338928223 -0.25090867280960083 -0.008050385862588882 0.03594611585140228 0 0 0 0
2050868432 -0.08827810734510422 -0.22719189524650574 -0.0017291009426116943 0.036200299859046936 0 0 0 0
2054590516 -0.10024083405733109 -0.200842946767807 0.004296218976378441 0.03510015457868576 0 0 0 0
2058312600 -0.1098281592130661 -0.1718534529209137 0.010190147906541824 0.03340959548950195 0 0 0 0
2062034684 -0.11317059397697449 -0.1429506093263626 0.0153815234079957 0.031148530542850494 0 0 0 0
2065756768 -0.11356985569000244 -0.11092855036258698 0.02027997188270092 0.02785862423479557 0 0 0 0
2069478852 -0.10890191048383713 -0.07845422625541687 0.024917468428611755 0.02352302148938179 0 0 0 0
2073200936 -0.09810017794370651 -0.04664389044046402 0.028780322521924973 0.018018655478954315 0 0 0 0
2076923020 -0.08101823925971985 -0.017264075577259064 0.03052532859146595 0.012542356736958027 0 0 0 0
2080645104 -0.05947636812925339 0.009808974340558052 0.031084587797522545 0.006594347767531872 0 0 0 0
2084367188 -0.031987737864255905 0.03352002426981926 0.030361179262399673 0.0016429508104920387 0 0 0 0
2088089272 -0.001386784017086029 0.05148850381374359 0.029660124331712723 -0.0020281653851270676 0 0 0 0
2091811356 0.03233075886964798 0.06420818716287613 0.029266631230711937 -0.005939432419836521 0 0 0 0
2095533440 0.06789062917232513 0.07016631215810776 0.028680989518761635 -0.01072772964835167 0 0 0 0
2099255524 0.10260850191116333 0.0709010660648346 0.027556732296943665 -0.016001857817173004 0 0 0 0
2102977608 0.13728740811347961 0.06644359230995178 0.024435460567474365 -0.021487636491656303 0 0 0 0
2106699692 0.17084547877311707 0.056524667888879776 0.019353367388248444 -0.02632584422826767 0 0 0 0
2110421776 0.20276188850402832 0.04356605187058449 0.014040159992873669 -0.029212012887001038 0 0 0 0
2114143860 0.23255640268325806 0.021075142547488213 0.00797230750322342 -0.030744727700948715 0 0 0 0
2117865944 0.2573532164096832 -0.0032344497740268707 0.0023184092715382576 -0.031227365136146545 0 0 0 0
2121588028 0.2778189182281494 -0.03314889222383499 -0.0036263596266508102 -0.03155932575464249 0 0 0 0
2125310112 0.29259294271469116 -0.06530268490314484 -0.009895188733935356 -0.030084606260061264 0 0 0 0
2129032196 0.30263426899909973 -0.09780482947826385 -0.01573403924703598 -0.02691720612347126 0 0 0 0
2132754280 0.30733388662338257 -0.13176605105400085 -0.0204476211220026 -0.022508371621370316 0 0 0 0
2136476364 0.30536216497421265 -0.16533039510250092 -0.02327042818069458 -0.01724459044635296 0 0 0 0
2140198448 0.2969854474067688 -0.19975511729717255 -0.024603907018899918 -0.011989508755505085 0 0 0 0
2143920532 0.28625234961509705 -0.2289825826883316 -0.02483975701034069 -0.007759789936244488 0 0 0 0
2147642616 0.2692539393901825 -0.256740540266037 -0.024695003405213356 -0.003367917612195015 0 0 0 0
2151364700 0.2501630485057831 -0.28076696395874023 -0.02375035360455513 0.00038124434649944305 0 0 0 0
2155086784 0.22760887444019318 -0.3020259737968445 -0.02282833494246006 0.0035323305055499077 0 0 0 0
2158808868 0.2002294957637787 -0.31898248195648193 -0.02146720141172409 0.006283550523221493 0 0 0 0
2162530952 0.1736569106578827 -0.32960858941078186 -0.020026322454214096 0.009005831554532051 0 0 0 0
2166253036 0.1406320184469223 -0.3386847674846649 -0.01842653751373291 0.011388231068849564 0 0 0 0
2169975120 0.11220124363899231 -0.3401719927787781 -0.016946999356150627 0.013511288911104202 0 0 0 0
2173697204 0.0829315260052681 -0.3401485085487366 -0.015282095409929752 0.016277426853775978 0 0 0 0
2177419288 0.05150998383760452 -0.3340323567390442 -0.012646795250475407 0.01870580017566681 0 0 0 0
2181141372 0.027628093957901 -0.32369425892829895 -0.009697957895696163 0.02093465067446232 0 0 0 0
2184863456 -0.0006857365369796753 -0.30933767557144165 -0.006213981658220291 0.02226943150162697 0 0 0 0
2188585540 -0.02597382664680481 -0.2905207872390747 -0.0023444490507245064 0.02357414737343788 0 0 0 0
2192307624 -0.04638256877660751 -0.267875999212265 0.002098546363413334 0.024180185049772263 0 0 0 0
2196029708 -0.06299163401126862 -0.24159292876720428 0.006842561066150665 0.02359084039926529 0 0 0 0
2199751792 -0.07366178929805756 -0.21479903161525726 0.011516287922859192 0.02186802588403225 0 0 0 0
2203473876 -0.07863908261060715 -0.1842622458934784 0.01532414834946394 0.018933378159999847 0 0 0 0
2207195960 -0.08230385929346085 -0.1539357304573059 0.018775075674057007 0.015008388087153435 0 0 0 0
2210918044 -0.07940356433391571 -0.12342255562543869 0.020727604627609253 0.01097613014280796 0 0 0 0
2214640128 -0.06992688775062561 -0.09596683830022812 0.021954122930765152 0.00679511483758688 0 0 0 0
2218362212 -0.05677276849746704 -0.07083141803741455 0.022183025255799294 0.0022586630657315254 0 0 0 0
2222084296 -0.042036622762680054 -0.04546741768717766 0.021068651229143143 -0.0020386995747685432 0 0 0 0
2225806380 -0.02101399563252926 -0.025326555594801903 0.0194990374147892 -0.005521041341125965 0 0 0 0
2229528464 0.0022596782073378563 -0.007701520808041096 0.017845746129751205 -0.008199362084269524 0 0 0 0
2233250548 0.028882738202810287 0.004731655120849609 0.015944993123412132 -0.01099233515560627 0 0 0 0
2236972632 0.057093389332294464 0.013166699558496475 0.013565175235271454 -0.013413844630122185 0 0 0 0
2240694716 0.08524288237094879 0.014894338324666023 0.010687376372516155 -0.015653522685170174 0 0 0 0
2244416800 0.11322162300348282 0.011511486023664474 0.0074302153661847115 -0.016995562240481377 0 0 0 0
2248138884 0.13979807496070862 0.0044039711356163025 0.003789958544075489 -0.01788780838251114 0 0 0 0
2251860968 0.16523724794387817 -0.007860902696847916 2.0070932805538177e-05 -0.01826624386012554 0 0 0 0
2255583052 0.1857401430606842 -0.028349056839942932 -0.0033941110596060753 -0.017393147572875023 0 0 0 0
2259305136 0.2045956254005432 -0.04113684594631195 -0.006283166818320751 -0.01571291871368885 0 0 0 0
2263027220 0.2170301079750061 -0.06562197208404541 -0.00841321237385273 -0.013495261780917645 0 0 0 0
2266749304 0.22638635337352753 -0.0873599499464035 -0.009806638583540916 -0.011670575477182865 0 0 0 0
2270471388 0.23243652284145355 -0.11012948304414749 -0.01120566762983799 -0.009502094238996506 0 0 0 0
2274193472 0.23504318296909332 -0.1306154578924179 -0.011761374771595001 -0.007566320709884167 0 0 0 0
2277915556 0.23135420680046082 -0.1604548692703247 -0.012442012317478657 -0.005858828313648701 0 0 0 0
2281637640 0.22716458141803741 -0.18000566959381104 -0.01289570052176714 -0.0038335127755999565 0 0 0 0
2285359724 0.2137707769870758 -0.2034597545862198 -0.013068655505776405 -0.002120697870850563 0 0 0 0
2289081808 0.19861042499542236 -0.22295431792736053 -0.013005886226892471 -0.0005815532058477402 0 0 0 0
2292803892 0.1840256154537201 -0.2353052794933319 -0.01271439902484417 0.0012443847954273224 0 0 0 0
2296525976 0.16174495220184326 -0.24722009897232056 -0.012466855347156525 0.0028995852917432785 0 0 0 0
2300248060 0.14382745325565338 -0.25504064559936523 -0.011961476877331734 0.004351240582764149 0 0 0 0
2303970144 0.12472495436668396 -0.2631104588508606 -0.01118339505046606 0.006447283551096916 0 0 0 0
2307692228 0.09727883338928223 -0.2649184465408325 -0.01013481616973877 0.008137759752571583 0 0 0 0
2311414312 0.07958288490772247 -0.2624136805534363 -0.008162589743733406 0.009685706347227097 0 0 0 0
2315136396 0.05788770318031311 -0.2562333941459656 -0.005898337811231613 0.010042705573141575 0 0 0 0
2318858480 0.03326905518770218 -0.24750863015651703 -0.0038127750158309937 0.009959220886230469 0 0 0 0
2322580564 0.01111157238483429 -0.23354534804821014 -0.00222617294639349 0.009414511732757092 0 0 0 0
2326302648 -0.0028305798768997192 -0.21627339720726013 -0.0012205513194203377 0.00858269352465868 0 0 0 0
2330024732 -0.021243661642074585 -0.19628144800662994 -0.0006634825840592384 0.007857566699385643 0 0 0 0
2333746816 -0.026462819427251816 -0.17499789595603943 -0.00040969252586364746 0.007216477766633034 0 0 0 0
2337468900 -0.0338604710996151 -0.15150173008441925 -6.053317338228226e-05 0.007238590158522129 0 0 0 0
2341190984 -0.04091818258166313 -0.12388511002063751 0.0004119202494621277 0.007071246393024921 0 0 0 0
2344913068 -0.03730902820825577 -0.09701385349035263 0.0010981829836964607 0.006867078132927418 0 0 0 0
2348635152 -0.03069649450480938 -0.06905096769332886 0.0015106461942195892 0.006385941989719868 0 0 0 0
2352357236 -0.01860773004591465 -0.0437641367316246 0.002041557803750038 0.00602688267827034 0 0 0 0
2356079320 -0.0017812754958868027 -0.020002951845526695 0.0024354364722967148 0.005616672337055206 0 0 0 0
2359801404 0.019471311941742897 0.0009066266939043999 0.0029175514355301857 0.004888211376965046 0 0 0 0
2363523488 0.04481031373143196 0.017227554693818092 0.0029663722962141037 0.004534025676548481 0 0 0 0
2367245572 0.07323477417230606 0.029287327080965042 0.002872825600206852 0.004008417949080467 0 0 0 0
2370967656 0.10335718095302582 0.03470649942755699 0.0028404444456100464 0.004087124951183796 0 0 0 0
2374689740 0.13438737392425537 0.03475707769393921 0.0030598109588027 0.003913442604243755 0 0 0 0
2378411824 0.1633259505033493 0.027929216623306274 0.00359355378895998 0.003540520556271076 0 0 0 0
2382133908 0.19164815545082092 0.018103890120983124 0.0038707787171006203 0.0029313433915376663 0 0 0 0
2385855992 0.21670913696289062 0.0032336264848709106 0.003933900035917759 0.0026138219982385635 0 0 0 0
2389578076 0.23979134857654572 -0.012085258960723877 0.003935683518648148 0.0024530403316020966 0 0 0 0
2393300160 0.2595655918121338 -0.03717818856239319 0.003556162118911743 0.002258235588669777 0 0 0 0
2397022244 0.2747194766998291 -0.06075471267104149 0.0037228837609291077 0.0027861278504133224 0 0 0 0
2400744328 0.28513672947883606 -0.08876550197601318 0.004486072808504105 0.003175787627696991 0 0 0 0
2404466412 0.2936137616634369 -0.11629990488290787 0.005800076760351658 0.002795407548546791 0 0 0 0
2408188496 0.29485973715782166 -0.14780324697494507 0.006892978213727474 0.0016606850549578667 0 0 0 0
2411910580 0.2957803010940552 -0.17335456609725952 0.007702273316681385 0.0003686221316456795 0 0 0 0
2415632664 0.2875255048274994 -0.20140135288238525 0.007889069616794586 -0.001050594262778759 0 0 0 0
2419354748 0.27766668796539307 -0.230153888463974 0.007897457107901573 -0.002392408438026905 0 0 0 0
2423076832 0.2627958655357361 -0.2523975372314453 0.0076688556000590324 -0.004084285348653793 0 0 0 0
2426798916 0.2411315143108368 -0.27674299478530884 0.006773063912987709 -0.005566670559346676 0 0 0 0
2430521000 0.21783863008022308 -0.29647403955459595 0.006227568723261356 -0.004781542345881462 0 0 0 0
2434243084 0.19731010496616364 -0.31171905994415283 0.004307204857468605 -0.007221991196274757 0 0 0 0
2437965168 0.17050886154174805 -0.3238654136657715 0.0031938068568706512 -0.00748441182076931 0 0 0 0
2441687252 0.1436694860458374 -0.3316613435745239 0.002211200073361397 -0.007814373821020126 0 0 0 0
2445409336 0.11552949249744415 -0.3361860513687134 0.0015385551378130913 -0.00807087030261755 0 0 0 0
2449131420 0.0832284539937973 -0.3352767527103424 0.000787428580224514 -0.00855629239231348 0 0 0 0
2452853504 0.056484468281269073 -0.3297518491744995 -0.00022644270211458206 -0.009199835360050201 0 0 0 0
2456575588 0.02579006552696228 -0.31936806440353394 -0.0013787606731057167 -0.009511828422546387 0 0 0 0
2460297672 -0.0005922550335526466 -0.3057516813278198 -0.0027056168764829636 -0.009973689913749695 0 0 0 0
2464019756 -0.021190956234931946 -0.28915929794311523 -0.004665137268602848 -0.010312297381460667 0 0 0 0
2467741840 -0.045620761811733246 -0.26699820160865784 -0.00653744675219059 -0.009865093044936657 0 0 0 0
2471463924 -0.06428918242454529 -0.243270605802536 -0.008347058668732643 -0.009163027629256248 0 0 0 0
2475186008 -0.07770083099603653 -0.2179529070854187 -0.010113289579749107 -0.008239774033427238 0 0 0 0
2478908092 -0.08800175786018372 -0.18882225453853607 -0.011944698169827461 -0.007025387138128281 0 0 0 0
2482630176 -0.09785313159227371 -0.15648353099822998 -0.01352601032704115 -0.004910929128527641 0 0 0 0
2486352260 -0.09734909981489182 -0.12552917003631592 -0.014727264642715454 -0.002717377617955208 0 0 0 0
2490074344 -0.09375205636024475 -0.09386636316776276 -0.01566825620830059 -0.00024934113025665283 0 0 0 0
2493796428 -0.0846443772315979 -0.06250561773777008 -0.01593669131398201 0.0024565644562244415 0 0 0 0
2497518512 -0.07049304246902466 -0.033649422228336334 -0.015545125119388103 0.005454679951071739 0 0 0 0
2501240596 -0.05212526395916939 -0.007015148177742958 -0.014620796777307987 0.008161688223481178 0 0 0 0
2504962680 -0.02969634346663952 0.01599748246371746 -0.013413073495030403 0.010698775760829449 0 0 0 0
2508684764 -0.003592316061258316 0.034992851316928864 -0.011589317582547665 0.013317580334842205 0 0 0 0
2512406848 0.02461972087621689 0.049586888402700424 -0.009120826609432697 0.015825528651475906 0 0 0 0
2516128932 0.055467795580625534 0.05932115763425827 -0.006008461117744446 0.017647214233875275 0 0 0 0
2519851016 0.0870857685804367 0.06417497992515564 -0.0019754311069846153 0.018332790583372116 0 0 0 0
2523573100 0.1192300021648407 0.06301014125347137 0.0015530381351709366 0.018128158524632454 0 0 0 0
2527295184 0.1505862921476364 0.056388065218925476 0.005001354962587357 0.017112087458372116 0 0 0 0
2531017268 0.17932477593421936 0.04282548278570175 0.008035126142203808 0.015660323202610016 0 0 0 0
2534739352 0.20383310317993164 0.02565719187259674 0.01095063891261816 0.013604765757918358 0 0 0 0
2538461436 0.2249276041984558 0.005959965288639069 0.013186164200305939 0.010984566062688828 0 0 0 0
2542183520 0.24196135997772217 -0.016302548348903656 0.014727924950420856 0.007814832963049412 0 0 0 0
2545905604 0.2542012631893158 -0.041245318949222565 0.015609340742230415 0.0047000255435705185 0 0 0 0
2549627688 0.26332539319992065 -0.06420010328292847 0.01584906317293644 0.0014443602412939072 0 0 0 0
2553349772 0.26815474033355713 -0.08676935732364655 0.015440693125128746 -0.0018984563648700714 0 0 0 0
2557071856 0.26772230863571167 -0.11377808451652527 0.014087099581956863 -0.005279267206788063 0 0 0 0
2560793940 0.2654664218425751 -0.13528026640415192 0.011964353732764721 -0.007575329393148422 0 0 0 0
2564516024 0.2590318024158478 -0.1577809453010559 0.009625021368265152 -0.009217578917741776 0 0 0 0
2568238108 0.24972690641880035 -0.17741167545318604 0.007534111849963665 -0.010080804117023945 0 0 0 0
2571960192 0.24063310027122498 -0.19341620802879333 0.005470701493322849 -0.010701028630137444 0 0 0 0
2575682276 0.22886395454406738 -0.20851567387580872 0.0034324917942285538 -0.0108670424669981 0 0 0 0
2579404360 0.21545815467834473 -0.22146859765052795 0.0016509080305695534 -0.010744680650532246 0 0 0 0
2583126444 0.20133863389492035 -0.23277640342712402 0.00016188248991966248 -0.010692005977034569 0 0 0 0
2586848528 0.18460604548454285 -0.24368679523468018 -0.0016401438042521477 -0.010404376313090324 0 0 0 0
2590570612 0.16802944242954254 -0.25074243545532227 -0.003256840631365776 -0.009942779317498207 0 0 0 0
2594292696 0.15021510422229767 -0.2552470564842224 -0.005005634389817715 -0.008756153285503387 0 0 0 0
2598014780 0.13377079367637634 -0.25772181153297424 -0.006051311269402504 -0.007564906030893326 0 0 0 0
2601736864 0.11461204290390015 -0.25981786847114563 -0.007077985443174839 -0.006178378127515316 0 0 0 0
2605458948 0.09733137488365173 -0.25461673736572266 -0.007580140605568886 -0.0044301338493824005 0 0 0 0
2609181032 0.07687195390462875 -0.249349907040596 -0.007537415251135826 -0.002692926675081253 0 0 0 0
2612903116 0.06161266565322876 -0.24016204476356506 -0.007327748462557793 -0.0015434352681040764 0 0 0 0
2616625200 0.0471959114074707 -0.2273145616054535 -0.006654536351561546 -0.000507161021232605 0 0 0 0
2620347284 0.03675432503223419 -0.21516042947769165 -0.005929657258093357 0.0001900792121887207 0 0 0 0
2624069368 0.029135264456272125 -0.20079070329666138 -0.0052965618669986725 0.0008432818576693535 0 0 0 0
2627791452 0.025949150323867798 -0.18498963117599487 -0.00486600399017334 0.000981837511062622 0 0 0 0
2631513536 0.023027004674077034 -0.17020338773727417 -0.004526233300566673 0.0009123543277382851 0 0 0 0
2635235620 0.02173025906085968 -0.155490905046463 -0.004448520950973034 0.0013125613331794739 0 0 0 0
2638957704 0.02455783635377884 -0.14119257032871246 -0.004248452372848988 0.001718803308904171 0 0 0 0
2642679788 0.028048289939761162 -0.1300627738237381 -0.003805188462138176 0.0021522575989365578 0 0 0 0
2646401872 0.03515571728348732 -0.11854854226112366 -0.0033297324553132057 0.0022952398285269737 0 0 0 0
2650123956 0.04282873496413231 -0.10778789222240448 -0.002909913659095764 0.002080880105495453 0 0 0 0
2653846040 0.052777696400880814 -0.09806779026985168 -0.002652612514793873 0.002019262872636318 0 0 0 0
2657568124 0.06581437587738037 -0.09162913262844086 -0.002918560989201069 0.0017108283936977386 0 0 0 0
2661290208 0.07939328253269196 -0.0890304371714592 -0.003113863058388233 0.0019176946952939034 0 0 0 0
2665012292 0.09192940592765808 -0.09027127921581268 -0.0030998243018984795 0.002492816187441349 0 0 0 0
2668734376 0.10363907366991043 -0.0944473072886467 -0.002893521450459957 0.002950746566057205 0 0 0 0
2672456460 0.11416696012020111 -0.09993137419223785 -0.002477404661476612 0.0032854918390512466 0 0 0 0
2676178544 0.121799036860466 -0.10922478139400482 -0.0022142790257930756 0.0035773254930973053 0 0 0 0
2679900628 0.12828978896141052 -0.11789451539516449 -0.0015309108421206474 0.004186744801700115 0 0 0 0
2683622712 0.13240161538124084 -0.12701402604579926 -0.0008517997339367867 0.004633636213839054 0 0 0 0
2687344796 0.13153649866580963 -0.1381436288356781 6.589014083147049e-05 0.004822959192097187 0 0 0 0
2691066880 0.13143041729927063 -0.14729638397693634 0.0011356770992279053 0.004371992312371731 0 0 0 0
2694788964 0.12667790055274963 -0.15650330483913422 0.0016779592260718346 0.004251668229699135 0 0 0 0
2698511048 0.12187356501817703 -0.1648397296667099 0.002576651982963085 0.003845691680908203 0 0 0 0
2702233132 0.11785054206848145 -0.17151999473571777 0.0034342659637331963 0.003253231756389141 0 0 0 0
2705955216 0.10878035426139832 -0.18059217929840088 0.004075061529874802 0.0024533458054065704 0 0 0 0
2709677300 0.09998908638954163 -0.18732839822769165 0.004412343725562096 0.0014618299901485443 0 0 0 0
2713399384 0.08950881659984589 -0.1905277520418167 0.004399371333420277 0.0004302188754081726 0 0 0 0
2717121468 0.07706853747367859 -0.19264309108257294 0.004234367981553078 -0.0005138702690601349 0 0 0 0
2720843552 0.06366779655218124 -0.1934984028339386 0.0037768715992569923 -0.0013459762558341026 0 0 0 0
2724565636 0.050201963633298874 -0.19002537429332733 0.0032232534140348434 -0.0021330853924155235 0 0 0 0
2728287720 0.036082908511161804 -0.18465617299079895 0.002511129714548588 -0.0023688124492764473 0 0 0 0
2732009804 0.023439770564436913 -0.1758555769920349 0.0019651586189866066 -0.0026425933465361595 0 0 0 0
2735731888 0.014336295425891876 -0.16411468386650085 0.0015941541641950607 -0.0025457125157117844 0 0 0 0
2739453972 0.005881421267986298 -0.1521655172109604 0.001114480197429657 -0.0026829028502106667 0 0 0 0
2743176056 -0.0012481510639190674 -0.13659700751304626 0.0006710225716233253 -0.0026887161657214165 0 0 0 0
2746898140 -0.005927231162786484 -0.1207306981086731 0.0004517883062362671 -0.0024984870105981827 0 0 0 0
2750620224 -0.007477030158042908 -0.10370443761348724 0.00039622001349925995 -0.0025876807048916817 0 0 0 0
2754342308 -0.004959229379892349 -0.08664888143539429 0.0003466969355940819 -0.0028648190200328827 0 0 0 0
2758064392 -0.0009227888658642769 -0.06971051543951035 2.3457221686840057e-05 -0.0032646413892507553 0 0 0 0
2761786476 0.0062213679775595665 -0.05268120393157005 -0.0008566742762923241 -0.0033100182190537453 0 0 0 0
2765508560 0.01637524738907814 -0.03677109256386757 -0.0016652364283800125 -0.002930277958512306 0 0 0 0
2769230644 0.02939530834555626 -0.02261022850871086 -0.0020630676299333572 -0.0023225033655762672 0 0 0 0
2772952728 0.04481525719165802 -0.009996907785534859 -0.0019089216366410255 -0.0016035009175539017 0 0 0 0
2776674812 0.06332466751337051 -0.0005020573735237122 -0.001791955903172493 -0.0013322550803422928 0 0 0 0
2780396896 0.08368407189846039 0.006240351125597954 -0.0016172472387552261 -0.0013774028047919273 0 0 0 0
2784118980 0.10436863452196121 0.00893457606434822 -0.0019121989607810974 -0.001294872723519802 0 0 0 0
2787841064 0.1257725954055786 0.009768664836883545 -0.0022189226001501083 -0.0008481107652187347 0 0 0 0
2791563148 0.14747917652130127 0.006459765136241913 -0.0018640654161572456 -0.00030267611145973206 0 0 0 0
2795285232 0.17005546391010284 -0.0008107889443635941 -0.0016136597841978073 -1.7778947949409485e-05 0 0 0 0
2799007316 0.19116786122322083 -0.011932700872421265 -0.0012462195008993149 6.031990051269531e-05 0 0 0 0
2802729400 0.2104315310716629 -0.029316473752260208 -0.000922011211514473 -0.00025390367954969406 0 0 0 0
2806451484 0.22597068548202515 -0.04647094011306763 -0.0011174743995070457 -0.000548643060028553 0 0 0 0
2810173568 0.23860017955303192 -0.06309797614812851 -0.0015909774228930473 -0.0004697749391198158 0 0 0 0
2813895652 0.24834848940372467 -0.0864611268043518 -0.0018553892150521278 -0.00012809783220291138 0 0 0 0
2817617736 0.25390055775642395 -0.11033529043197632 -0.0015905769541859627 0.0003336761146783829 0 0 0 0
2821339820 0.25524356961250305 -0.13396155834197998 -0.0012573162093758583 0.0005030948668718338 0 0 0 0
2825061904 0.254188597202301 -0.15728150308132172 -0.0010234266519546509 0.0005979593843221664 0 0 0 0
2828783988 0.24992935359477997 -0.18081864714622498 -0.0007943492382764816 0.0006043054163455963 0 0 0 0
2832506072 0.24477508664131165 -0.20116840302944183 -0.000756341964006424 0.0006790086627006531 0 0 0 0
2836228156 0.23159357905387878 -0.22539448738098145 -0.0005580009892582893 0.000822748988866806 0 0 0 0
2839950240 0.21880289912223816 -0.24379092454910278 -0.0002893870696425438 0.0007292283698916435 0 0 0 0
2843672324 0.20346003770828247 -0.26120543479919434 -0.0001140078529715538 0.000664418563246727 0 0 0 0
2847394408 0.1880033165216446 -0.27322906255722046 4.031788557767868e-05 0.00040588434785604477 0 0 0 0
2851116492 0.16708806157112122 -0.2882429361343384 0.00014419108629226685 0.00033614691346883774 0 0 0 0
2854838576 0.14295995235443115 -0.3008381724357605 0.00019591860473155975 0.0002725394442677498 0 0 0 0
2858560660 0.13018226623535156 -0.306551992893219 0.000385933555662632 -0.00018394924700260162 0 0 0 0
2862282744 0.10154009610414505 -0.31358304619789124 0.0003611613065004349 -0.00016970094293355942 0 0 0 0
2866004828 0.07773636281490326 -0.31428858637809753 0.0005052220076322556 -0.00025367550551891327 0 0 0 0
2869726912 0.05441366881132126 -0.31409019231796265 0.0006625643000006676 -0.00039530079811811447 0 0 0 0
2873448996 0.034766584634780884 -0.31027647852897644 0.0006231311708688736 -0.0006327573210000992 0 0 0 0
2877171080 0.011803686618804932 -0.3029879033565521 0.0006493283435702324 -0.0007727164775133133 0 0 0 0
2880893164 -0.011626800522208214 -0.29525887966156006 0.00041671283543109894 -0.0010027065873146057 0 0 0 0
2884615248 -0.03570197522640228 -0.28085005283355713 0.0001309327781200409 -0.0010270606726408005 0 0 0 0
2888337332 -0.05258619040250778 -0.2668898105621338 2.9277987778186798e-05 -0.0009587835520505905 0 0 0 0
2892059416 -0.06949099153280258 -0.24909603595733643 -0.00012505147606134415 -0.0009010294452309608 0 0 0 0
2895781500 -0.08771687746047974 -0.2277807891368866 -0.0002935556694865227 -0.0007976982742547989 0 0 0 0
2899503584 -0.09740258008241653 -0.20586806535720825 -0.0003643585368990898 -0.0005250759422779083 0 0 0 0
2903225668 -0.10761243104934692 -0.1824278086423874 -0.00026578549295663834 -0.0003383476287126541 0 0 0 0
2906947752 -0.11311329901218414 -0.15780335664749146 5.602370947599411e-05 -0.00010351091623306274 0 0 0 0
2910669836 -0.11708401888608932 -0.13208620250225067 0.00021925289183855057 -0.0001500975340604782 0 0 0 0
2914391920 -0.11491423100233078 -0.10721170902252197 0.0003773849457502365 -0.0002402057871222496 0 0 0 0
2918114004 -0.110773965716362 -0.08376619219779968 0.00040071457624435425 -0.0004524076357483864 0 0 0 0
2921836088 -0.10420431941747665 -0.060308557003736496 0.00034984759986400604 -0.00044219475239515305 0 0 0 0
2925558172 -0.09649497270584106 -0.03828139975667 0.00040233321487903595 -0.0005266480147838593 0 0 0 0
2929280256 -0.0851958692073822 -0.01564469188451767 0.0002908790484070778 -0.0006000511348247528 0 0 0 0
2933002340 -0.07056072354316711 0.005246155895292759 0.00016809068620204926 -0.0005702730268239975 0 0 0 0
2936724424 -0.054218508303165436 0.02345016971230507 6.122887134552002e-05 -0.0004706652835011482 0 0 0 0
2940446508 -0.03560921922326088 0.03991226851940155 3.753043711185455e-05 -0.00037596095353364944 0 0 0 0
2944168592 -0.014468071982264519 0.055173110216856 -6.614159792661667e-05 -0.00016267038881778717 0 0 0 0
2947890676 0.008910022675991058 0.06772743910551071 -7.279589772224426e-05 0.00011546164751052856 0 0 0 0
2951612760 0.034888576716184616 0.07721230387687683 0.0002168780192732811 0.0004062000662088394 0 0 0 0
2955334844 0.06259319931268692 0.08261536806821823 0.0006868233904242516 0.0003334116190671921 0 0 0 0
2959056928 0.09078650921583176 0.08327106386423111 0.0008831257000565529 0.00019529368728399277 0 0 0 0
2962779012 0.1190919503569603 0.07870388776063919 0.0009977668523788452 0.0002229800447821617 0 0 0 0
2966501096 0.14567594230175018 0.07129059731960297 0.0011506276205182076 0.0003198627382516861 0 0 0 0
2970223180 0.1700117588043213 0.06009505316615105 0.0017075100913643837 0.0002222331240773201 0 0 0 0
2973945264 0.192640021443367 0.04294881224632263 0.001926938071846962 -0.00018498022109270096 0 0 0 0
2977667348 0.21289405226707458 0.02593674510717392 0.001869318075478077 -0.000643555074930191 0 0 0 0
2981389432 0.230052188038826 0.010105466470122337 0.0018006516620516777 -0.000720493495464325 0 0 0 0
2985111516 0.24406328797340393 -0.013308845460414886 0.0016989409923553467 -0.0010717930272221565 0 0 0 0
2988833600 0.25498098134994507 -0.03792839124798775 0.0015001492574810982 -0.0014306232333183289 0 0 0 0
2992555684 0.26166805624961853 -0.060795318335294724 0.0011050747707486153 -0.0015345420688390732 0 0 0 0
2996277768 0.2643032670021057 -0.08543599396944046 0.0008694464340806007 -0.0015571536496281624 0 0 0 0
2999999852 0.26640409231185913 -0.10804598778486252 0.0005731899291276932 -0.0016948357224464417 0 0 0 0
