# HZ S RI R 50
1500000000 -0.15236252546310425 0.004379723221063614 0.07114668935537338 -0.03426109254360199 0 0 0 0
1503722084 -0.12668776512145996 0.038571786135435104 0.06260903179645538 -0.04667719826102257 0 0 0 0
1507444168 -0.0944581925868988 0.06821168959140778 0.05091812089085579 -0.05691811442375183 0 0 0 0
1511166252 -0.05542835593223572 0.09255436807870865 0.03667811304330826 -0.06399714946746826 0 0 0 0
1514888336 -0.012552667409181595 0.10981760919094086 0.022724181413650513 -0.06688950955867767 0 0 0 0
1518610420 0.03516830503940582 0.1194746345281601 0.008497929200530052 -0.06627127528190613 0 0 0 0
1522332504 0.08417031168937683 0.1198861375451088 -0.002993900328874588 -0.06260570883750916 0 0 0 0
1526054588 0.13253681361675262 0.11210091412067413 -0.01278931088745594 -0.057130832225084305 0 0 0 0
1529776672 0.17984487116336823 0.09792567789554596 -0.020104598253965378 -0.05089535564184189 0 0 0 0
1533498756 0.22532130777835846 0.07449569553136826 -0.026139091700315475 -0.04416441544890404 0 0 0 0
1537220840 0.26801177859306335 0.04434125870466232 -0.030475622043013573 -0.03743065893650055 0 0 0 0
1540942924 0.3051685094833374 0.0066538527607917786 -0.03334852680563927 -0.030674848705530167 0 0 0 0
1544665008 0.33729687333106995 -0.03903216868638992 -0.03503747656941414 -0.024829132482409477 0 0 0 0
1548387092 0.3612443804740906 -0.08871953189373016 -0.036402877420186996 -0.019171666353940964 0 0 0 0
1552109176 0.37703800201416016 -0.1409885287284851 -0.03747640922665596 -0.013407447375357151 0 0 0 0
1555831260 0.38444089889526367 -0.19768033921718597 -0.037283092737197876 -0.0077300481498241425 0 0 0 0
1559553344 0.3826617896556854 -0.25410783290863037 -0.036164455115795135 -0.0020799245685338974 0 0 0 0
1563275428 0.37207040190696716 -0.3098750710487366 -0.03432295098900795 0.002556845545768738 0 0 0 0
1566997512 0.3520664572715759 -0.36710816621780396 -0.03188714757561684 0.006783574819564819 0 0 0 0
1570719596 0.3264121115207672 -0.4179222285747528 -0.029296275228261948 0.010207755491137505 0 0 0 0
1574441680 0.28911176323890686 -0.46608030796051025 -0.02658236026763916 0.01291232742369175 0 0 0 0
1578163764 0.24545326828956604 -0.5082203149795532 -0.024127336218953133 0.015051948837935925 0 0 0 0
1581885848 0.1986062377691269 -0.5403432250022888 -0.021673690527677536 0.017028888687491417 0 0 0 0
1585607932 0.1429140269756317 -0.5666767358779907 -0.019007639959454536 0.01886727474629879 0 0 0 0
1589330016 0.08369952440261841 -0.5844666361808777 -0.01628771610558033 0.020063020288944244 0 0 0 0
1593052100 0.023204565048217773 -0.5948876142501831 -0.014127090573310852 0.021240882575511932 0 0 0 0
1596774184 -0.038495175540447235 -0.5983763933181763 -0.012009719386696815 0.02274952083826065 0 0 0 0
1600496268 -0.09676692634820938 -0.5905002355575562 -0.009848435409367085 0.02456163987517357 0 0 0 0
1604218352 -0.1576308161020279 -0.5720533728599548 -0.006500033661723137 0.0263512060046196 0 0 0 0
1607940436 -0.21301133930683136 -0.5486724376678467 -0.0024378858506679535 0.027491817250847816 0 0 0 0
1611662520 -0.2666860818862915 -0.5153865814208984 0.0017949212342500687 0.027849290519952774 0 0 0 0
1615384604 -0.31786343455314636 -0.4731694161891937 0.006350737996399403 0.027460534125566483 0 0 0 0
1619106688 -0.35751819610595703 -0.4262130856513977 0.010489525273442268 0.026232348755002022 0 0 0 0
1622828772 -0.3935268521308899 -0.37512287497520447 0.014806505292654037 0.02470090612769127 0 0 0 0
1626550856 -0.4216531217098236 -0.31934481859207153 0.019214555621147156 0.022169847041368484 0 0 0 0
1630272940 -0.4442526698112488 -0.2593204081058502 0.02308865636587143 0.01844090409576893 0 0 0 0
1633995024 -0.4585806727409363 -0.1906314641237259 0.026043623685836792 0.013757218606770039 0 0 0 0
1637717108 -0.4624301493167877 -0.12236131727695465 0.02816539816558361 0.008575333282351494 0 0 0 0
1641439192 -0.4577520489692688 -0.05298991501331329 0.028895583003759384 0.0026215752586722374 0 0 0 0
1645161276 -0.4419515132904053 0.020122822374105453 0.028146076947450638 -0.003222445957362652 0 0 0 0
1648883360 -0.41428154706954956 0.08893141150474548 0.02625730261206627 -0.008226566947996616 0 0 0 0
1652605444 -0.3752223551273346 0.151397705078125 0.023436231538653374 -0.012370116077363491 0 0 0 0
1656327528 -0.32483285665512085 0.21153876185417175 0.020031791180372238 -0.01584150642156601 0 0 0 0
1660049612 -0.2672184109687805 0.2607285976409912 0.016426075249910355 -0.018570566549897194 0 0 0 0
1663771696 -0.20062938332557678 0.30139297246932983 0.011981970630586147 -0.020769473165273666 0 0 0 0
1667493780 -0.12996633350849152 0.33297795057296753 0.0073860762640833855 -0.02189464680850506 0 0 0 0
1671215864 -0.05707639455795288 0.3539388179779053 0.002624127082526684 -0.021879008039832115 0 0 0 0
1674937948 0.02398473024368286 0.36621448397636414 -0.0018720310181379318 -0.020441938191652298 0 0 0 0
1678660032 0.10712066292762756 0.36274126172065735 -0.0052514830604195595 -0.018080970272421837 0 0 0 0
1682382116 0.18572892248630524 0.3472867012023926 -0.007575800642371178 -0.015469583682715893 0 0 0 0
1686104200 0.26505032181739807 0.31829553842544556 -0.009327615611255169 -0.012651460245251656 0 0 0 0
1689826284 0.33801740407943726 0.275683730840683 -0.01007025595754385 -0.009739810600876808 0 0 0 0
1693548368 0.4028394818305969 0.2225990742444992 -0.010188178159296513 -0.0073075974360108376 0 0 0 0
1697270452 0.45713239908218384 0.16197358071804047 -0.009967522695660591 -0.005411754362285137 0 0 0 0
1700992536 0.5025035738945007 0.0907992422580719 -0.009533047676086426 -0.0038488833233714104 0 0 0 0
1704714620 0.5343437790870667 0.014196693897247314 -0.009294198825955391 -0.002433842048048973 0 0 0 0
1708436704 0.5538364052772522 -0.06628571450710297 -0.008687177672982216 -0.0007568318396806717 0 0 0 0
1712158788 0.5603510737419128 -0.1466682255268097 -0.007494601421058178 0.00038228556513786316 0 0 0 0
1715880872 0.5535174608230591 -0.22559045255184174 -0.006426085717976093 0.0010525481775403023 0 0 0 0
1719602956 0.5349645614624023 -0.3044463098049164 -0.005106469616293907 0.001381170004606247 0 0 0 0
1723325040 0.5037376880645752 -0.3777804374694824 -0.004080671817064285 0.0010897135362029076 0 0 0 0
1727047124 0.4663989543914795 -0.44157570600509644 -0.0035603679716587067 0.00045659951865673065 0 0 0 0
1730769208 0.41295456886291504 -0.5019076466560364 -0.0035382630303502083 7.538590580224991e-05 0 0 0 0
1734491292 0.35405534505844116 -0.553180992603302 -0.0036611026152968407 -0.00020874664187431335 0 0 0 0
1738213376 0.2934700846672058 -0.5896621942520142 -0.003907696343958378 -0.0004279976710677147 0 0 0 0
1741935460 0.2263377159833908 -0.618664026260376 -0.004303434863686562 -0.0005854330956935883 0 0 0 0
1745657544 0.15381352603435516 -0.6361790895462036 -0.004944240674376488 -0.0006475374102592468 0 0 0 0
1749379628 0.0808272659778595 -0.6425639986991882 -0.005748964846134186 -0.00025700218975543976 0 0 0 0
1753101712 0.01204470545053482 -0.636425256729126 -0.006107705645263195 0.0004708217456936836 0 0 0 0
1756823796 -0.055467769503593445 -0.6206001043319702 -0.006555180065333843 0.001142682507634163 0 0 0 0
1760545880 -0.11623075604438782 -0.5944257974624634 -0.006757842376828194 0.0019342489540576935 0 0 0 0
1764267964 -0.17569011449813843 -0.5607048273086548 -0.0068086860701441765 0.0028135869652032852 0 0 0 0
1767990048 -0.22420278191566467 -0.5212876796722412 -0.006857765838503838 0.0036470945924520493 0 0 0 0
1771712132 -0.2651599049568176 -0.47417303919792175 -0.006812565959990025 0.004262998700141907 0 0 0 0
1775434216 -0.3007069230079651 -0.4220324754714966 -0.007160812616348267 0.0049995481967926025 0 0 0 0
1779156300 -0.32527920603752136 -0.3702961504459381 -0.0075802067294716835 0.0060861483216285706 0 0 0 0
1782878384 -0.345431923866272 -0.3126074969768524 -0.00793483667075634 0.007686262018978596 0 0 0 0
1786600468 -0.35592058300971985 -0.2556826174259186 -0.007975062355399132 0.009851265698671341 0 0 0 0
1790322552 -0.3600037097930908 -0.19524723291397095 -0.007266524247825146 0.012418091297149658 0 0 0 0
1794044636 -0.3531282842159271 -0.1378570795059204 -0.005889583379030228 0.01486879214644432 0 0 0 0
1797766720 -0.3398810029029846 -0.0815497487783432 -0.003932700492441654 0.017505275085568428 0 0 0 0
1801488804 -0.31866616010665894 -0.027906492352485657 -0.0009716106578707695 0.020316151902079582 0 0 0 0
1805210888 -0.28982341289520264 0.02136731520295143 0.003368920646607876 0.022830205038189888 0 0 0 0
1808932972 -0.25335824489593506 0.0692688599228859 0.009393861517310143 0.023859728127717972 0 0 0 0
1812655056 -0.207729771733284 0.10841759294271469 0.015687743201851845 0.02266467735171318 0 0 0 0
1816377140 -0.1566486656665802 0.13837078213691711 0.021486276760697365 0.019953502342104912 0 0 0 0
1820099224 -0.1020161360502243 0.15832750499248505 0.027006831020116806 0.015331201255321503 0 0 0 0
1823821308 -0.04704468324780464 0.16790996491909027 0.03099769726395607 0.009164532646536827 0 0 0 0
1827543392 0.008159331977367401 0.16918489336967468 0.0330597460269928 0.001955808140337467 0 0 0 0
1831265476 0.0604838952422142 0.16105306148529053 0.03290439769625664 -0.005348253063857555 0 0 0 0
1834987560 0.10823145508766174 0.14701923727989197 0.03135988861322403 -0.012125080451369286 0 0 0 0
1838709644 0.15418703854084015 0.12433895468711853 0.028094444423913956 -0.018401406705379486 0 0 0 0
1842431728 0.19416964054107666 0.0958734005689621 0.024019114673137665 -0.02331390045583248 0 0 0 0
1846153812 0.22726692259311676 0.06217911094427109 0.019046111032366753 -0.027304595336318016 0 0 0 0
1849875896 0.2533641755580902 0.025359980762004852 0.013752082362771034 -0.0299668088555336 0 0 0 0
1853597980 0.27451092004776 -0.012421723455190659 0.008097773417830467 -0.03152463957667351 0 0 0 0
1857320064 0.28898829221725464 -0.05290369689464569 0.00299884844571352 -0.03213787451386452 0 0 0 0
1861042148 0.2953900396823883 -0.09584511816501617 -0.0018046339973807335 -0.03271378204226494 0 0 0 0
1864764232 0.29433727264404297 -0.13613392412662506 -0.007255125790834427 -0.03334672749042511 0 0 0 0
1868486316 0.28917157649993896 -0.1741582602262497 -0.013854462653398514 -0.03231147676706314 0 0 0 0
1872208400 0.27627497911453247 -0.21154379844665527 -0.019803084433078766 -0.029193876311182976 0 0 0 0
1875930484 0.2623341679573059 -0.24251125752925873 -0.024380400776863098 -0.02538606896996498 0 0 0 0
1879652568 0.2388661950826645 -0.2737728953361511 -0.02873813733458519 -0.020631898194551468 0 0 0 0
1883374652 0.21476875245571136 -0.2995801568031311 -0.032167866826057434 -0.01584802381694317 0 0 0 0
1887096736 0.18409977853298187 -0.3199126720428467 -0.03512701764702797 -0.010637706145644188 0 0 0 0
1890818820 0.14954228699207306 -0.33475738763809204 -0.03724240884184837 -0.00388395506888628 0 0 0 0
1894540904 0.11831937730312347 -0.34178784489631653 -0.03790569677948952 0.002901153638958931 0 0 0 0
1898262988 0.08295781910419464 -0.343515545129776 -0.037293557077646255 0.00969836488366127 0 0 0 0
1901985072 0.05263242498040199 -0.33926716446876526 -0.035030871629714966 0.016469445079565048 0 0 0 0
1905707156 0.02240603417158127 -0.3300836682319641 -0.03165372833609581 0.022320792078971863 0 0 0 0
1909429240 -0.005106106400489807 -0.3158918619155884 -0.027349403128027916 0.027719799429178238 0 0 0 0
1913151324 -0.02701307088136673 -0.29882803559303284 -0.02290150336921215 0.03222160413861275 0 0 0 0
1916873408 -0.047742269933223724 -0.2780573070049286 -0.016877001151442528 0.03672005236148834 0 0 0 0
1920595492 -0.06430641561746597 -0.25345727801322937 -0.00976346805691719 0.040034253150224686 0 0 0 0
1924317576 -0.07334564626216888 -0.22854720056056976 -0.0016782339662313461 0.041712161153554916 0 0 0 0
1928039660 -0.08061456680297852 -0.20276066660881042 0.006923549808561802 0.041537851095199585 0 0 0 0
1931761744 -0.08431333303451538 -0.17641285061836243 0.01522187888622284 0.03891892731189728 0 0 0 0
1935483828 -0.08209986984729767 -0.15023775398731232 0.022264163941144943 0.03436848148703575 0 0 0 0
1939205912 -0.07769516855478287 -0.12340438365936279 0.02762249857187271 0.028753478080034256 0 0 0 0
1942927996 -0.06852056086063385 -0.09626001119613647 0.03144411742687225 0.022444643080234528 0 0 0 0
1946650080 -0.05223848298192024 -0.07215779274702072 0.03387602046132088 0.016757450997829437 0 0 0 0
1950372164 -0.03225325047969818 -0.050332121551036835 0.03586788848042488 0.011031771078705788 0 0 0 0
1954094248 -0.007831171154975891 -0.03320695459842682 0.03762410581111908 0.004977299831807613 0 0 0 0
1957816332 0.019392244517803192 -0.02197829633951187 0.03849094733595848 -0.0022141719236969948 0 0 0 0
1961538416 0.04832020401954651 -0.015685953199863434 0.037071604281663895 -0.00968375988304615 0 0 0 0
1965260500 0.07822633534669876 -0.01569002866744995 0.03432847186923027 -0.016342438757419586 0 0 0 0
1968982584 0.1073775589466095 -0.022895392030477524 0.03058360517024994 -0.021822987124323845 0 0 0 0
1972704668 0.13282053172588348 -0.03429761901497841 0.02594860829412937 -0.02720101922750473 0 0 0 0
1976426752 0.15619435906410217 -0.04922812804579735 0.020536143332719803 -0.031540434807538986 0 0 0 0
1980148836 0.17665667831897736 -0.06938594579696655 0.013658621348440647 -0.03512459993362427 0 0 0 0
1983870920 0.1929134726524353 -0.09163346141576767 0.006393912248313427 -0.03694014251232147 0 0 0 0
1987593004 0.20365998148918152 -0.11725284159183502 -0.0009244503453373909 -0.03680074214935303 0 0 0 0
1991315088 0.20862257480621338 -0.14398422837257385 -0.007849879562854767 -0.03549959138035774 0 0 0 0
1995037172 0.20870818197727203 -0.17170003056526184 -0.014283970929682255 -0.032891321927309036 0 0 0 0
1998759256 0.2051612138748169 -0.19690951704978943 -0.019936349242925644 -0.028704538941383362 0 0 0 0
2002481340 0.19638575613498688 -0.22268645465373993 -0.02374100312590599 -0.02420162968337536 0 0 0 0
2006203424 0.1846008151769638 -0.24346834421157837 -0.026643937453627586 -0.019554292783141136 0 0 0 0
2009925508 0.16571886837482452 -0.2634444534778595 -0.029070451855659485 -0.0148794399574399 0 0 0 0
2013647592 0.1487666666507721 -0.2790480852127075 -0.03094380721449852 -0.01027559395879507 0 0 0 0
2017369676 0.12858548760414124 -0.29225772619247437 -0.032833248376846313 -0.005499166436493397 0 0 0 0
2021091760 0.10365369915962219 -0.30283603072166443 -0.0340665727853775 0.0003074314445257187 0 0 0 0
2024813844 0.07696816325187683 -0.30850961804389954 -0.03362731263041496 0.0067215245217084885 0 0 0 0
2028535928 0.054470494389534 -0.3093258738517761 -0.03235306218266487 0.013132510706782341 0 0 0 0
2032258012 0.026640066877007484 -0.306894987821579 -0.028929250314831734 0.018985256552696228 0 0 0 0
2035980096 -0.0003440976142883301 -0.3009515702724457 -0.024486418813467026 0.023682953789830208 0 0 0 0
2039702180 -0.026231449097394943 -0.2881050407886505 -0.019656822085380554 0.02726515755057335 0 0 0 0
2043424264 -0.04942692071199417 -0.27220726013183594 -0.014364087022840977 0.02991335652768612 0 0 0 0
2047146348 -0.0703311562538147 -0.2517969608306885 -0.009119048714637756 0.031196119263768196 0 0 0 0
2050868432 -0.08669506013393402 -0.2282046675682068 -0.003655875101685524 0.03195235878229141 0 0 0 0
2054590516 -0.09940140694379807 -0.20228753983974457 0.0011279275640845299 0.0317547544836998 0 0 0 0
2058312600 -0.10743573307991028 -0.1743706464767456 0.006181830540299416 0.031183786690235138 0 0 0 0
2062034684 -0.11299359053373337 -0.14437147974967957 0.011692795902490616 0.02952171117067337 0 0 0 0
2065756768 -0.11357609927654266 -0.11330924183130264 0.01652440056204796 0.02718176320195198 0 0 0 0
2069478852 -0.10976339876651764 -0.0804418995976448 0.020810872316360474 0.02366812527179718 0 0 0 0
2073200936 -0.09943105280399323 -0.049300022423267365 0.024225229397416115 0.019194459542632103 0 0 0 0
2076923020 -0.08329145610332489 -0.01810142770409584 0.02628711797297001 0.01459223497658968 0 0 0 0
2080645104 -0.06127180531620979 0.009341655299067497 0.027303697541356087 0.010042980313301086 0 0 0 0
2084367188 -0.034607965499162674 0.033564064651727676 0.028049472719430923 0.006209651939570904 0 0 0 0
2088089272 -0.003470722585916519 0.052488211542367935 0.02845269814133644 0.0027122795581817627 0 0 0 0
2091811356 0.030613701790571213 0.06567385792732239 0.029092326760292053 -0.001448608934879303 0 0 0 0
2095533440 0.0664631798863411 0.07234416157007217 0.029396062716841698 -0.00585619080811739 0 0 0 0
2099255524 0.10292064398527145 0.07171399891376495 0.028983324766159058 -0.01172974705696106 0 0 0 0
2102977608 0.13747967779636383 0.06743089854717255 0.027102312073111534 -0.017336014658212662 0 0 0 0
2106699692 0.17167629301548004 0.058798015117645264 0.023515529930591583 -0.022824671119451523 0 0 0 0
2110421776 0.20496641099452972 0.04156634956598282 0.01837526634335518 -0.026924021542072296 0 0 0 0
2114143860 0.23439279198646545 0.021654896438121796 0.013290191069245338 -0.0296173058450222 0 0 0 0
2117865944 0.2594746947288513 -0.005887880921363831 0.007364029996097088 -0.03173578903079033 0 0 0 0
2121588028 0.27847155928611755 -0.0367247611284256 0.0007711648941040039 -0.03283611312508583 0 0 0 0
2125310112 0.29256319999694824 -0.0669555515050888 -0.006087087094783783 -0.03207085654139519 0 0 0 0
2129032196 0.30172091722488403 -0.10014745593070984 -0.012399130500853062 -0.02949456311762333 0 0 0 0
2132754280 0.30502426624298096 -0.13347281515598297 -0.01727367378771305 -0.02563917078077793 0 0 0 0
2136476364 0.3042446970939636 -0.16629274189472198 -0.020995456725358963 -0.021178845316171646 0 0 0 0
2140198448 0.29648324847221375 -0.19956649839878082 -0.023688798770308495 -0.016257941722869873 0 0 0 0
2143920532 0.2834019660949707 -0.23147010803222656 -0.02502383664250374 -0.01168823428452015 0 0 0 0
2147642616 0.26736345887184143 -0.2576698362827301 -0.025578172877430916 -0.006923718377947807 0 0 0 0
2151364700 0.244998037815094 -0.28325334191322327 -0.0252949558198452 -0.0024746013805270195 0 0 0 0
2155086784 0.22392486035823822 -0.30251210927963257 -0.024446586146950722 0.00086956936866045 0 0 0 0
2158808868 0.19366450607776642 -0.3202384114265442 -0.023639215156435966 0.0041851457208395 0 0 0 0
2162530952 0.16585159301757812 -0.3310461640357971 -0.022691188380122185 0.00714598223567009 0 0 0 0
2166253036 0.13640263676643372 -0.33668506145477295 -0.021401306614279747 0.010180536657571793 0 0 0 0
2169975120 0.10701529681682587 -0.3383178412914276 -0.020188534632325172 0.013144491240382195 0 0 0 0
2173697204 0.07929523289203644 -0.33522552251815796 -0.018428990617394447 0.016226254403591156 0 0 0 0
2177419288 0.04921405017375946 -0.329163134098053 -0.01570977084338665 0.019450193271040916 0 0 0 0
2181141372 0.024581171572208405 -0.3183319568634033 -0.012296710163354874 0.022211235016584396 0 0 0 0
2184863456 8.808262646198273e-05 -0.3035247027873993 -0.008594675920903683 0.02425665780901909 0 0 0 0
2188585540 -0.02303965389728546 -0.2864799201488495 -0.004359189420938492 0.025897104293107986 0 0 0 0
2192307624 -0.04286980256438255 -0.2643406093120575 0.000539461150765419 0.026708204299211502 0 0 0 0
2196029708 -0.06003809720277786 -0.23986482620239258 0.006048044189810753 0.026364928111433983 0 0 0 0
2199751792 -0.06817872822284698 -0.21397699415683746 0.011008637957274914 0.02457025647163391 0 0 0 0
2203473876 -0.07694268226623535 -0.1845153272151947 0.015825750306248665 0.021275408565998077 0 0 0 0
2207195960 -0.0815960094332695 -0.15546353161334991 0.01915484108030796 0.017745286226272583 0 0 0 0
2210918044 -0.07963607460260391 -0.12420851737260818 0.02182459644973278 0.013475068844854832 0 0 0 0
2214640128 -0.06941644847393036 -0.09683822095394135 0.02367963083088398 0.009214266203343868 0 0 0 0
2218362212 -0.056839972734451294 -0.06975238025188446 0.024287261068820953 0.003942674025893211 0 0 0 0
2222084296 -0.040235735476017 -0.045430876314640045 0.023549513891339302 -0.001412825658917427 0 0 0 0
2225806380 -0.01959892362356186 -0.024686073884367943 0.022014252841472626 -0.005298823118209839 0 0 0 0
2229528464 0.004765006713569164 -0.00900025200098753 0.019929373636841774 -0.008915974758565426 0 0 0 0
2233250548 0.030602850019931793 0.0023952731862664223 0.017488138750195503 -0.011885779909789562 0 0 0 0
2236972632 0.057682547718286514 0.00910273753106594 0.01455760933458805 -0.014315863139927387 0 0 0 0
2240694716 0.08480551093816757 0.010630130767822266 0.011506849899888039 -0.016321828588843346 0 0 0 0
2244416800 0.11082516610622406 0.007939398288726807 0.008383313193917274 -0.01751071587204933 0 0 0 0
2248138884 0.1361551582813263 0.0036299973726272583 0.0048715462908148766 -0.018330596387386322 0 0 0 0
2251860968 0.1599871963262558 -0.0070340633392333984 0.0013994211331009865 -0.018546540290117264 0 0 0 0
2255583052 0.1817745417356491 -0.022802678868174553 -0.0021612411364912987 -0.017910061404109 0 0 0 0
2259305136 0.20271183550357819 -0.037542685866355896 -0.00500770378857851 -0.01668979600071907 0 0 0 0
2263027220 0.2161218523979187 -0.0630180835723877 -0.00750516913831234 -0.015049917623400688 0 0 0 0
2266749304 0.227625772356987 -0.08408268541097641 -0.009451223537325859 -0.013155659660696983 0 0 0 0
2270471388 0.23401039838790894 -0.10939209908246994 -0.011167308315634727 -0.011411945335566998 0 0 0 0
2274193472 0.2351139783859253 -0.1365971863269806 -0.012702003121376038 -0.009130176156759262 0 0 0 0
2277915556 0.23284251987934113 -0.15913090109825134 -0.013767491094768047 -0.006963614374399185 0 0 0 0
2281637640 0.22956648468971252 -0.17829594016075134 -0.014355865307152271 -0.004832583479583263 0 0 0 0
2285359724 0.21023818850517273 -0.20588897168636322 -0.014648295007646084 -0.002529834397137165 0 0 0 0
2289081808 0.2001255303621292 -0.22055388987064362 -0.01478058472275734 -6.72927126288414e-05 0 0 0 0
2292803892 0.1849210560321808 -0.23326312005519867 -0.014300611801445484 0.002143413759768009 0 0 0 0
2296525976 0.1609979122877121 -0.2473437637090683 -0.01335218083113432 0.004413725808262825 0 0 0 0
2300248060 0.14431610703468323 -0.25324907898902893 -0.011901789344847202 0.006356393918395042 0 0 0 0
2303970144 0.12477494031190872 -0.2626889944076538 -0.01039910688996315 0.007883385755121708 0 0 0 0
2307692228 0.10123614221811295 -0.2620941698551178 -0.009206516668200493 0.008947137743234634 0 0 0 0
2311414312 0.0775548666715622 -0.2607669234275818 -0.0070606982335448265 0.010158554650843143 0 0 0 0
2315136396 0.054143115878105164 -0.25569239258766174 -0.004733786918222904 0.010439002886414528 0 0 0 0
2318858480 0.030709408223628998 -0.24527111649513245 -0.0027481047436594963 0.009822970256209373 0 0 0 0
2322580564 0.015183977782726288 -0.230930358171463 -0.0015500038862228394 0.009028952568769455 0 0 0 0
2326302648 -0.0065357983112335205 -0.21181461215019226 -0.000772564671933651 0.008151840418577194 0 0 0 0
2330024732 -0.01688845455646515 -0.1907503604888916 -0.00023155100643634796 0.0075268372893333435 0 0 0 0
2333746816 -0.02290213294327259 -0.16885104775428772 6.087683141231537e-05 0.007089126855134964 0 0 0 0
2337468900 -0.0329313799738884 -0.1435583382844925 0.00045654643326997757 0.007080044597387314 0 0 0 0
2341190984 -0.03435787558555603 -0.11820577085018158 0.0012394227087497711 0.006617486476898193 0 0 0 0
2344913068 -0.030278749763965607 -0.09181534498929977 0.0016873357817530632 0.00599891971796751 0 0 0 0
2348635152 -0.022664163261651993 -0.0660780742764473 0.0020795315504074097 0.005662115290760994 0 0 0 0
2352357236 -0.00919514149427414 -0.04300326481461525 0.0023914147168397903 0.005223569460213184 0 0 0 0
2356079320 0.00889682024717331 -0.021807903423905373 0.002720557153224945 0.004683168604969978 0 0 0 0
2359801404 0.02955835685133934 -0.004365867003798485 0.0027996068820357323 0.004234546795487404 0 0 0 0
2363523488 0.05349268391728401 0.009688617661595345 0.003141818568110466 0.003612593747675419 0 0 0 0
2367245572 0.07957801967859268 0.019268309697508812 0.0026781028136610985 0.002893596887588501 0 0 0 0
2370967656 0.10732360184192657 0.023866059258580208 0.002336416393518448 0.002688290551304817 0 0 0 0
2374689740 0.1350584626197815 0.02389594539999962 0.0023127617314457893 0.0029789600521326065 0 0 0 0
2378411824 0.1622530221939087 0.01802361011505127 0.002373005263507366 0.0028416812419891357 0 0 0 0
2382133908 0.18816371262073517 0.010482162237167358 0.0025819148868322372 0.0026903776451945305 0 0 0 0
2385855992 0.21225592494010925 -0.005136169493198395 0.0025626979768276215 0.002681480720639229 0 0 0 0
2389578076 0.23329085111618042 -0.02175423502922058 0.0026323357596993446 0.0027599772438406944 0 0 0 0
2393300160 0.25088950991630554 -0.04206547141075134 0.0027392571792006493 0.00289254542440176 0 0 0 0
2397022244 0.26602503657341003 -0.06351383030414581 0.003138883039355278 0.0033038901165127754 0 0 0 0
2400744328 0.2768961191177368 -0.08852843940258026 0.004007301293313503 0.0034579187631607056 0 0 0 0
2404466412 0.28367602825164795 -0.11813630908727646 0.005265209823846817 0.0032279537990689278 0 0 0 0
2408188496 0.28863203525543213 -0.14165501296520233 0.006343609653413296 0.0025288593024015427 0 0 0 0
2411910580 0.28752201795578003 -0.1728072166442871 0.007185742259025574 0.0012789415195584297 0 0 0 0
2415632664 0.27950069308280945 -0.1996750831604004 0.007705857045948505 -0.000184718519449234 0 0 0 0
2419354748 0.2695830762386322 -0.223490372300148 0.00794617272913456 -0.001577833667397499 0 0 0 0
2423076832 0.2541523575782776 -0.24853673577308655 0.00788377970457077 -0.0030912980437278748 0 0 0 0
2426798916 0.23689782619476318 -0.26916539669036865 0.008205131627619267 -0.0037221265956759453 0 0 0 0
2430521000 0.2167249321937561 -0.286550372838974 0.006020012311637402 -0.006352674216032028 0 0 0 0
2434243084 0.19228367507457733 -0.3036877512931824 0.0047673676162958145 -0.00710364431142807 0 0 0 0
2437965168 0.16978268325328827 -0.3141670525074005 0.003697994165122509 -0.0075110504403710365 0 0 0 0
2441687252 0.14352074265480042 -0.3222790062427521 0.0025670789182186127 -0.007871201261878014 0 0 0 0
2445409336 0.11341749131679535 -0.32871705293655396 0.001576179638504982 -0.008042765781283379 0 0 0 0
2449131420 0.08644433319568634 -0.3275926113128662 0.0009965980425477028 -0.008490565232932568 0 0 0 0
2452853504 0.05780799686908722 -0.3229471743106842 0.0001499820500612259 -0.009126887656748295 0 0 0 0
2456575588 0.030472589656710625 -0.31292039155960083 -0.0008615413680672646 -0.01002614013850689 0 0 0 0
2460297672 0.003930449485778809 -0.30082258582115173 -0.0027427375316619873 -0.01073891669511795 0 0 0 0
2464019756 -0.020003892481327057 -0.2831347584724426 -0.00494290329515934 -0.011031356640160084 0 0 0 0
2467741840 -0.04121345281600952 -0.26293227076530457 -0.0075010862201452255 -0.01037965901196003 0 0 0 0
2471463924 -0.05804212763905525 -0.23923616111278534 -0.009469697251915932 -0.00918432604521513 0 0 0 0
2475186008 -0.07080046832561493 -0.21465876698493958 -0.011327221058309078 -0.007844343781471252 0 0 0 0
2478908092 -0.08287188410758972 -0.18581907451152802 -0.012846613302826881 -0.00614006444811821 0 0 0 0
2482630176 -0.08855992555618286 -0.15687520802021027 -0.014069071039557457 -0.004060294479131699 0 0 0 0
2486352260 -0.08903685212135315 -0.12807650864124298 -0.014973844401538372 -0.001608443446457386 0 0 0 0
2490074344 -0.08687899261713028 -0.09694629907608032 -0.015703661367297173 0.000594177283346653 0 0 0 0
2493796428 -0.07834424823522568 -0.0670260339975357 -0.015843823552131653 0.0034469710662961006 0 0 0 0
2497518512 -0.06609345972537994 -0.03798583894968033 -0.015022478997707367 0.006542953662574291 0 0 0 0
2501240596 -0.04810366779565811 -0.012477000243961811 -0.01393974106758833 0.00885079801082611 0 0 0 0
2504962680 -0.026179788634181023 0.00992665532976389 -0.012569496408104897 0.011134151369333267 0 0 0 0
2508684764 -0.0012827329337596893 0.02784535102546215 -0.01103510707616806 0.013160565868020058 0 0 0 0
2512406848 0.02586301974952221 0.041552621871232986 -0.008923092857003212 0.015802297741174698 0 0 0 0
2516128932 0.05412260442972183 0.052028775215148926 -0.005641232244670391 0.017872968688607216 0 0 0 0
2519851016 0.08507594466209412 0.05610468611121178 -0.001837817020714283 0.01879533752799034 0 0 0 0
2523573100 0.11589467525482178 0.053928010165691376 0.002299407497048378 0.018416548147797585 0 0 0 0
2527295184 0.1446433663368225 0.0488453134894371 0.0055772969499230385 0.01747075654566288 0 0 0 0
2531017268 0.17170535027980804 0.036855585873126984 0.008801167830824852 0.015875400975346565 0 0 0 0
2534739352 0.19406035542488098 0.0214712955057621 0.01163692306727171 0.013462787494063377 0 0 0 0
2538461436 0.21371135115623474 0.004203334450721741 0.013932013884186745 0.010748246684670448 0 0 0 0
2542183520 0.23022952675819397 -0.01465710997581482 0.015495004132390022 0.007490379735827446 0 0 0 0
2545905604 0.24315330386161804 -0.035658180713653564 0.016273068264126778 0.004234385676681995 0 0 0 0
2549627688 0.2525354027748108 -0.05729648843407631 0.01651909202337265 0.0007433556020259857 0 0 0 0
2553349772 0.25963711738586426 -0.08004017919301987 0.015756765380501747 -0.0029395706951618195 0 0 0 0
2557071856 0.26168063282966614 -0.1028142049908638 0.01394971739500761 -0.006131792441010475 0 0 0 0
2560793940 0.26339617371559143 -0.12267376482486725 0.011647365987300873 -0.008112776093184948 0 0 0 0
2564516024 0.2595806419849396 -0.14503920078277588 0.009317103773355484 -0.009443731978535652 0 0 0 0
2568238108 0.2533781826496124 -0.1657545417547226 0.006875320337712765 -0.01036165188997984 0 0 0 0
2571960192 0.24390742182731628 -0.18575748801231384 0.0047902632504701614 -0.010749644599854946 0 0 0 0
2575682276 0.2335914969444275 -0.20257335901260376 0.002760734409093857 -0.010728083550930023 0 0 0 0
2579404360 0.2228700816631317 -0.216012641787529 0.00116629246622324 -0.010386297479271889 0 0 0 0
2583126444 0.2076590359210968 -0.22918292880058289 -0.0001348257064819336 -0.010014636442065239 0 0 0 0
2586848528 0.1884373426437378 -0.24094446003437042 -0.0015478497371077538 -0.009869634173810482 0 0 0 0
2590570612 0.17322687804698944 -0.24881099164485931 -0.003205999732017517 -0.009331476874649525 0 0 0 0
2594292696 0.15582682192325592 -0.2548503279685974 -0.0044137462973594666 -0.008584801107645035 0 0 0 0
2598014780 0.13697674870491028 -0.25834500789642334 -0.005511205643415451 -0.007558881305158138 0 0 0 0
2601736864 0.12093327194452286 -0.25743594765663147 -0.006587598472833633 -0.006276940926909447 0 0 0 0
2605458948 0.10369332134723663 -0.25521954894065857 -0.00720447301864624 -0.004805595614016056 0 0 0 0
2609181032 0.08439931273460388 -0.25071775913238525 -0.007283765822649002 -0.0031277528032660484 0 0 0 0
2612903116 0.06705211102962494 -0.24285991489887238 -0.007025797851383686 -0.0018762294203042984 0 0 0 0
2616625200 0.05389995872974396 -0.23172493278980255 -0.006688973866403103 -0.0009493334218859673 0 0 0 0
2620347284 0.04273900389671326 -0.22047273814678192 -0.006244768388569355 4.89111989736557e-05 0 0 0 0
2624069368 0.03281308710575104 -0.20670777559280396 -0.005543995648622513 0.0007044579833745956 0 0 0 0
2627791452 0.026769138872623444 -0.19152899086475372 -0.004634973593056202 0.0011235782876610756 0 0 0 0
2631513536 0.023223072290420532 -0.1763429343700409 -0.004466245882213116 0.0009255595505237579 0 0 0 0
2635235620 0.022338397800922394 -0.1615673005580902 -0.0044564055278897285 0.001326308585703373 0 0 0 0
2638957704 0.02350238338112831 -0.1457749307155609 -0.003784921020269394 0.0017574923112988472 0 0 0 0
2642679788 0.02762511745095253 -0.13393574953079224 -0.0032788775861263275 0.0017972076311707497 0 0 0 0
2646401872 0.03357426077127457 -0.12248082458972931 -0.002830575220286846 0.0017678076401352882 0 0 0 0
2650123956 0.04238243028521538 -0.11157815903425217 -0.0025727860629558563 0.0015192804858088493 0 0 0 0
2653846040 0.05050235614180565 -0.10348512977361679 -0.0024656662717461586 0.0012583890929818153 0 0 0 0
2657568124 0.06285824626684189 -0.09661470353603363 -0.002772296778857708 0.0010601989924907684 0 0 0 0
2661290208 0.07543054223060608 -0.09417740255594254 -0.0032096849754452705 0.0011918861418962479 0 0 0 0
2665012292 0.08746452629566193 -0.09426610916852951 -0.003459877334535122 0.0015972498804330826 0 0 0 0
2668734376 0.09742522239685059 -0.09734579175710678 -0.003503073938190937 0.002380744554102421 0 0 0 0
2672456460 0.106443852186203 -0.10237862169742584 -0.0033457959070801735 0.003087393008172512 0 0 0 0
2676178544 0.11434322595596313 -0.10915738344192505 -0.0029308144003152847 0.003798907622694969 0 0 0 0
2679900628 0.12080219388008118 -0.11646165698766708 -0.002242584712803364 0.004460318014025688 0 0 0 0
2683622712 0.12235865741968155 -0.1257920265197754 -0.0013116486370563507 0.00499639380723238 0 0 0 0
2687344796 0.12343200296163559 -0.1335807740688324 -5.367118865251541e-05 0.005024461075663567 0 0 0 0
2691066880 0.12405958026647568 -0.1415189802646637 0.0008233636617660522 0.004872702993452549 0 0 0 0
2694788964 0.12243582308292389 -0.14902812242507935 0.0016274508088827133 0.004602826200425625 0 0 0 0
2698511048 0.1188058853149414 -0.15672896802425385 0.0024543488398194313 0.004190442152321339 0 0 0 0
2702233132 0.11503934860229492 -0.16518473625183105 0.0032751932740211487 0.0036961669102311134 0 0 0 0
2705955216 0.10974620282649994 -0.17219680547714233 0.004240090027451515 0.0028213411569595337 0 0 0 0
2709677300 0.10001855343580246 -0.17842704057693481 0.004628697410225868 0.0017042718827724457 0 0 0 0
2713399384 0.09207344800233841 -0.18227402865886688 0.004625159315764904 0.0004491470754146576 0 0 0 0
2717121468 0.08072838932275772 -0.18513080477714539 0.004534103907644749 -0.0004982678219676018 0 0 0 0
2720843552 0.06938601285219193 -0.18600226938724518 0.004136210307478905 -0.0013956762850284576 0 0 0 0
2724565636 0.05709923058748245 -0.1841246485710144 0.003578892908990383 -0.0019965404644608498 0 0 0 0
2728287720 0.04366970434784889 -0.17941659688949585 0.002950903959572315 -0.0023555057123303413 0 0 0 0
2732009804 0.03311813622713089 -0.17248661816120148 0.002477586269378662 -0.002660204656422138 0 0 0 0
2735731888 0.02464304491877556 -0.16309842467308044 0.0020602019503712654 -0.00287660863250494 0 0 0 0
2739453972 0.016472753137350082 -0.1543750762939453 0.0013778293505311012 -0.0029768608510494232 0 0 0 0
2743176056 0.0075582340359687805 -0.14098834991455078 0.0010736146941781044 -0.0029680179432034492 0 0 0 0
2746898140 0.00291605107486248 -0.12617994844913483 0.0008787298575043678 -0.0029591014608740807 0 0 0 0
2750620224 0.0008925488218665123 -0.1110595315694809 0.0007881829515099525 -0.003055870532989502 0 0 0 0
2754342308 0.0007229121401906013 -0.09522540122270584 0.0007257414981722832 -0.0033213188871741295 0 0 0 0
2758064392 0.004047475755214691 -0.07914703339338303 0.000360710546374321 -0.003925780765712261 0 0 0 0
2761786476 0.008815925568342209 -0.0630381777882576 -0.0005533620715141296 -0.004472415894269943 0 0 0 0
2765508560 0.01651942916214466 -0.04705352336168289 -0.001727275550365448 -0.004176800139248371 0 0 0 0
2769230644 0.02837449125945568 -0.03232717514038086 -0.0026274146512150764 -0.0036789337173104286 0 0 0 0
2772952728 0.04259327054023743 -0.019448833540081978 -0.00301445834338665 -0.0027928752824664116 0 0 0 0
2776674812 0.0588824599981308 -0.009279809892177582 -0.0031677531078457832 -0.002029329538345337 0 0 0 0
2780396896 0.07736483216285706 -0.002067659981548786 -0.003194737248122692 -0.0014470303431153297 0 0 0 0
2784118980 0.09608671069145203 0.002338264137506485 -0.003351251594722271 -0.0007584718987345695 0 0 0 0
2787841064 0.11670822650194168 0.004568694159388542 -0.003088208846747875 -2.4442560970783234e-05 0 0 0 0
2791563148 0.13742245733737946 0.003361698240041733 -0.00259457528591156 0.0003898637369275093 0 0 0 0
2795285232 0.15887710452079773 -0.0021507441997528076 -0.002117595635354519 0.0007241470739245415 0 0 0 0
2799007316 0.18060897290706635 -0.009951189160346985 -0.0015532616525888443 0.0008111214265227318 0 0 0 0
2802729400 0.19863063097000122 -0.024279214441776276 -0.0010490268468856812 0.000544457696378231 0 0 0 0
2806451484 0.21612118184566498 -0.03951982408761978 -0.0011489475145936012 0.0001556025817990303 0 0 0 0
2810173568 0.2308375984430313 -0.05496390536427498 -0.0014969529584050179 0.00016946345567703247 0 0 0 0
2813895652 0.24407225847244263 -0.07774579524993896 -0.0016051819548010826 0.0005162805318832397 0 0 0 0
2817617736 0.25021353363990784 -0.10085587203502655 -0.001376766711473465 0.0009906217455863953 0 0 0 0
2821339820 0.2549603283405304 -0.12523405253887177 -0.000954844057559967 0.0013148235157132149 0 0 0 0
2825061904 0.25497111678123474 -0.15032850205898285 -0.00042148027569055557 0.001303078606724739 0 0 0 0
2828783988 0.2522563338279724 -0.17211714386940002 -0.00011536572128534317 0.0011496152728796005 0 0 0 0
2832506072 0.2508545517921448 -0.1902836710214615 0.0001549050211906433 0.0010382793843746185 0 0 0 0
2836228156 0.23678381741046906 -0.21762877702713013 0.0003532757982611656 0.0007477067410945892 0 0 0 0
2839950240 0.22417601943016052 -0.23871026933193207 0.0005131345242261887 0.0005163494497537613 0 0 0 0
2843672324 0.21046994626522064 -0.2559620141983032 0.0006781099364161491 0.00033676810562610626 0 0 0 0
2847394408 0.1939822882413864 -0.2710515856742859 0.0005171885713934898 1.338217407464981e-05 0 0 0 0
2851116492 0.17302627861499786 -0.2872021496295929 0.0004306109622120857 -0.00011453498154878616 0 0 0 0
2854838576 0.1560734212398529 -0.29765889048576355 0.0004452355206012726 -9.085237979888916e-05 0 0 0 0
2858560660 0.1378817856311798 -0.30776792764663696 0.0005968399345874786 -0.0004986664280295372 0 0 0 0
2862282744 0.10869167745113373 -0.3161710500717163 0.000453876331448555 -0.0005109533667564392 0 0 0 0
2866004828 0.08615712821483612 -0.3203912377357483 0.000607210211455822 -0.000432589091360569 0 0 0 0
2869726912 0.06156367436051369 -0.3207246959209442 0.0006757462397217751 -0.0006292723119258881 0 0 0 0
2873448996 0.03963525593280792 -0.3173021376132965 0.0007846346125006676 -0.0007508164271712303 0 0 0 0
2877171080 0.01708851009607315 -0.31118035316467285 0.0007107444107532501 -0.0010538250207901 0 0 0 0
2880893164 -0.012815937399864197 -0.3024473190307617 0.0005236929282546043 -0.0012343227863311768 0 0 0 0
2884615248 -0.0333738848567009 -0.28980907797813416 0.00026885606348514557 -0.0013600317761301994 0 0 0 0
2888337332 -0.05507523939013481 -0.2740724980831146 6.012618541717529e-05 -0.0013127680867910385 0 0 0 0
2892059416 -0.07118019461631775 -0.25728774070739746 -0.00014770962297916412 -0.001288839615881443 0 0 0 0
2895781500 -0.08997645974159241 -0.23534131050109863 -0.0004585636779665947 -0.0011759866029024124 0 0 0 0
2899503584 -0.10212743282318115 -0.21259890496730804 -0.0005226191133260727 -0.0007791584357619286 0 0 0 0
2903225668 -0.11449065804481506 -0.18756619095802307 -0.0004949858412146568 -0.00047569628804922104 0 0 0 0
2906947752 -0.12150871753692627 -0.16110704839229584 -0.0003477334976196289 -0.00025722477585077286 0 0 0 0
2910669836 -0.12337474524974823 -0.1349618136882782 -0.0001522386446595192 -0.00010018981993198395 0 0 0 0
2914391920 -0.12320214509963989 -0.10796669870615005 0.00010383408516645432 -8.71364027261734e-05 0 0 0 0
2918114004 -0.11896900832653046 -0.08241212368011475 0.00035875290632247925 -0.00010189879685640335 0 0 0 0
2921836088 -0.11275127530097961 -0.05806325003504753 0.00041585974395275116 -0.0002473006024956703 0 0 0 0
2925558172 -0.10396113991737366 -0.0344901978969574 0.0005519706755876541 -0.0003390498459339142 0 0 0 0
2929280256 -0.09104442596435547 -0.010781529359519482 0.00043257419019937515 -0.0005383240059018135 0 0 0 0
2933002340 -0.07540710270404816 0.011021148413419724 0.00025274138897657394 -0.0006088931113481522 0 0 0 0
2936724424 -0.056788843125104904 0.030518952757120132 7.44163990020752e-05 -0.0006138971075415611 0 0 0 0
2940446508 -0.03637601062655449 0.04717933386564255 -0.00016356632113456726 -0.0004720287397503853 0 0 0 0
2944168592 -0.013157214038074017 0.06199374794960022 -0.00035833753645420074 -0.00018653366714715958 0 0 0 0
2947890676 0.011065918952226639 0.0730997622013092 -0.00029541458934545517 0.00036607775837183 0 0 0 0
2951612760 0.03785374388098717 0.08130297064781189 0.00014001689851284027 0.0006081834435462952 0 0 0 0
2955334844 0.0663386806845665 0.08505577594041824 0.00040361378341913223 0.0008515622466802597 0 0 0 0
2959056928 0.09445267170667648 0.08388787508010864 0.0008444925770163536 0.0007879454642534256 0 0 0 0
2962779012 0.12214697897434235 0.07959474623203278 0.0013168137520551682 0.0008748862892389297 0 0 0 0
2966501096 0.14777445793151855 0.07241924852132797 0.0017633447423577309 0.0008097300305962563 0 0 0 0
2970223180 0.17133693397045135 0.06113707274198532 0.0024238787591457367 0.00019593071192502975 0 0 0 0
2973945264 0.19391879439353943 0.04450450837612152 0.002515804022550583 -0.00041481200605630875 0 0 0 0
2977667348 0.21405313909053802 0.02791164070367813 0.0026269210502505302 -0.000878848135471344 0 0 0 0
2981389432 0.23175793886184692 0.009264200925827026 0.002471598796546459 -0.0014925701543688774 0 0 0 0
2985111516 0.24490804970264435 -0.014534570276737213 0.002032855525612831 -0.0020656436681747437 0 0 0 0
2988833600 0.256223201751709 -0.0374695248901844 0.0014110077172517776 -0.002400316298007965 0 0 0 0
2992555684 0.2645460367202759 -0.059499599039554596 0.0008140457794070244 -0.0024641379714012146 0 0 0 0
2996277768 0.26779115200042725 -0.08497140556573868 0.00028280261904001236 -0.002123388461768627 0 0 0 0
2999999852 0.27065908908843994 -0.10808239132165909 0.0001018960028886795 -0.0018774745985865593 0 0 0 0
