# HZ S RI R 50
1500000000 -0.15351153910160065 0.00537439901381731 0.07480102777481079 -0.035372115671634674 0 0 0 0
1503722084 -0.12729011476039886 0.04053178429603577 0.06444849073886871 -0.04881014674901962 0 0 0 0
1507444168 -0.09439501166343689 0.0702495351433754 0.051754530519247055 -0.05920163914561272 0 0 0 0
1511166252 -0.05565044656395912 0.09428465366363525 0.03769920393824577 -0.06584703922271729 0 0 0 0
1514888336 -0.011975299566984177 0.1118568480014801 0.022710854187607765 -0.06856247037649155 0 0 0 0
1518610420 0.03551367670297623 0.12182082235813141 0.008469712920486927 -0.06760077178478241 0 0 0 0
1522332504 0.08494608849287033 0.1225140392780304 -0.0033874977380037308 -0.06400665640830994 0 0 0 0
1526054588 0.13495710492134094 0.1144222542643547 -0.013235056772828102 -0.05884949490427971 0 0 0 0
1529776672 0.1825532764196396 0.09883907437324524 -0.021789154037833214 -0.05260331928730011 0 0 0 0
1533498756 0.2291090190410614 0.07445026934146881 -0.028448347002267838 -0.04513773322105408 0 0 0 0
1537220840 0.2720114290714264 0.0419548824429512 -0.03324982151389122 -0.037261635065078735 0 0 0 0
1540942924 0.30837056040763855 0.0027225445955991745 -0.03551612049341202 -0.029594045132398605 0 0 0 0
1544665008 0.33850255608558655 -0.042310506105422974 -0.036257289350032806 -0.023227252066135406 0 0 0 0
1548387092 0.36118772625923157 -0.09293368458747864 -0.03687991574406624 -0.017617233097553253 0 0 0 0
1552109176 0.37461090087890625 -0.1451752781867981 -0.03719782829284668 -0.012255724519491196 0 0 0 0
1555831260 0.3806562125682831 -0.20061540603637695 -0.03708214312791824 -0.006638532504439354 0 0 0 0
1559553344 0.37982821464538574 -0.25575965642929077 -0.035853032022714615 -0.0013053733855485916 0 0 0 0
1563275428 0.3669258654117584 -0.31219637393951416 -0.03387819603085518 0.003434034064412117 0 0 0 0
1566997512 0.35027581453323364 -0.36538586020469666 -0.03143485262989998 0.007404657080769539 0 0 0 0
1570719596 0.3229478895664215 -0.41706740856170654 -0.02848738618195057 0.010785343125462532 0 0 0 0
1574441680 0.28692251443862915 -0.4635862112045288 -0.025770552456378937 0.012978712096810341 0 0 0 0
1578163764 0.24347741901874542 -0.5046637654304504 -0.023390021175146103 0.014728930778801441 0 0 0 0
1581885848 0.1968039721250534 -0.5398654937744141 -0.021223541349172592 0.017037436366081238 0 0 0 0
1585607932 0.13861887156963348 -0.5661145448684692 -0.0186526570469141 0.018952203914523125 0 0 0 0
1589330016 0.08490318059921265 -0.584121584892273 -0.01607549376785755 0.020131640136241913 0 0 0 0
1593052100 0.023843467235565186 -0.5954023003578186 -0.013648669235408306 0.021365873515605927 0 0 0 0
1596774184 -0.03611612319946289 -0.5981128811836243 -0.01178252324461937 0.022582069039344788 0 0 0 0
1600496268 -0.09513555467128754 -0.5898290276527405 -0.009400863200426102 0.02432176284492016 0 0 0 0
1604218352 -0.15538683533668518 -0.5745832920074463 -0.006139998324215412 0.026175200939178467 0 0 0 0
1607940436 -0.21552696824073792 -0.5483761429786682 -0.0021674446761608124 0.027332738041877747 0 0 0 0
1611662520 -0.26614633202552795 -0.5171704888343811 0.0020131878554821014 0.0277049969881773 0 0 0 0
1615384604 -0.31754666566848755 -0.474372535943985 0.0064894063398242 0.027107732370495796 0 0 0 0
1619106688 -0.3586964011192322 -0.42780008912086487 0.010829522274434566 0.02603212743997574 0 0 0 0
1622828772 -0.39341211318969727 -0.3744897246360779 0.015099669806659222 0.02441575564444065 0 0 0 0
1626550856 -0.423273503780365 -0.3170968294143677 0.01957434043288231 0.02171553112566471 0 0 0 0
1630272940 -0.44434964656829834 -0.25631183385849 0.023534134030342102 0.017687782645225525 0 0 0 0
1633995024 -0.45769137144088745 -0.19022133946418762 0.02628232166171074 0.012851634994149208 0 0 0 0
1637717108 -0.4625300467014313 -0.12031872570514679 0.027854984626173973 0.007275066338479519 0 0 0 0
1641439192 -0.4577665328979492 -0.053652405738830566 0.027938492596149445 0.0016095582395792007 0 0 0 0
1645161276 -0.4421292245388031 0.018903210759162903 0.02675783820450306 -0.003198029473423958 0 0 0 0
1648883360 -0.41346240043640137 0.09132268279790878 0.024993017315864563 -0.007632139138877392 0 0 0 0
1652605444 -0.3730573356151581 0.15342700481414795 0.022818515077233315 -0.011500325985252857 0 0 0 0
1656327528 -0.3234337568283081 0.21101389825344086 0.019976118579506874 -0.015161511488258839 0 0 0 0
1660049612 -0.2667158544063568 0.2596629858016968 0.016407471150159836 -0.018177766352891922 0 0 0 0
1663771696 -0.20007380843162537 0.30055859684944153 0.012097986415028572 -0.020352736115455627 0 0 0 0
1667493780 -0.13066504895687103 0.3318980932235718 0.007936405949294567 -0.02128140814602375 0 0 0 0
1671215864 -0.05660594254732132 0.3535923361778259 0.0033517107367515564 -0.021757660433650017 0 0 0 0
1674937948 0.02368173375725746 0.3640688359737396 -0.0011681560426950455 -0.020434856414794922 0 0 0 0
1678660032 0.10569816827774048 0.36189791560173035 -0.004572052508592606 -0.018425727263092995 0 0 0 0
1682382116 0.1869228482246399 0.34497392177581787 -0.007194238714873791 -0.016131866723299026 0 0 0 0
1686104200 0.266061007976532 0.31489142775535583 -0.009482963010668755 -0.013396376743912697 0 0 0 0
1689826284 0.3362720310688019 0.276014506816864 -0.010699233040213585 -0.010439745150506496 0 0 0 0
1693548368 0.40195250511169434 0.2225915640592575 -0.011139335110783577 -0.007585436105728149 0 0 0 0
1697270452 0.457275390625 0.16013802587985992 -0.010857167653739452 -0.004803895950317383 0 0 0 0
1700992536 0.501748263835907 0.09018375724554062 -0.010014179162681103 -0.00282135047018528 0 0 0 0
1704714620 0.5336703658103943 0.01203080639243126 -0.008973639458417892 -0.001152973622083664 0 0 0 0
1708436704 0.5527437925338745 -0.06610557436943054 -0.007738237269222736 -7.671955972909927e-05 0 0 0 0
1712158788 0.5593543648719788 -0.14441487193107605 -0.006480950862169266 0.0005543036386370659 0 0 0 0
1715880872 0.5527998208999634 -0.22776897251605988 -0.005601061508059502 0.0007053632289171219 0 0 0 0
1719602956 0.5347927808761597 -0.3023214340209961 -0.004814989864826202 0.0007020384073257446 0 0 0 0
1723325040 0.5044263601303101 -0.3753449320793152 -0.004090535454452038 0.0004665609449148178 0 0 0 0
1727047124 0.4671730697154999 -0.43903103470802307 -0.0036880336701869965 0.0001237727701663971 0 0 0 0
1730769208 0.41140809655189514 -0.5039950609207153 -0.003673350438475609 -0.00015940982848405838 0 0 0 0
1734491292 0.3563573956489563 -0.5512141585350037 -0.0038542887195944786 -0.0004737069830298424 0 0 0 0
1738213376 0.2928136885166168 -0.5915050506591797 -0.004130159504711628 -0.0005562407895922661 0 0 0 0
1741935460 0.2274516373872757 -0.6178330183029175 -0.004325510002672672 -0.0004753032699227333 0 0 0 0
1745657544 0.15654218196868896 -0.6361949443817139 -0.004768128506839275 -0.0004839608445763588 0 0 0 0
1749379628 0.08155128359794617 -0.6424070000648499 -0.005369890481233597 -0.00029764603823423386 0 0 0 0
1753101712 0.01455727219581604 -0.6358500719070435 -0.005863945931196213 0.00010911654680967331 0 0 0 0
1756823796 -0.05172343552112579 -0.6202118396759033 -0.006261854432523251 0.0005819611251354218 0 0 0 0
1760545880 -0.1158720850944519 -0.5950947403907776 -0.006684605032205582 0.0013561956584453583 0 0 0 0
1764267964 -0.17283980548381805 -0.5619290471076965 -0.006889970041811466 0.002093241550028324 0 0 0 0
1767990048 -0.2259659320116043 -0.5193581581115723 -0.007115427404642105 0.002847728319466114 0 0 0 0
1771712132 -0.2658703029155731 -0.473285973072052 -0.007377383299171925 0.0033048149198293686 0 0 0 0
1775434216 -0.2992454469203949 -0.4232923686504364 -0.008244199678301811 0.004128718748688698 0 0 0 0
1779156300 -0.32618626952171326 -0.36779332160949707 -0.00906070414930582 0.005830012261867523 0 0 0 0
1782878384 -0.343645304441452 -0.3143029510974884 -0.00952257588505745 0.00811670906841755 0 0 0 0
1786600468 -0.3568335771560669 -0.2558373212814331 -0.009245396591722965 0.010808516293764114 0 0 0 0
1790322552 -0.35874927043914795 -0.1971561312675476 -0.008062794804573059 0.013782070949673653 0 0 0 0
1794044636 -0.353708416223526 -0.13850191235542297 -0.006077749654650688 0.016479162499308586 0 0 0 0
1797766720 -0.3398301303386688 -0.0827702060341835 -0.0036602383479475975 0.01890702173113823 0 0 0 0
1801488804 -0.3197702467441559 -0.028536122292280197 -0.0002211024984717369 0.021470017731189728 0 0 0 0
1805210888 -0.29103124141693115 0.02083258330821991 0.003997874446213245 0.02350650541484356 0 0 0 0
1808932972 -0.25392618775367737 0.06802285462617874 0.009813956916332245 0.024476729333400726 0 0 0 0
1812655056 -0.2088892161846161 0.10840432345867157 0.016403723508119583 0.023233067244291306 0 0 0 0
1816377140 -0.15777722001075745 0.13828469812870026 0.022325225174427032 0.020039040595293045 0 0 0 0
1820099224 -0.10275562107563019 0.158483624458313 0.027632417157292366 0.015505257993936539 0 0 0 0
1823821308 -0.046944234520196915 0.16944041848182678 0.03208722919225693 0.009417944587767124 0 0 0 0
1827543392 0.008467081934213638 0.17053918540477753 0.034382421523332596 0.0017771599814295769 0 0 0 0
1831265476 0.06135079264640808 0.1624709814786911 0.034287359565496445 -0.006250486709177494 0 0 0 0
1834987560 0.11019983887672424 0.14672860503196716 0.0321183018386364 -0.0134547408670187 0 0 0 0
1838709644 0.15487146377563477 0.12459693104028702 0.028105376288294792 -0.019708286970853806 0 0 0 0
1842431728 0.1942572146654129 0.09663140773773193 0.023744303733110428 -0.024099864065647125 0 0 0 0
1846153812 0.22787298262119293 0.061246372759342194 0.01861787959933281 -0.027890995144844055 0 0 0 0
1849875896 0.2535485327243805 0.024928152561187744 0.013419367372989655 -0.03051920235157013 0 0 0 0
1853597980 0.27375081181526184 -0.01225530356168747 0.008111847564578056 -0.03213997185230255 0 0 0 0
1857320064 0.28865715861320496 -0.05338803678750992 0.00253478717058897 -0.03301245719194412 0 0 0 0
1861042148 0.2955922484397888 -0.09541752934455872 -0.00285921897739172 -0.03340251371264458 0 0 0 0
1864764232 0.2954292595386505 -0.1363009512424469 -0.008657245896756649 -0.033299513161182404 0 0 0 0
1868486316 0.2882377505302429 -0.1746702939271927 -0.014956525526940823 -0.03139933571219444 0 0 0 0
1872208400 0.2777387499809265 -0.20909693837165833 -0.020152971148490906 -0.028546102344989777 0 0 0 0
1875930484 0.2603859305381775 -0.24333308637142181 -0.02460804581642151 -0.024508051574230194 0 0 0 0
1879652568 0.2379252016544342 -0.2730458080768585 -0.028404630720615387 -0.02033333294093609 0 0 0 0
1883374652 0.21383419632911682 -0.29849863052368164 -0.0318976454436779 -0.01585487276315689 0 0 0 0
1887096736 0.183363676071167 -0.32013431191444397 -0.034989722073078156 -0.010544907301664352 0 0 0 0
1890818820 0.15234452486038208 -0.33364641666412354 -0.037313494831323624 -0.004444126971065998 0 0 0 0
1894540904 0.11849036812782288 -0.34218013286590576 -0.038233306258916855 0.002709859050810337 0 0 0 0
1898262988 0.08434952795505524 -0.34457364678382874 -0.037723131477832794 0.010013822466135025 0 0 0 0
1901985072 0.053040824830532074 -0.34056878089904785 -0.03567693382501602 0.016745176166296005 0 0 0 0
1905707156 0.02348821982741356 -0.3320764899253845 -0.031871575862169266 0.023358825594186783 0 0 0 0
1909429240 -0.004747755825519562 -0.3166855573654175 -0.027361325919628143 0.028563454747200012 0 0 0 0
1913151324 -0.028376810252666473 -0.2987003028392792 -0.02224901132285595 0.03325410187244415 0 0 0 0
1916873408 -0.048837706446647644 -0.27727603912353516 -0.015978297218680382 0.037558458745479584 0 0 0 0
1920595492 -0.06585898995399475 -0.2527715861797333 -0.008596600033342838 0.04051874205470085 0 0 0 0
1924317576 -0.07433167845010757 -0.22721874713897705 -0.00033560674637556076 0.04186844453215599 0 0 0 0
1928039660 -0.08112983405590057 -0.20048098266124725 0.008308314718306065 0.0408543236553669 0 0 0 0
1931761744 -0.08460590988397598 -0.17509272694587708 0.016401762142777443 0.03802253678441048 0 0 0 0
1935483828 -0.08183085918426514 -0.14897838234901428 0.02291019633412361 0.03311065211892128 0 0 0 0
1939205912 -0.07622992992401123 -0.12264104187488556 0.02796011231839657 0.027331344783306122 0 0 0 0
1942927996 -0.0662975162267685 -0.09669866412878036 0.031136654317378998 0.0211196169257164 0 0 0 0
1946650080 -0.051676902920007706 -0.07333818078041077 0.0333281084895134 0.015601295046508312 0 0 0 0
1950372164 -0.03228955715894699 -0.051147885620594025 0.034997690469026566 0.010402612388134003 0 0 0 0
1954094248 -0.008078861981630325 -0.034002162516117096 0.03691137582063675 0.004882819019258022 0 0 0 0
1957816332 0.019544439390301704 -0.022138457745313644 0.03783094510436058 -0.002236458472907543 0 0 0 0
1961538416 0.04905640706419945 -0.016214124858379364 0.03692717105150223 -0.009362323209643364 0 0 0 0
1965260500 0.07863548398017883 -0.01643257960677147 0.034482892602682114 -0.015880253165960312 0 0 0 0
1968982584 0.10724743455648422 -0.022850558161735535 0.03089730627834797 -0.022165922448039055 0 0 0 0
1972704668 0.133983314037323 -0.034816592931747437 0.02619071863591671 -0.02753930352628231 0 0 0 0
1976426752 0.1561734974384308 -0.0501357764005661 0.020758971571922302 -0.032262109220027924 0 0 0 0
1980148836 0.17616291344165802 -0.06965327262878418 0.0135002126917243 -0.03597499430179596 0 0 0 0
1983870920 0.19211769104003906 -0.09205282479524612 0.006204887293279171 -0.037593185901641846 0 0 0 0
1987593004 0.2029065489768982 -0.11829150468111038 -0.001464158296585083 -0.0375472791492939 0 0 0 0
1991315088 0.20840059220790863 -0.144662007689476 -0.008846339769661427 -0.03575008362531662 0 0 0 0
1995037172 0.20763252675533295 -0.17197242379188538 -0.015341424383223057 -0.0326688252389431 0 0 0 0
1998759256 0.20354706048965454 -0.19749921560287476 -0.020607657730579376 -0.028176210820674896 0 0 0 0
2002481340 0.19512352347373962 -0.2218005657196045 -0.02401183918118477 -0.023535141721367836 0 0 0 0
2006203424 0.18298061192035675 -0.2437649965286255 -0.02674827352166176 -0.018848292529582977 0 0 0 0
2009925508 0.16658848524093628 -0.26248249411582947 -0.029002152383327484 -0.014629440382122993 0 0 0 0
2013647592 0.1477920114994049 -0.27790120244026184 -0.03118234872817993 -0.0101072508841753 0 0 0 0
2017369676 0.12575750052928925 -0.29229074716567993 -0.03295569866895676 -0.005043567158281803 0 0 0 0
2021091760 0.10633256286382675 -0.30254876613616943 -0.03398030251264572 0.0005974499508738518 0 0 0 0
2024813844 0.07793620228767395 -0.30959242582321167 -0.03386177122592926 0.0073518287390470505 0 0 0 0
2028535928 0.052122898399829865 -0.310690313577652 -0.03173600882291794 0.01366630382835865 0 0 0 0
2032258012 0.025803551077842712 -0.30835455656051636 -0.028305422514677048 0.01927495189011097 0 0 0 0
2035980096 0.0006930828094482422 -0.300720751285553 -0.023747842758893967 0.023753274232149124 0 0 0 0
2039702180 -0.026728807017207146 -0.2886982560157776 -0.019119074568152428 0.027064979076385498 0 0 0 0
2043424264 -0.050795137882232666 -0.2718536853790283 -0.013724394142627716 0.02940850704908371 0 0 0 0
2047146348 -0.06988324224948883 -0.2511562705039978 -0.008604650385677814 0.03074684366583824 0 0 0 0
2050868432 -0.08545154333114624 -0.22743266820907593 -0.0036853011697530746 0.03098468855023384 0 0 0 0
2054590516 -0.09917904436588287 -0.20024175941944122 0.0013902438804507256 0.031124260276556015 0 0 0 0
2058312600 -0.10717551410198212 -0.17273211479187012 0.006279465742409229 0.030528608709573746 0 0 0 0
2062034684 -0.11067958176136017 -0.14373016357421875 0.011144238524138927 0.029088979586958885 0 0 0 0
2065756768 -0.1117401272058487 -0.1135556697845459 0.015808211639523506 0.026629649102687836 0 0 0 0
2069478852 -0.10770411789417267 -0.08224178850650787 0.01981883868575096 0.02365730330348015 0 0 0 0
2073200936 -0.09795348346233368 -0.05020596832036972 0.023164130747318268 0.019657643511891365 0 0 0 0
2076923020 -0.08216113597154617 -0.01954125426709652 0.02563854679465294 0.015155867673456669 0 0 0 0
2080645104 -0.06037488207221031 0.00855746865272522 0.027083249762654305 0.010498689487576485 0 0 0 0
2084367188 -0.033783137798309326 0.03250710293650627 0.02796056866645813 0.006546663120388985 0 0 0 0
2088089272 -0.0038723666220903397 0.050807300955057144 0.028546646237373352 0.00317316222935915 0 0 0 0
2091811356 0.02991936169564724 0.06422948837280273 0.02957797423005104 -0.0013036355376243591 0 0 0 0
2095533440 0.06522103399038315 0.07130471616983414 0.029974263161420822 -0.006050235591828823 0 0 0 0
2099255524 0.10053902119398117 0.07193118333816528 0.029273878782987595 -0.011620676144957542 0 0 0 0
2102977608 0.1360168308019638 0.06832511723041534 0.027297530323266983 -0.01748228445649147 0 0 0 0
2106699692 0.17097347974777222 0.057186275720596313 0.02318418212234974 -0.022901611402630806 0 0 0 0
2110421776 0.20364736020565033 0.04279281198978424 0.018521485850214958 -0.02710982784628868 0 0 0 0
2114143860 0.23324254155158997 0.02074161171913147 0.012636820785701275 -0.030230775475502014 0 0 0 0
2117865944 0.25744882225990295 -0.0061561837792396545 0.006769569590687752 -0.03166770562529564 0 0 0 0
2121588028 0.2759593725204468 -0.035589948296546936 0.00021486729383468628 -0.03259630873799324 0 0 0 0
2125310112 0.29109126329421997 -0.065043143928051 -0.0060228146612644196 -0.031603287905454636 0 0 0 0
2129032196 0.30086028575897217 -0.09739506244659424 -0.012184743769466877 -0.029129769653081894 0 0 0 0
2132754280 0.30416005849838257 -0.1321820318698883 -0.017362790182232857 -0.02527649886906147 0 0 0 0
2136476364 0.30356258153915405 -0.16503702104091644 -0.020984241738915443 -0.020862849429249763 0 0 0 0
2140198448 0.2949543595314026 -0.2007526159286499 -0.02378993295133114 -0.01567038707435131 0 0 0 0
2143920532 0.2842869460582733 -0.22859255969524384 -0.0248493030667305 -0.011395753361284733 0 0 0 0
2147642616 0.26783403754234314 -0.25708356499671936 -0.02553030475974083 -0.0067942142486572266 0 0 0 0
2151364700 0.24870026111602783 -0.2791682779788971 -0.025476736947894096 -0.002676260657608509 0 0 0 0
2155086784 0.2235385626554489 -0.30270564556121826 -0.02477996051311493 0.0012655649334192276 0 0 0 0
2158808868 0.19534124433994293 -0.3196777105331421 -0.023927707225084305 0.004944448359310627 0 0 0 0
2162530952 0.16782794892787933 -0.3304177522659302 -0.022462284192442894 0.007997594773769379 0 0 0 0
2166253036 0.13604430854320526 -0.3372233510017395 -0.020561110228300095 0.010740883648395538 0 0 0 0
2169975120 0.10759569704532623 -0.3386386036872864 -0.01924041286110878 0.013310063630342484 0 0 0 0
2173697204 0.0771050900220871 -0.3364488482475281 -0.01751244068145752 0.016428476199507713 0 0 0 0
2177419288 0.051715776324272156 -0.3290439248085022 -0.01520958635956049 0.01970866695046425 0 0 0 0
2181141372 0.025495626032352448 -0.3183847963809967 -0.011868281289935112 0.022315457463264465 0 0 0 0
2184863456 0.0010408870875835419 -0.30419519543647766 -0.00773774366825819 0.024114619940519333 0 0 0 0
2188585540 -0.023420263081789017 -0.28626155853271484 -0.0031917542219161987 0.02540094032883644 0 0 0 0
2192307624 -0.04254810884594917 -0.26454195380210876 0.0014245659112930298 0.025889648124575615 0 0 0 0
2196029708 -0.05899456888437271 -0.23979541659355164 0.0063729360699653625 0.025504691526293755 0 0 0 0
2199751792 -0.06912944465875626 -0.21448446810245514 0.011446170508861542 0.02366339974105358 0 0 0 0
2203473876 -0.07701091468334198 -0.18548431992530823 0.0156574547290802 0.020463712513446808 0 0 0 0
2207195960 -0.07902006804943085 -0.15691083669662476 0.01883394829928875 0.016880644485354424 0 0 0 0
2210918044 -0.07853754609823227 -0.12496843934059143 0.02134963870048523 0.012113304808735847 0 0 0 0
2214640128 -0.06911073625087738 -0.09620443731546402 0.022744426503777504 0.00807717815041542 0 0 0 0
2218362212 -0.05591386929154396 -0.0699746161699295 0.02298121526837349 0.0030108345672488213 0 0 0 0
2222084296 -0.039850760251283646 -0.04538532346487045 0.022071128711104393 -0.0012515243142843246 0 0 0 0
2225806380 -0.017549363896250725 -0.02607612870633602 0.020622199401259422 -0.004803451709449291 0 0 0 0
2229528464 0.00558603648096323 -0.010584737174212933 0.019092269241809845 -0.007641950622200966 0 0 0 0
2233250548 0.030448663979768753 0.0008849417790770531 0.016927747055888176 -0.010551217943429947 0 0 0 0
2236972632 0.056927330791950226 0.008492881432175636 0.014563660137355328 -0.01312807947397232 0 0 0 0
2240694716 0.08418654650449753 0.009099682793021202 0.011715448461472988 -0.01548193022608757 0 0 0 0
2244416800 0.11075491458177567 0.007602371275424957 0.008911472745239735 -0.01717998832464218 0 0 0 0
2248138884 0.13545598089694977 0.00431087426841259 0.005187506787478924 -0.01824577897787094 0 0 0 0
2251860968 0.15878799557685852 -0.011060342192649841 0.0013317493721842766 -0.018489178270101547 0 0 0 0
2255583052 0.18141502141952515 -0.022431574761867523 -0.001837325282394886 -0.018089832738041878 0 0 0 0
2259305136 0.20018744468688965 -0.03919369727373123 -0.005036346614360809 -0.016735250130295753 0 0 0 0
2263027220 0.21445783972740173 -0.06051396578550339 -0.007581569254398346 -0.014845741912722588 0 0 0 0
2266749304 0.2244338095188141 -0.08643124252557755 -0.009129739366471767 -0.01293543353676796 0 0 0 0
2270471388 0.23202085494995117 -0.10921511054039001 -0.010784528218209743 -0.01105140708386898 0 0 0 0
2274193472 0.23109138011932373 -0.13910526037216187 -0.012147237546741962 -0.009148440323770046 0 0 0 0
2277915556 0.2326601892709732 -0.15585139393806458 -0.013149763457477093 -0.007491840980947018 0 0 0 0
2281637640 0.224763885140419 -0.18093657493591309 -0.013962630182504654 -0.004978690296411514 0 0 0 0
2285359724 0.21101996302604675 -0.20346251130104065 -0.014372761361300945 -0.0029156673699617386 0 0 0 0
2289081808 0.1959509551525116 -0.22235171496868134 -0.01448148861527443 -0.0005543800070881844 0 0 0 0
2292803892 0.1840328574180603 -0.2329523116350174 -0.014323101378977299 0.001741800457239151 0 0 0 0
2296525976 0.16017654538154602 -0.2464788258075714 -0.013361210003495216 0.003966826014220715 0 0 0 0
2300248060 0.14499467611312866 -0.2527107298374176 -0.012435867451131344 0.00536031648516655 0 0 0 0
2303970144 0.13152556121349335 -0.2584933638572693 -0.011044556275010109 0.007064305245876312 0 0 0 0
2307692228 0.1034398004412651 -0.26036176085472107 -0.009762272238731384 0.008471147157251835 0 0 0 0
2311414312 0.08166158199310303 -0.260280966758728 -0.007801924832165241 0.009702722541987896 0 0 0 0
2315136396 0.057078681886196136 -0.2559395134449005 -0.005638367496430874 0.010142193175852299 0 0 0 0
2318858480 0.0336877815425396 -0.24725341796875 -0.0037471596151590347 0.010014699772000313 0 0 0 0
2322580564 0.015058331191539764 -0.23217345774173737 -0.002302972599864006 0.00948391668498516 0 0 0 0
2326302648 -0.0012524034827947617 -0.2147892713546753 -0.0012223310768604279 0.009070506319403648 0 0 0 0
2330024732 -0.01589864492416382 -0.19506876170635223 -0.0005232403054833412 0.008398427627980709 0 0 0 0
2333746816 -0.024411529302597046 -0.1735033541917801 2.8277747333049774e-05 0.007901331409811974 0 0 0 0
2337468900 -0.03392282500863075 -0.1482909768819809 0.0007742820307612419 0.007643301039934158 0 0 0 0
2341190984 -0.034593354910612106 -0.12237071245908737 0.0013127895072102547 0.007175015285611153 0 0 0 0
2344913068 -0.032118141651153564 -0.0957668125629425 0.0020224107429385185 0.0064933523535728455 0 0 0 0
2348635152 -0.025498395785689354 -0.06902775168418884 0.0022493815049529076 0.005631702020764351 0 0 0 0
2352357236 -0.013749295845627785 -0.04409901425242424 0.0024218615144491196 0.005250357091426849 0 0 0 0
2356079320 0.004274736158549786 -0.021840235218405724 0.0025025466457009315 0.004698486067354679 0 0 0 0
2359801404 0.025096986442804337 -0.003143233247101307 0.0026909364387392998 0.004333840683102608 0 0 0 0
2363523488 0.049447666853666306 0.0114298015832901 0.0029561100527644157 0.00408723670989275 0 0 0 0
2367245572 0.07603327184915543 0.02279071882367134 0.0028524277731776237 0.003774503245949745 0 0 0 0
2370967656 0.10419801622629166 0.027135396376252174 0.0028614066541194916 0.003471318632364273 0 0 0 0
2374689740 0.13316300511360168 0.027123119682073593 0.00317198783159256 0.003042212687432766 0 0 0 0
2378411824 0.16097700595855713 0.02176128327846527 0.003115135245025158 0.002795182168483734 0 0 0 0
2382133908 0.1884130835533142 0.014064081013202667 0.0029961131513118744 0.0025748340412974358 0 0 0 0
2385855992 0.21249422430992126 -0.00035288184881210327 0.00295349583029747 0.002283068373799324 0 0 0 0
2389578076 0.2350461632013321 -0.018252156674861908 0.002818639390170574 0.0022308072075247765 0 0 0 0
2393300160 0.2547622323036194 -0.03917132690548897 0.002717062830924988 0.0026294374838471413 0 0 0 0
2397022244 0.2697964906692505 -0.06220218539237976 0.0029548313468694687 0.0031373007223010063 0 0 0 0
2400744328 0.28002771735191345 -0.08884191513061523 0.003960899077355862 0.003556349314749241 0 0 0 0
2404466412 0.2876669466495514 -0.11846093088388443 0.0052122026681900024 0.0034764157608151436 0 0 0 0
2408188496 0.2910299301147461 -0.14477801322937012 0.006435140036046505 0.002422856166958809 0 0 0 0
2411910580 0.2897738218307495 -0.17330925166606903 0.007101094350218773 0.001337260939180851 0 0 0 0
2415632664 0.2799946963787079 -0.20099391043186188 0.007447452284395695 5.907192826271057e-05 0 0 0 0
2419354748 0.2682938873767853 -0.2270957976579666 0.007800661958754063 -0.0016997484490275383 0 0 0 0
2423076832 0.25562185049057007 -0.24838894605636597 0.0078690554946661 -0.003126930445432663 0 0 0 0
2426798916 0.23675355315208435 -0.27068692445755005 0.007337292656302452 -0.004783709533512592 0 0 0 0
2430521000 0.21750205755233765 -0.2870371639728546 0.006329190917313099 -0.006072923541069031 0 0 0 0
2434243084 0.19352087378501892 -0.3033745288848877 0.004970470443367958 -0.006976539269089699 0 0 0 0
2437965168 0.1694377064704895 -0.31568798422813416 0.0038196714594960213 -0.007590805180370808 0 0 0 0
2441687252 0.14445507526397705 -0.322811484336853 0.002870996482670307 -0.00792668666690588 0 0 0 0
2445409336 0.11589132249355316 -0.3281732201576233 0.0021285638213157654 -0.008404971100389957 0 0 0 0
2449131420 0.08682064712047577 -0.32719099521636963 0.0011997465044260025 -0.008783005177974701 0 0 0 0
2452853504 0.06033427268266678 -0.32248249650001526 8.785910904407501e-05 -0.009443455375730991 0 0 0 0
2456575588 0.02875964716076851 -0.3135403096675873 -0.001071152277290821 -0.00999455340206623 0 0 0 0
2460297672 0.003953777253627777 -0.30087384581565857 -0.002526339143514633 -0.010584797710180283 0 0 0 0
2464019756 -0.019386127591133118 -0.2822401523590088 -0.004618966951966286 -0.010746922343969345 0 0 0 0
2467741840 -0.040434081107378006 -0.2623246908187866 -0.006764769554138184 -0.010344699956476688 0 0 0 0
2471463924 -0.05660277232527733 -0.23924562335014343 -0.008833193220198154 -0.00937158614397049 0 0 0 0
2475186008 -0.07042883336544037 -0.2143108993768692 -0.010569039732217789 -0.00816969946026802 0 0 0 0
2478908092 -0.07896848022937775 -0.18772923946380615 -0.012139876373112202 -0.006713384762406349 0 0 0 0
2482630176 -0.08499458432197571 -0.15867774188518524 -0.01355787180364132 -0.004885273985564709 0 0 0 0
2486352260 -0.0880112275481224 -0.1291050910949707 -0.014681424014270306 -0.0025596581399440765 0 0 0 0
2490074344 -0.08543753623962402 -0.09884671121835709 -0.015677371993660927 -0.00032879505306482315 0 0 0 0
2493796428 -0.07690811902284622 -0.06973478943109512 -0.01605980284512043 0.002836245112121105 0 0 0 0
2497518512 -0.0656265988945961 -0.042145390063524246 -0.01540332194417715 0.00571321789175272 0 0 0 0
2501240596 -0.0483962818980217 -0.016709472984075546 -0.01448793150484562 0.0083303926512599 0 0 0 0
2504962680 -0.028184769675135612 0.006573004648089409 -0.013195516541600227 0.010733617469668388 0 0 0 0
2508684764 -0.004332921467721462 0.025868767872452736 -0.011363799683749676 0.013375595211982727 0 0 0 0
2512406848 0.023343525826931 0.04101436212658882 -0.009142839349806309 0.015797140076756477 0 0 0 0
2516128932 0.052562277764081955 0.05105212703347206 -0.005477746948599815 0.017782360315322876 0 0 0 0
2519851016 0.08367632329463959 0.056265149265527725 -0.0013006478548049927 0.018280882388353348 0 0 0 0
2523573100 0.11435146629810333 0.053509671241045 0.002405948005616665 0.017938818782567978 0 0 0 0
2527295184 0.14328542351722717 0.048125769942998886 0.005394763313233852 0.016658464446663857 0 0 0 0
2531017268 0.16948144137859344 0.038163911551237106 0.008433844894170761 0.014877921901643276 0 0 0 0
2534739352 0.1931457221508026 0.021691463887691498 0.011047324165701866 0.01289562787860632 0 0 0 0
2538461436 0.2137146145105362 0.006374659016728401 0.01317652314901352 0.010284139774739742 0 0 0 0
2542183520 0.23052610456943512 -0.014644734561443329 0.014746843837201595 0.007066693156957626 0 0 0 0
2545905604 0.24344351887702942 -0.03534920513629913 0.015363924205303192 0.004076740704476833 0 0 0 0
2549627688 0.2535880208015442 -0.056769657880067825 0.015637073665857315 0.0007439078763127327 0 0 0 0
2553349772 0.26033759117126465 -0.0794723853468895 0.015187224373221397 -0.0027522817254066467 0 0 0 0
2557071856 0.2624818980693817 -0.10306216031312943 0.013599582016468048 -0.00612113531678915 0 0 0 0
2560793940 0.26475000381469727 -0.12257532775402069 0.011212564073503017 -0.008239701390266418 0 0 0 0
2564516024 0.25847846269607544 -0.15016765892505646 0.008638255298137665 -0.009664129465818405 0 0 0 0
2568238108 0.25375130772590637 -0.16698312759399414 0.006329812109470367 -0.010252455249428749 0 0 0 0
2571960192 0.24391210079193115 -0.1875033974647522 0.0038972916081547737 -0.010556507855653763 0 0 0 0
2575682276 0.23270061612129211 -0.20409727096557617 0.002077599987387657 -0.010344422422349453 0 0 0 0
2579404360 0.22027887403964996 -0.21749970316886902 0.0005315849557518959 -0.009849265217781067 0 0 0 0
2583126444 0.20468789339065552 -0.2305900752544403 -0.00047501828521490097 -0.00940533448010683 0 0 0 0
2586848528 0.18837913870811462 -0.24204924702644348 -0.001625790260732174 -0.009333906695246696 0 0 0 0
2590570612 0.1723877489566803 -0.2488049566745758 -0.0032147476449608803 -0.008764805272221565 0 0 0 0
2594292696 0.15603390336036682 -0.2532627582550049 -0.004632404074072838 -0.007928253151476383 0 0 0 0
2598014780 0.13616719841957092 -0.25812435150146484 -0.00559894647449255 -0.007080087438225746 0 0 0 0
2601736864 0.11797845363616943 -0.25868383049964905 -0.006593880243599415 -0.006007767282426357 0 0 0 0
2605458948 0.09938973188400269 -0.25533151626586914 -0.0075578847900033 -0.00455878209322691 0 0 0 0
2609181032 0.08202618360519409 -0.2496991902589798 -0.007628369145095348 -0.0028315410017967224 0 0 0 0
2612903116 0.06714609265327454 -0.24155163764953613 -0.007212173193693161 -0.0011001480743288994 0 0 0 0
2616625200 0.052453286945819855 -0.23085209727287292 -0.006421072408556938 5.965679883956909e-05 0 0 0 0
2620347284 0.04099329560995102 -0.21903693675994873 -0.005734815262258053 0.000634610652923584 0 0 0 0
2624069368 0.032265253365039825 -0.20533396303653717 -0.0050055114552378654 0.0009765950962901115 0 0 0 0
2627791452 0.025497794151306152 -0.18993249535560608 -0.004140270873904228 0.001093362458050251 0 0 0 0
2631513536 0.022287793457508087 -0.17522969841957092 -0.0038252975791692734 0.0008617015555500984 0 0 0 0
2635235620 0.02199620008468628 -0.15956272184848785 -0.003705836832523346 0.0010704807937145233 0 0 0 0
2638957704 0.024285290390253067 -0.1444910764694214 -0.003699902445077896 0.0012396406382322311 0 0 0 0
2642679788 0.02853626385331154 -0.13195118308067322 -0.003421681933104992 0.001650916412472725 0 0 0 0
2646401872 0.03456881269812584 -0.12086097151041031 -0.002897767350077629 0.00191595871001482 0 0 0 0
2650123956 0.04366676136851311 -0.11061833798885345 -0.0025208480656147003 0.00175414327532053 0 0 0 0
2653846040 0.052513983100652695 -0.10245214402675629 -0.0023713214322924614 0.0013861386105418205 0 0 0 0
2657568124 0.06451493501663208 -0.09620001167058945 -0.002596726641058922 0.0011185156181454659 0 0 0 0
2661290208 0.07720896601676941 -0.0943761095404625 -0.0030245138332247734 0.0013210168108344078 0 0 0 0
2665012292 0.08825138211250305 -0.09506145119667053 -0.0031794151291251183 0.0018124599009752274 0 0 0 0
2668734376 0.09876351803541183 -0.09792787581682205 -0.003133544698357582 0.0023201731964945793 0 0 0 0
2672456460 0.10725614428520203 -0.1029445230960846 -0.0029392819851636887 0.0029279207810759544 0 0 0 0
2676178544 0.11453244835138321 -0.10976997017860413 -0.0027468055486679077 0.003588753752410412 0 0 0 0
2679900628 0.11943314224481583 -0.11786490678787231 -0.0020856214687228203 0.004218694753944874 0 0 0 0
2683622712 0.1236976683139801 -0.12621188163757324 -0.0013523716479539871 0.004666364751756191 0 0 0 0
2687344796 0.12295247614383698 -0.1354701668024063 -0.0002593444660305977 0.004731970839202404 0 0 0 0
2691066880 0.12586243450641632 -0.14117273688316345 0.0005878806114196777 0.004573289304971695 0 0 0 0
2694788964 0.12125805765390396 -0.1502397358417511 0.001269492320716381 0.004606550559401512 0 0 0 0
2698511048 0.11860516667366028 -0.15774770081043243 0.0021545737981796265 0.004502277821302414 0 0 0 0
2702233132 0.11508788913488388 -0.1643342822790146 0.003328820690512657 0.003993507474660873 0 0 0 0
2705955216 0.10813458263874054 -0.17108306288719177 0.004414343275129795 0.0030815303325653076 0 0 0 0
2709677300 0.10060775279998779 -0.17697127163410187 0.00504667405039072 0.001692456193268299 0 0 0 0
2713399384 0.09191058576107025 -0.18156681954860687 0.0048401840031147 0.0001598866656422615 0 0 0 0
2717121468 0.08049304783344269 -0.18437033891677856 0.004402685910463333 -0.000993221066892147 0 0 0 0
2720843552 0.07069063186645508 -0.18465527892112732 0.003935311920940876 -0.0018388507887721062 0 0 0 0
2724565636 0.057150911539793015 -0.18467079102993011 0.0029974468052387238 -0.0021513430401682854 0 0 0 0
2728287720 0.04443215951323509 -0.1794663816690445 0.002406039275228977 -0.002316148951649666 0 0 0 0
2732009804 0.034622132778167725 -0.1734805703163147 0.002008357085287571 -0.0023623164743185043 0 0 0 0
2735731888 0.024123063310980797 -0.1634538620710373 0.001740599051117897 -0.002407134510576725 0 0 0 0
2739453972 0.015292733907699585 -0.15383663773536682 0.001512463204562664 -0.002679138444364071 0 0 0 0
2743176056 0.007035059854388237 -0.13988074660301208 0.0011522481217980385 -0.002721022814512253 0 0 0 0
2746898140 0.0026368610560894012 -0.12467720359563828 0.00100724957883358 -0.0027238307520747185 0 0 0 0
2750620224 -0.000754963606595993 -0.10916239768266678 0.0010231118649244308 -0.002745306119322777 0 0 0 0
2754342308 0.001740703359246254 -0.09320017695426941 0.0008474076166749001 -0.0033074049279093742 0 0 0 0
2758064392 0.0047745294868946075 -0.07728470861911774 0.00039432942867279053 -0.003911806270480156 0 0 0 0
2761786476 0.010807428508996964 -0.06151068955659866 -0.0005321390926837921 -0.004169231280684471 0 0 0 0
2765508560 0.018994463607668877 -0.04586432874202728 -0.001508353278040886 -0.003946773707866669 0 0 0 0
2769230644 0.030979955568909645 -0.03218171000480652 -0.0022459272295236588 -0.003379981964826584 0 0 0 0
2772952728 0.045023947954177856 -0.020931215956807137 -0.002587216906249523 -0.0026447810232639313 0 0 0 0
2776674812 0.06127942353487015 -0.011287009343504906 -0.0028047189116477966 -0.00221042986959219 0 0 0 0
2780396896 0.07921925187110901 -0.004702337086200714 -0.002858824096620083 -0.0018602870404720306 0 0 0 0
2784118980 0.09752131253480911 -2.4845823645591736e-05 -0.0029906053096055984 -0.001321478746831417 0 0 0 0
2787841064 0.11671347171068192 0.0020989514887332916 -0.002937331795692444 -0.0006058337166905403 0 0 0 0
2791563148 0.13730096817016602 0.0005348026752471924 -0.0027383528649806976 -0.000256512314081192 0 0 0 0
2795285232 0.15882185101509094 -0.003985770046710968 -0.0024967100471258163 0.00015135109424591064 0 0 0 0
2799007316 0.1781046986579895 -0.012844962999224663 -0.002111995592713356 0.0004487670958042145 0 0 0 0
2802729400 0.19753076136112213 -0.02672547847032547 -0.0017615240067243576 0.00028728507459163666 0 0 0 0
2806451484 0.21359384059906006 -0.041673071682453156 -0.0017850734293460846 8.873920887708664e-05 0 0 0 0
2810173568 0.22835302352905273 -0.05705150216817856 -0.0020898832008242607 0.0003468301147222519 0 0 0 0
2813895652 0.24005156755447388 -0.07914465665817261 -0.0020164139568805695 0.0009112460538744926 0 0 0 0
2817617736 0.24786853790283203 -0.10011552274227142 -0.0016791634261608124 0.0013870224356651306 0 0 0 0
2821339820 0.2515793740749359 -0.1252768635749817 -0.0011671846732497215 0.001631900668144226 0 0 0 0
2825061904 0.25378528237342834 -0.14635592699050903 -0.0006178710609674454 0.0015772990882396698 0 0 0 0
2828783988 0.2522241771221161 -0.168257474899292 -0.0001736953854560852 0.00151766836643219 0 0 0 0
2832506072 0.24597463011741638 -0.19132867455482483 0.0001412695273756981 0.0013053752481937408 0 0 0 0
2836228156 0.23643308877944946 -0.2149539589881897 0.00037948228418827057 0.0011287909001111984 0 0 0 0
2839950240 0.2242848128080368 -0.23740160465240479 0.0006643440574407578 0.0009065615013241768 0 0 0 0
2843672324 0.21198929846286774 -0.25337904691696167 0.0008268523961305618 0.0006464254111051559 0 0 0 0
2847394408 0.19462516903877258 -0.26959556341171265 0.0009132539853453636 0.00027969852089881897 0 0 0 0
2851116492 0.17845278978347778 -0.28503498435020447 0.0008223280310630798 7.038749754428864e-05 0 0 0 0
2854838576 0.15696802735328674 -0.2970479130744934 0.0008505936712026596 1.4826655387878418e-06 0 0 0 0
2858560660 0.1402546763420105 -0.30775976181030273 0.0008793575689196587 -0.0005535241216421127 0 0 0 0
2862282744 0.11079634726047516 -0.3164272606372833 0.0006962455809116364 -0.0006358996033668518 0 0 0 0
2866004828 0.08832662552595139 -0.32018616795539856 0.0007703714072704315 -0.000568244606256485 0 0 0 0
2869726912 0.0636640340089798 -0.3209802508354187 0.0009672855958342552 -0.0006600441411137581 0 0 0 0
2873448996 0.041336074471473694 -0.3187142014503479 0.0009343456476926804 -0.001021544449031353 0 0 0 0
2877171080 0.012958437204360962 -0.31150907278060913 0.0008019767701625824 -0.0012698294594883919 0 0 0 0
2880893164 -0.010862931609153748 -0.30468112230300903 0.0005098842084407806 -0.0014983555302023888 0 0 0 0
2884615248 -0.030681859701871872 -0.2913209795951843 0.00021459534764289856 -0.0014840951189398766 0 0 0 0
2888337332 -0.058346495032310486 -0.2750687301158905 -5.751475691795349e-05 -0.001448826864361763 0 0 0 0
2892059416 -0.0745118260383606 -0.25796031951904297 -0.0002027321606874466 -0.0013403231278061867 0 0 0 0
2895781500 -0.0893293023109436 -0.23794013261795044 -0.00038090627640485764 -0.001179676502943039 0 0 0 0
2899503584 -0.10523258149623871 -0.21421119570732117 -0.000570160336792469 -0.0009822426363825798 0 0 0 0
2903225668 -0.11566569656133652 -0.18863390386104584 -0.0006763860583305359 -0.0005827974528074265 0 0 0 0
2906947752 -0.12398026883602142 -0.1610700488090515 -0.00043192505836486816 -0.00024050474166870117 0 0 0 0
2910669836 -0.12558981776237488 -0.1349565088748932 -0.00020598247647285461 -8.268561214208603e-05 0 0 0 0
2914391920 -0.12469381839036942 -0.10830751061439514 -1.816917210817337e-05 -0.00012638233602046967 0 0 0 0
2918114004 -0.12068188935518265 -0.08226899802684784 0.00014300085604190826 -5.322881042957306e-05 0 0 0 0
2921836088 -0.11374946683645248 -0.057015612721443176 0.00024552643299102783 -0.00011868122965097427 0 0 0 0
2925558172 -0.10434794425964355 -0.03323537856340408 0.00037913117557764053 -0.0002874499186873436 0 0 0 0
2929280256 -0.09170836210250854 -0.008996840566396713 0.00016955286264419556 -0.00033169426023960114 0 0 0 0
2933002340 -0.07535625994205475 0.01249765232205391 0.00013172347098588943 -0.00040480680763721466 0 0 0 0
2936724424 -0.056724779307842255 0.03146626427769661 -1.9990839064121246e-05 -0.00029089581221342087 0 0 0 0
2940446508 -0.035752296447753906 0.047893404960632324 -0.00022860616445541382 -0.0001267213374376297 0 0 0 0
2944168592 -0.013235028833150864 0.061701804399490356 -0.0001682322472333908 0.0002743406221270561 0 0 0 0
2947890676 0.0129015501588583 0.07319103926420212 6.703287363052368e-05 0.000650523230433464 0 0 0 0
2951612760 0.039279576390981674 0.08120284974575043 0.00037949346005916595 0.0009450996294617653 0 0 0 0
2955334844 0.06579195708036423 0.08506869524717331 0.0008849808946251869 0.0010006316006183624 0 0 0 0
2959056928 0.09425700455904007 0.08415435999631882 0.0012920154258608818 0.0009482158347964287 0 0 0 0
2962779012 0.12099234759807587 0.07957568019628525 0.0016030790284276009 0.0008077006787061691 0 0 0 0
2966501096 0.1465248316526413 0.0721348375082016 0.0020513562485575676 0.0006167581304907799 0 0 0 0
2970223180 0.1711755394935608 0.06162272021174431 0.0025015361607074738 9.07527282834053e-05 0 0 0 0
2973945264 0.1935911774635315 0.04501872882246971 0.00276215560734272 -0.0005213748663663864 0 0 0 0
2977667348 0.21403393149375916 0.02515498362481594 0.002702825702726841 -0.001133352518081665 0 0 0 0
2981389432 0.23168599605560303 0.008544422686100006 0.0024552121758461 -0.0016285153105854988 0 0 0 0
2985111516 0.24547605216503143 -0.014658764004707336 0.0020192358642816544 -0.002001454122364521 0 0 0 0
2988833600 0.25608697533607483 -0.036705709993839264 0.0014730151742696762 -0.002246242016553879 0 0 0 0
2992555684 0.2641375958919525 -0.060590583831071854 0.0009293463081121445 -0.002449287101626396 0 0 0 0
2996277768 0.2678229808807373 -0.0830579623579979 0.0005626268684864044 -0.002222900278866291 0 0 0 0
2999999852 0.2707517147064209 -0.10714513063430786 0.000303901731967926 -0.002123221755027771 0 0 0 0
