# HZ S RI R 50
1500000000 -0.15495161712169647 -0.025405440479516983 0.06845097243785858 -0.03181122988462448 0 0 0 0
1503722084 -0.1355036348104477 0.010674931108951569 0.0603337436914444 -0.043483346700668335 0 0 0 0
1507444168 -0.10877324640750885 0.04282807186245918 0.050102755427360535 -0.053482066839933395 0 0 0 0
1511166252 -0.07498487085103989 0.07076213508844376 0.03692423924803734 -0.06086787208914757 0 0 0 0
1514888336 -0.03638942912220955 0.09289932996034622 0.023038407787680626 -0.06432326138019562 0 0 0 0
1518610420 0.007160816341638565 0.10839973390102386 0.00981036014854908 -0.06372161954641342 0 0 0 0
1522332504 0.055700480937957764 0.11586832255125046 -0.00225263275206089 -0.06068778783082962 0 0 0 0
1526054588 0.10406018793582916 0.1150135025382042 -0.011529190465807915 -0.05601806193590164 0 0 0 0
1529776672 0.15273281931877136 0.10685285925865173 -0.018796421587467194 -0.050752609968185425 0 0 0 0
1533498756 0.20218536257743835 0.09026940166950226 -0.0257615577429533 -0.044620856642723083 0 0 0 0
1537220840 0.25041663646698 0.06357111036777496 -0.030973317101597786 -0.03764833137392998 0 0 0 0
1540942924 0.2942083179950714 0.02542392909526825 -0.034220922738313675 -0.02975505404174328 0 0 0 0
1544665008 0.33088600635528564 -0.016711905598640442 -0.03529058396816254 -0.022910643368959427 0 0 0 0
1548387092 0.35751253366470337 -0.06834548711776733 -0.03546220436692238 -0.017105605453252792 0 0 0 0
1552109176 0.3770148456096649 -0.12107352912425995 -0.035724759101867676 -0.011871352791786194 0 0 0 0
1555831260 0.386461079120636 -0.17829042673110962 -0.035463955253362656 -0.006788740865886211 0 0 0 0
1559553344 0.38956958055496216 -0.2347049117088318 -0.03429683297872543 -0.0019144071266055107 0 0 0 0
1563275428 0.3801122307777405 -0.29503005743026733 -0.03250407427549362 0.002792714163661003 0 0 0 0
1566997512 0.36707279086112976 -0.34967151284217834 -0.030210545286536217 0.006656784564256668 0 0 0 0
1570719596 0.33938872814178467 -0.4070163071155548 -0.02738058939576149 0.009897908195853233 0 0 0 0
1574441680 0.30701085925102234 -0.45714080333709717 -0.024648915976285934 0.012029889971017838 0 0 0 0
1578163764 0.2667539119720459 -0.5009276270866394 -0.022518135607242584 0.013607979752123356 0 0 0 0
1581885848 0.21291261911392212 -0.5404061675071716 -0.020536698400974274 0.015372242778539658 0 0 0 0
1585607932 0.16138386726379395 -0.570904016494751 -0.018424173817038536 0.01712954416871071 0 0 0 0
1589330016 0.10428708046674728 -0.59296715259552 -0.016159648075699806 0.018687497824430466 0 0 0 0
1593052100 0.03766772150993347 -0.6072952151298523 -0.0140977893024683 0.019994476810097694 0 0 0 0
1596774184 -0.024464964866638184 -0.6110841631889343 -0.01182626187801361 0.02149084024131298 0 0 0 0
1600496268 -0.08622004091739655 -0.6043521165847778 -0.009678716771304607 0.023000895977020264 0 0 0 0
1604218352 -0.14802652597427368 -0.5895047783851624 -0.006704331375658512 0.024639926850795746 0 0 0 0
1607940436 -0.21363015472888947 -0.5641477108001709 -0.0030408846214413643 0.025697406381368637 0 0 0 0
1611662520 -0.26669883728027344 -0.5327075123786926 0.0004219934344291687 0.026079393923282623 0 0 0 0
1615384604 -0.31850284337997437 -0.49257969856262207 0.004138249903917313 0.026033740490674973 0 0 0 0
1619106688 -0.3669111132621765 -0.44065237045288086 0.00805707648396492 0.025572622194886208 0 0 0 0
1622828772 -0.40557876229286194 -0.3859840929508209 0.012177051976323128 0.024741970002651215 0 0 0 0
1626550856 -0.43522778153419495 -0.3273940980434418 0.0167133379727602 0.022913489490747452 0 0 0 0
1630272940 -0.4588020443916321 -0.26233166456222534 0.02108178660273552 0.019704293459653854 0 0 0 0
1633995024 -0.47203007340431213 -0.19208453595638275 0.024620629847049713 0.015206110663712025 0 0 0 0
1637717108 -0.47506505250930786 -0.12294287979602814 0.02691316232085228 0.010273503139615059 0 0 0 0
1641439192 -0.4700140655040741 -0.04911778122186661 0.02800082042813301 0.004738778807222843 0 0 0 0
1645161276 -0.45280885696411133 0.02330729365348816 0.027866752818226814 -0.0003752075135707855 0 0 0 0
1648883360 -0.4223099946975708 0.09642065316438675 0.02686869166791439 -0.005382094532251358 0 0 0 0
1652605444 -0.38124004006385803 0.1613401174545288 0.025075875222682953 -0.010130242444574833 0 0 0 0
1656327528 -0.33115893602371216 0.21876931190490723 0.022557735443115234 -0.014179643243551254 0 0 0 0
1660049612 -0.2690330743789673 0.27120262384414673 0.018677247688174248 -0.0181119441986084 0 0 0 0
1663771696 -0.20199158787727356 0.311934232711792 0.014307497069239616 -0.020861195400357246 0 0 0 0
1667493780 -0.12927208840847015 0.34296971559524536 0.009722279384732246 -0.02248912677168846 0 0 0 0
1671215864 -0.04919196665287018 0.3635675311088562 0.004636548459529877 -0.022934408858418465 0 0 0 0
1674937948 0.030687987804412842 0.37181687355041504 -0.00011189375072717667 -0.022018253803253174 0 0 0 0
1678660032 0.11259312182664871 0.3674551546573639 -0.00380116980522871 -0.02004813216626644 0 0 0 0
1682382116 0.1944797784090042 0.3482605516910553 -0.006868790835142136 -0.018044335767626762 0 0 0 0
1686104200 0.27273693680763245 0.31726565957069397 -0.009599987417459488 -0.015429658815264702 0 0 0 0
1689826284 0.3439803421497345 0.27497386932373047 -0.011449995450675488 -0.012208204716444016 0 0 0 0
1693548368 0.40993732213974 0.21709054708480835 -0.012359261512756348 -0.008957901038229465 0 0 0 0
1697270452 0.4624179005622864 0.1555924415588379 -0.012349695898592472 -0.005982276052236557 0 0 0 0
1700992536 0.5054233074188232 0.08636029064655304 -0.011748000979423523 -0.003661787137389183 0 0 0 0
1704714620 0.5368741750717163 0.006134241819381714 -0.011136080138385296 -0.0014901254326105118 0 0 0 0
1708436704 0.55450040102005 -0.07021938264369965 -0.010111358016729355 0.0003879498690366745 0 0 0 0
1712158788 0.5604977011680603 -0.15247438848018646 -0.008384067565202713 0.001858648844063282 0 0 0 0
1715880872 0.5555369853973389 -0.22587504982948303 -0.006802148185670376 0.002479194663465023 0 0 0 0
1719602956 0.5346907377243042 -0.3051588833332062 -0.0053178369998931885 0.0023436937481164932 0 0 0 0
1723325040 0.5029693841934204 -0.37747088074684143 -0.004102375358343124 0.001813855953514576 0 0 0 0
1727047124 0.4640715420246124 -0.44342929124832153 -0.00347769632935524 0.0011241389438509941 0 0 0 0
1730769208 0.41275250911712646 -0.5029922723770142 -0.0035265833139419556 0.0005595609545707703 0 0 0 0
1734491292 0.35341066122055054 -0.5524523854255676 -0.003666098229587078 0.00026917923241853714 0 0 0 0
1738213376 0.29205459356307983 -0.5899795293807983 -0.003924745135009289 1.1688098311424255e-06 0 0 0 0
1741935460 0.2246263027191162 -0.6177384853363037 -0.0044736480340361595 -0.00017397385090589523 0 0 0 0
1745657544 0.15354621410369873 -0.6338725090026855 -0.005230770446360111 4.6798959374427795e-06 0 0 0 0
1749379628 0.08376213908195496 -0.6402838230133057 -0.005769794806838036 0.0007737185806035995 0 0 0 0
1753101712 0.009509742259979248 -0.6343448162078857 -0.005789490416646004 0.0015378231182694435 0 0 0 0
1756823796 -0.05334869772195816 -0.6187266707420349 -0.005710653029382229 0.002033679746091366 0 0 0 0
1760545880 -0.11195322871208191 -0.5945358872413635 -0.005783275701105595 0.002481072209775448 0 0 0 0
1764267964 -0.1732652336359024 -0.5605802536010742 -0.005787782371044159 0.0029412321746349335 0 0 0 0
1767990048 -0.21942400932312012 -0.5208107829093933 -0.005851873196661472 0.0033000176772475243 0 0 0 0
1771712132 -0.263097882270813 -0.47502434253692627 -0.005923164077103138 0.0037503568455576897 0 0 0 0
1775434216 -0.29946327209472656 -0.4229961037635803 -0.006587001495063305 0.004230117425322533 0 0 0 0
1779156300 -0.32506263256073 -0.37111639976501465 -0.007311909459531307 0.005541551858186722 0 0 0 0
1782878384 -0.3440881371498108 -0.3148617744445801 -0.00780844409018755 0.007253875024616718 0 0 0 0
1786600468 -0.3548012673854828 -0.2588505148887634 -0.007877238094806671 0.009785608388483524 0 0 0 0
1790322552 -0.359040766954422 -0.20079761743545532 -0.006873646751046181 0.012201301753520966 0 0 0 0
1794044636 -0.35430341958999634 -0.1424565613269806 -0.005496786907315254 0.014288113452494144 0 0 0 0
1797766720 -0.3419681191444397 -0.0864899680018425 -0.0039936210960149765 0.01653100922703743 0 0 0 0
1801488804 -0.3228273391723633 -0.03411635756492615 -0.001759217120707035 0.019390065222978592 0 0 0 0
1805210888 -0.2953930199146271 0.01910516619682312 0.002363777719438076 0.02179291844367981 0 0 0 0
1808932972 -0.25897106528282166 0.06539157778024673 0.007477211765944958 0.022955866530537605 0 0 0 0
1812655056 -0.21469633281230927 0.10651148855686188 0.012914570979773998 0.022629767656326294 0 0 0 0
1816377140 -0.16307425498962402 0.13993534445762634 0.018708912655711174 0.02069401741027832 0 0 0 0
1820099224 -0.10833711922168732 0.1616242378950119 0.024229049682617188 0.017183557152748108 0 0 0 0
1823821308 -0.05119773745536804 0.173410102725029 0.02840474620461464 0.01175231859087944 0 0 0 0
1827543392 0.0058914050459861755 0.17557482421398163 0.03068014606833458 0.005146858282387257 0 0 0 0
1831265476 0.05989604443311691 0.16854093968868256 0.031376391649246216 -0.0011073406785726547 0 0 0 0
1834987560 0.11043724417686462 0.1522328406572342 0.030567288398742676 -0.007786824367940426 0 0 0 0
1838709644 0.15702427923679352 0.13010329008102417 0.028405366465449333 -0.013969460502266884 0 0 0 0
1842431728 0.19811201095581055 0.10035635530948639 0.024826964363455772 -0.019233744591474533 0 0 0 0
1846153812 0.23112814128398895 0.06708692014217377 0.02074715681374073 -0.02335745096206665 0 0 0 0
1849875896 0.2585291564464569 0.029360473155975342 0.016169272363185883 -0.02660888433456421 0 0 0 0
1853597980 0.2803049087524414 -0.00891530979424715 0.011310207657516003 -0.02939186431467533 0 0 0 0
1857320064 0.2947966158390045 -0.05130179226398468 0.006342565640807152 -0.03107387199997902 0 0 0 0
1861042148 0.302829384803772 -0.09317842870950699 0.0009784121066331863 -0.032515574246644974 0 0 0 0
1864764232 0.303218275308609 -0.13589408993721008 -0.005481170490384102 -0.033050768077373505 0 0 0 0
1868486316 0.29530033469200134 -0.17609699070453644 -0.012297363020479679 -0.031669262796640396 0 0 0 0
1872208400 0.28350910544395447 -0.21270623803138733 -0.01825808361172676 -0.028559042140841484 0 0 0 0
1875930484 0.26585614681243896 -0.24775102734565735 -0.024295737966895103 -0.02451813407242298 0 0 0 0
1879652568 0.24336916208267212 -0.28024786710739136 -0.027773099020123482 -0.0198256503790617 0 0 0 0
1883374652 0.21672549843788147 -0.30613067746162415 -0.030339788645505905 -0.015499617904424667 0 0 0 0
1887096736 0.18589018285274506 -0.32805579900741577 -0.032986387610435486 -0.01050217542797327 0 0 0 0
1890818820 0.1503128558397293 -0.34313488006591797 -0.03468749299645424 -0.005139376036822796 0 0 0 0
1894540904 0.11570729315280914 -0.3505065441131592 -0.03572824224829674 0.0006808582693338394 0 0 0 0
1898262988 0.08100110292434692 -0.3515127897262573 -0.03588434308767319 0.0069237444549798965 0 0 0 0
1901985072 0.04844682291150093 -0.3471110463142395 -0.034819744527339935 0.013259928673505783 0 0 0 0
1905707156 0.0143088698387146 -0.33519312739372253 -0.032253410667181015 0.019419532269239426 0 0 0 0
1909429240 -0.011866018176078796 -0.3210466504096985 -0.028995368629693985 0.024816900491714478 0 0 0 0
1913151324 -0.03690146654844284 -0.30234870314598083 -0.02479216456413269 0.03051602467894554 0 0 0 0
1916873408 -0.054500512778759 -0.28031930327415466 -0.01980341225862503 0.03505776822566986 0 0 0 0
1920595492 -0.07279117405414581 -0.2541777193546295 -0.012824944220483303 0.039408497512340546 0 0 0 0
1924317576 -0.08429735153913498 -0.2261715680360794 -0.0047295670956373215 0.04194800555706024 0 0 0 0
1928039660 -0.089949831366539 -0.1978347897529602 0.004410995170474052 0.04229693114757538 0 0 0 0
1931761744 -0.09162519872188568 -0.16937406361103058 0.013573491014540195 0.04023611918091774 0 0 0 0
1935483828 -0.0877949595451355 -0.1414826214313507 0.021041037514805794 0.0356631875038147 0 0 0 0
1939205912 -0.08029976487159729 -0.11303757131099701 0.026711834594607353 0.029274147003889084 0 0 0 0
1942927996 -0.06839720904827118 -0.08695346117019653 0.030102113261818886 0.02332533895969391 0 0 0 0
1946650080 -0.050811685621738434 -0.063570037484169 0.032168492674827576 0.018379095941781998 0 0 0 0
1950372164 -0.029023082926869392 -0.043417446315288544 0.034483227878808975 0.01347061712294817 0 0 0 0
1954094248 -0.004035423509776592 -0.027638038620352745 0.0369611419737339 0.00804037507623434 0 0 0 0
1957816332 0.023813411593437195 -0.017067255452275276 0.038682665675878525 0.001053045503795147 0 0 0 0
1961538416 0.05330396443605423 -0.011450940743088722 0.038356002420186996 -0.006419871002435684 0 0 0 0
1965260500 0.08322061598300934 -0.012113481760025024 0.03614771366119385 -0.01357839722186327 0 0 0 0
1968982584 0.11274717003107071 -0.01901024393737316 0.03343222290277481 -0.01973649114370346 0 0 0 0
1972704668 0.14007490873336792 -0.02982301265001297 0.030008535832166672 -0.02528255246579647 0 0 0 0
1976426752 0.1640922725200653 -0.047133710235357285 0.025239095091819763 -0.031260646879673004 0 0 0 0
1980148836 0.18531504273414612 -0.0701683983206749 0.018287116661667824 -0.0362379290163517 0 0 0 0
1983870920 0.201757550239563 -0.09310827404260635 0.010374012403190136 -0.039197057485580444 0 0 0 0
1987593004 0.2108544260263443 -0.1221146285533905 0.0023109689354896545 -0.04022134095430374 0 0 0 0
1991315088 0.21488749980926514 -0.15004047751426697 -0.005626052618026733 -0.03943673148751259 0 0 0 0
1995037172 0.2133495956659317 -0.17775949835777283 -0.013186321593821049 -0.03693930804729462 0 0 0 0
1998759256 0.20807157456874847 -0.20335173606872559 -0.01941745914518833 -0.03314695879817009 0 0 0 0
2002481340 0.1964975744485855 -0.22860576212406158 -0.024316443130373955 -0.028672808781266212 0 0 0 0
2006203424 0.18266259133815765 -0.2488919198513031 -0.0287180095911026 -0.023699723184108734 0 0 0 0
2009925508 0.16456124186515808 -0.2694212794303894 -0.03192777559161186 -0.018175886943936348 0 0 0 0
2013647592 0.14826703071594238 -0.28203192353248596 -0.03442142903804779 -0.012823355384171009 0 0 0 0
2017369676 0.12448528409004211 -0.29647067189216614 -0.036686308681964874 -0.007010684348642826 0 0 0 0
2021091760 0.1019187718629837 -0.30607548356056213 -0.038220275193452835 -0.000985550694167614 0 0 0 0
2024813844 0.07691552489995956 -0.31153368949890137 -0.03882604092359543 0.006853294558823109 0 0 0 0
2028535928 0.04948621988296509 -0.31254518032073975 -0.036555215716362 0.014852638356387615 0 0 0 0
2032258012 0.02218366041779518 -0.3101702332496643 -0.03263889625668526 0.0218841340392828 0 0 0 0
2035980096 -0.0026588477194309235 -0.30118706822395325 -0.027228649705648422 0.027197666466236115 0 0 0 0
2039702180 -0.02863255888223648 -0.29006725549697876 -0.02159232087433338 0.031318746507167816 0 0 0 0
2043424264 -0.050353266298770905 -0.27256378531455994 -0.0154978446662426 0.033792801201343536 0 0 0 0
2047146348 -0.07165282964706421 -0.2519950270652771 -0.00893899705260992 0.03563893213868141 0 0 0 0
2050868432 -0.08811773359775543 -0.22869111597537994 -0.0030476050451397896 0.03615911677479744 0 0 0 0
2054590516 -0.1013951227068901 -0.20188644528388977 0.00364847294986248 0.03578299656510353 0 0 0 0
2058312600 -0.11233806610107422 -0.17204976081848145 0.010166644118726254 0.034173667430877686 0 0 0 0
2062034684 -0.11456891149282455 -0.14298172295093536 0.015010258182883263 0.031788066029548645 0 0 0 0
2065756768 -0.11590982973575592 -0.11045292019844055 0.020176172256469727 0.028269777074456215 0 0 0 0
2069478852 -0.11044956743717194 -0.07844655215740204 0.024497590959072113 0.024005558341741562 0 0 0 0
2073200936 -0.09912165999412537 -0.04606490582227707 0.02841472066938877 0.018531711772084236 0 0 0 0
2076923020 -0.08199699223041534 -0.0159209743142128 0.030407506972551346 0.012760937213897705 0 0 0 0
2080645104 -0.05974999815225601 0.011009765788912773 0.030603963881731033 0.007084314711391926 0 0 0 0
2084367188 -0.03247954696416855 0.034485869109630585 0.029762905091047287 0.0025742892175912857 0 0 0 0
2088089272 -0.002155264839529991 0.0525776632130146 0.029162146151065826 -0.0014338204637169838 0 0 0 0
2091811356 0.031606923788785934 0.06499785929918289 0.029172739014029503 -0.0047138528898358345 0 0 0 0
2095533440 0.06648017466068268 0.07166055589914322 0.02904721163213253 -0.009215638041496277 0 0 0 0
2099255524 0.10235689580440521 0.07248011976480484 0.027937309816479683 -0.01458133663982153 0 0 0 0
2102977608 0.13713130354881287 0.06796877086162567 0.025370072573423386 -0.019917525351047516 0 0 0 0
2106699692 0.17139437794685364 0.05759808421134949 0.020813750103116035 -0.0247357115149498 0 0 0 0
2110421776 0.20364512503147125 0.04228774458169937 0.01560811698436737 -0.02842608653008938 0 0 0 0
2114143860 0.23333288729190826 0.021446168422698975 0.009876169264316559 -0.030560266226530075 0 0 0 0
2117865944 0.25821933150291443 -0.0036926865577697754 0.00427780207246542 -0.0314536914229393 0 0 0 0
2121588028 0.27757081389427185 -0.03274768218398094 -0.001785258762538433 -0.032063622027635574 0 0 0 0
2125310112 0.2927868664264679 -0.06385603547096252 -0.008077239617705345 -0.0312882661819458 0 0 0 0
2129032196 0.30238789319992065 -0.09851166605949402 -0.014110757037997246 -0.0284225232899189 0 0 0 0
2132754280 0.30688291788101196 -0.13272853195667267 -0.019805941730737686 -0.024093033745884895 0 0 0 0
2136476364 0.305625855922699 -0.1659107357263565 -0.022925976663827896 -0.018912799656391144 0 0 0 0
2140198448 0.29825150966644287 -0.19852426648139954 -0.024625854566693306 -0.013372918590903282 0 0 0 0
2143920532 0.2854085862636566 -0.23053383827209473 -0.025433223694562912 -0.008831691928207874 0 0 0 0
2147642616 0.2684120237827301 -0.25809532403945923 -0.02549702674150467 -0.004599525593221188 0 0 0 0
2151364700 0.24680504202842712 -0.28215491771698 -0.02490028738975525 -0.00041492190212011337 0 0 0 0
2155086784 0.22518596053123474 -0.30195561051368713 -0.02398090437054634 0.0032547377049922943 0 0 0 0
2158808868 0.19829735159873962 -0.3187560737133026 -0.02237292379140854 0.006704347208142281 0 0 0 0
2162530952 0.1699538230895996 -0.3306751847267151 -0.02070225216448307 0.00951302982866764 0 0 0 0
2166253036 0.13949087262153625 -0.33785682916641235 -0.01897616684436798 0.01166585274040699 0 0 0 0
2169975120 0.10946840047836304 -0.34019607305526733 -0.017552223056554794 0.014094607904553413 0 0 0 0
2173697204 0.0816349983215332 -0.33866193890571594 -0.01582418754696846 0.016848184168338776 0 0 0 0
2177419288 0.05295383185148239 -0.33268147706985474 -0.013058030977845192 0.019602492451667786 0 0 0 0
2181141372 0.02426779270172119 -0.3234400153160095 -0.00955529510974884 0.021904608234763145 0 0 0 0
2184863456 -0.0029915422201156616 -0.3092954158782959 -0.0058050695806741714 0.02329651080071926 0 0 0 0
2188585540 -0.027059465646743774 -0.29081863164901733 -0.001949761062860489 0.024312037974596024 0 0 0 0
2192307624 -0.048193417489528656 -0.2669377028942108 0.0027682045474648476 0.02458714321255684 0 0 0 0
2196029708 -0.06237447261810303 -0.2411309778690338 0.007450058124959469 0.023882567882537842 0 0 0 0
2199751792 -0.07481545954942703 -0.21313908696174622 0.011917706578969955 0.02197888307273388 0 0 0 0
2203473876 -0.08318416774272919 -0.18153659999370575 0.01615453138947487 0.018608415499329567 0 0 0 0
2207195960 -0.08257319778203964 -0.15253549814224243 0.019062858074903488 0.014697985723614693 0 0 0 0
2210918044 -0.07751702517271042 -0.12326344102621078 0.020812954753637314 0.010562623851001263 0 0 0 0
2214640128 -0.06810285151004791 -0.09669644385576248 0.021747782826423645 0.006360196508467197 0 0 0 0
2218362212 -0.0579732321202755 -0.0701221376657486 0.02162444405257702 0.0016571944579482079 0 0 0 0
2222084296 -0.041515450924634933 -0.04695240780711174 0.02064419910311699 -0.001782681792974472 0 0 0 0
2225806380 -0.02222403883934021 -0.024669868871569633 0.019190849736332893 -0.0048576341941952705 0 0 0 0
2229528464 0.0018708761781454086 -0.007181850261986256 0.017986934632062912 -0.0078063178807497025 0 0 0 0
2233250548 0.02856156788766384 0.005931033752858639 0.016015460714697838 -0.01080169528722763 0 0 0 0
2236972632 0.056621771305799484 0.013280125334858894 0.014043664559721947 -0.013294077478349209 0 0 0 0
2240694716 0.08564706891775131 0.015959737822413445 0.011158145032823086 -0.01574200578033924 0 0 0 0
2244416800 0.11367394030094147 0.01324569433927536 0.007870343513786793 -0.01750326342880726 0 0 0 0
2248138884 0.14052796363830566 0.0059582144021987915 0.0038024717941880226 -0.018212871626019478 0 0 0 0
2251860968 0.16551639139652252 -0.006094168871641159 -4.143640398979187e-05 -0.018018832430243492 0 0 0 0
2255583052 0.1873149275779724 -0.023428715765476227 -0.0035386420786380768 -0.016745667904615402 0 0 0 0
2259305136 0.20623017847537994 -0.040302127599716187 -0.0059575363993644714 -0.015131570398807526 0 0 0 0
2263027220 0.22014085948467255 -0.06345701962709427 -0.007734864018857479 -0.013292033225297928 0 0 0 0
2266749304 0.2307330220937729 -0.08344972878694534 -0.009196036495268345 -0.011513959616422653 0 0 0 0
2270471388 0.23516681790351868 -0.11132383346557617 -0.010695811361074448 -0.009542224928736687 0 0 0 0
2274193472 0.23527809977531433 -0.13627777993679047 -0.011592013761401176 -0.007679981179535389 0 0 0 0
2277915556 0.2336157113313675 -0.16122597455978394 -0.012349153868854046 -0.005952000617980957 0 0 0 0
2281637640 0.22889505326747894 -0.1826334297657013 -0.012680701911449432 -0.004050329327583313 0 0 0 0
2285359724 0.21452787518501282 -0.2072077989578247 -0.012963233515620232 -0.002292049117386341 0 0 0 0
2289081808 0.19791637361049652 -0.22659558057785034 -0.012954275123775005 -0.0004381490871310234 0 0 0 0
2292803892 0.18463261425495148 -0.2392188012599945 -0.012830795720219612 0.0012748967856168747 0 0 0 0
2296525976 0.16023722290992737 -0.2518339455127716 -0.012458509765565395 0.0029423022642731667 0 0 0 0
2300248060 0.14288905262947083 -0.25797781348228455 -0.011935561895370483 0.004491318948566914 0 0 0 0
2303970144 0.1263750195503235 -0.2643439471721649 -0.01093986351042986 0.006425207480788231 0 0 0 0
2307692228 0.09509069472551346 -0.2664198577404022 -0.009827183559536934 0.007957493886351585 0 0 0 0
2311414312 0.07534604519605637 -0.2639291286468506 -0.007986578159034252 0.009373023174703121 0 0 0 0
2315136396 0.05314795672893524 -0.25653088092803955 -0.005922519601881504 0.009809429757297039 0 0 0 0
2318858480 0.027397796511650085 -0.24729254841804504 -0.003878978081047535 0.009846750646829605 0 0 0 0
2322580564 0.005765032023191452 -0.23321279883384705 -0.002580629661679268 0.009484897367656231 0 0 0 0
2326302648 -0.006033606827259064 -0.21532940864562988 -0.0012683002278208733 0.00893465243279934 0 0 0 0
2330024732 -0.018430009484291077 -0.19547754526138306 -0.000557268038392067 0.00816190056502819 0 0 0 0
2333746816 -0.030145488679409027 -0.17302851378917694 -0.0001483522355556488 0.007592431269586086 0 0 0 0
2337468900 -0.03770515322685242 -0.14808441698551178 0.00034340284764766693 0.007545821368694305 0 0 0 0
2341190984 -0.0411498136818409 -0.12095623463392258 0.0009367717429995537 0.0073744021356105804 0 0 0 0
2344913068 -0.03690716624259949 -0.09427866339683533 0.0016903160139918327 0.006990063935518265 0 0 0 0
2348635152 -0.030919212847948074 -0.06538171321153641 0.002319582737982273 0.006238248199224472 0 0 0 0
2352357236 -0.017458636313676834 -0.03990378975868225 0.0026265503838658333 0.005563237704336643 0 0 0 0
2356079320 0.00034634117037057877 -0.01628904789686203 0.003028376027941704 0.004817378707230091 0 0 0 0
2359801404 0.022542539983987808 0.003900534473359585 0.003118223510682583 0.004275576211512089 0 0 0 0
2363523488 0.04804641008377075 0.020217426121234894 0.0030335020273923874 0.0036065876483917236 0 0 0 0
2367245572 0.0772712305188179 0.03142169862985611 0.002499108202755451 0.0033188825473189354 0 0 0 0
2370967656 0.10828734934329987 0.03518861159682274 0.0022175386548042297 0.0033654170110821724 0 0 0 0
2374689740 0.13952207565307617 0.0332658551633358 0.0024793678894639015 0.0036612618714571 0 0 0 0
2378411824 0.16835370659828186 0.02623916044831276 0.0028752926737070084 0.003625352866947651 0 0 0 0
2382133908 0.19591283798217773 0.0150649044662714 0.0032576629891991615 0.0033424776047468185 0 0 0 0
2385855992 0.21947212517261505 0.000173225998878479 0.0033399146050214767 0.0029516397044062614 0 0 0 0
2389578076 0.2421739548444748 -0.017311088740825653 0.0036049168556928635 0.0027069253847002983 0 0 0 0
2393300160 0.2601969242095947 -0.041132811456918716 0.0034580687060952187 0.0027298592031002045 0 0 0 0
2397022244 0.2731490731239319 -0.06693360209465027 0.0036059170961380005 0.003136393614113331 0 0 0 0
2400744328 0.2857203483581543 -0.09011686593294144 0.004597027786076069 0.0035356394946575165 0 0 0 0
2404466412 0.2911750078201294 -0.1202249675989151 0.006148084998130798 0.0031742071732878685 0 0 0 0
2408188496 0.2919781506061554 -0.1501123309135437 0.007111802697181702 0.0018993476405739784 0 0 0 0
2411910580 0.2921721637248993 -0.17780590057373047 0.008050011470913887 0.0004292326048016548 0 0 0 0
2415632664 0.28427088260650635 -0.2030101716518402 0.008197417482733727 -0.0014089159667491913 0 0 0 0
2419354748 0.2727574110031128 -0.22844703495502472 0.007932866923511028 -0.002796129323542118 0 0 0 0
2423076832 0.2580178380012512 -0.25289031863212585 0.007474328391253948 -0.004459463991224766 0 0 0 0
2426798916 0.2387576401233673 -0.2749250531196594 0.0063580675050616264 -0.006021361798048019 0 0 0 0
2430521000 0.21678709983825684 -0.2939402461051941 0.004822971299290657 -0.006877295672893524 0 0 0 0
2434243084 0.19307678937911987 -0.3091913163661957 0.003454740159213543 -0.007189812138676643 0 0 0 0
2437965168 0.16914646327495575 -0.3203366696834564 0.002457389608025551 -0.007315783761441708 0 0 0 0
2441687252 0.14445918798446655 -0.32770466804504395 0.001927066594362259 -0.007514414377510548 0 0 0 0
2445409336 0.11270380020141602 -0.33345192670822144 0.001326143741607666 -0.007617667317390442 0 0 0 0
2449131420 0.08382269740104675 -0.33226707577705383 0.0008662045001983643 -0.00803740881383419 0 0 0 0
2452853504 0.05824364721775055 -0.3267541527748108 6.303749978542328e-05 -0.008580869063735008 0 0 0 0
2456575588 0.0245463028550148 -0.3181826174259186 -0.0008931998163461685 -0.009214498102664948 0 0 0 0
2460297672 -0.0006872648373246193 -0.3038933575153351 -0.002232762984931469 -0.009793355129659176 0 0 0 0
2464019756 -0.023191973567008972 -0.2874651551246643 -0.004179922863841057 -0.010206908918917179 0 0 0 0
2467741840 -0.045316241681575775 -0.2655106782913208 -0.006079738959670067 -0.009938585571944714 0 0 0 0
2471463924 -0.06236382573843002 -0.24087627232074738 -0.008048546500504017 -0.009476160630583763 0 0 0 0
2475186008 -0.07652050256729126 -0.21519586443901062 -0.010033510625362396 -0.008578242734074593 0 0 0 0
2478908092 -0.08526761829853058 -0.18732693791389465 -0.011956348083913326 -0.007246079854667187 0 0 0 0
2482630176 -0.09263705462217331 -0.15665972232818604 -0.013718889094889164 -0.005255783908069134 0 0 0 0
2486352260 -0.09438060224056244 -0.12629657983779907 -0.015138905495405197 -0.0026553114876151085 0 0 0 0
2490074344 -0.09186963737010956 -0.09492897987365723 -0.015708308666944504 -0.00020854268223047256 0 0 0 0
2493796428 -0.08267926424741745 -0.06381728500127792 -0.01599939912557602 0.002879176288843155 0 0 0 0
2497518512 -0.0696597695350647 -0.0348537378013134 -0.015353900380432606 0.00570736825466156 0 0 0 0
2501240596 -0.05125812068581581 -0.008416062220931053 -0.014283916912972927 0.008508834056556225 0 0 0 0
2504962680 -0.02918725088238716 0.014028427191078663 -0.012930772267282009 0.010670110583305359 0 0 0 0
2508684764 -0.00368660781532526 0.03353716805577278 -0.011083393357694149 0.013120114803314209 0 0 0 0
2512406848 0.02474159747362137 0.04866929352283478 -0.008967355825006962 0.015287559479475021 0 0 0 0
2516128932 0.05446190759539604 0.058849792927503586 -0.005918361246585846 0.01715422235429287 0 0 0 0
2519851016 0.08718036115169525 0.0637773722410202 -0.0020782072097063065 0.017987404018640518 0 0 0 0
2523573100 0.11895690858364105 0.0623793751001358 0.001232965849339962 0.017604006454348564 0 0 0 0
2527295184 0.14985540509223938 0.05496948957443237 0.00463414192199707 0.01663394272327423 0 0 0 0
2531017268 0.17874114215373993 0.042004749178886414 0.007631589658558369 0.015189442783594131 0 0 0 0
2534739352 0.20322808623313904 0.024930762127041817 0.010189227759838104 0.013512033969163895 0 0 0 0
2538461436 0.22330065071582794 0.005350120365619659 0.01263132318854332 0.011077189818024635 0 0 0 0
2542183520 0.24033883213996887 -0.015496395528316498 0.014192856848239899 0.008253253996372223 0 0 0 0
2545905604 0.2533336579799652 -0.04010508954524994 0.015212616883218288 0.0051711490377783775 0 0 0 0
2549627688 0.26050543785095215 -0.06505762040615082 0.01582268439233303 0.001997987739741802 0 0 0 0
2553349772 0.2660564184188843 -0.0899943858385086 0.015594851225614548 -0.0015060203149914742 0 0 0 0
2557071856 0.26886609196662903 -0.11265893280506134 0.014378481544554234 -0.0048476895317435265 0 0 0 0
2560793940 0.26407620310783386 -0.13550196588039398 0.012244855053722858 -0.007430453784763813 0 0 0 0
2564516024 0.25722455978393555 -0.1574731469154358 0.010063494555652142 -0.008885007351636887 0 0 0 0
2568238108 0.25079381465911865 -0.17358577251434326 0.007912217639386654 -0.009854414500296116 0 0 0 0
2571960192 0.24053043127059937 -0.19181743264198303 0.005807115696370602 -0.010672428645193577 0 0 0 0
2575682276 0.22632434964179993 -0.20940929651260376 0.0036656130105257034 -0.010826483368873596 0 0 0 0
2579404360 0.21456976234912872 -0.22108662128448486 0.0019145514816045761 -0.010562576353549957 0 0 0 0
2583126444 0.1993955820798874 -0.2320898026227951 0.00036492571234703064 -0.01046452485024929 0 0 0 0
2586848528 0.1843929886817932 -0.2430916726589203 -0.001224905252456665 -0.010453267022967339 0 0 0 0
2590570612 0.1670561283826828 -0.2505570352077484 -0.002847263589501381 -0.009944961406290531 0 0 0 0
2594292696 0.15222132205963135 -0.2537195682525635 -0.004263111390173435 -0.0090474933385849 0 0 0 0
2598014780 0.13139823079109192 -0.2578890323638916 -0.005597712472081184 -0.00787557102739811 0 0 0 0
2601736864 0.11426045745611191 -0.2568204700946808 -0.006714891642332077 -0.006516126915812492 0 0 0 0
2605458948 0.09591097384691238 -0.25446102023124695 -0.00732740294188261 -0.005271800793707371 0 0 0 0
2609181032 0.07950128614902496 -0.24853572249412537 -0.007563070394098759 -0.0035659223794937134 0 0 0 0
2612903116 0.06568099558353424 -0.23928941786289215 -0.007597270421683788 -0.0021890634670853615 0 0 0 0
2616625200 0.04995435103774071 -0.22840261459350586 -0.007128921337425709 -0.0008942428976297379 0 0 0 0
2620347284 0.0388777032494545 -0.21622894704341888 -0.006539704278111458 -0.00018337182700634003 0 0 0 0
2624069368 0.03203960880637169 -0.201877161860466 -0.005649239756166935 0.00038724858313798904 0 0 0 0
2627791452 0.024875804781913757 -0.18653300404548645 -0.0052178604528307915 0.0006200410425662994 0 0 0 0
2631513536 0.022472955286502838 -0.17215870320796967 -0.00505195464938879 0.0008416250348091125 0 0 0 0
2635235620 0.020680345594882965 -0.15707048773765564 -0.0050873104482889175 0.0012132292613387108 0 0 0 0
2638957704 0.02534913457930088 -0.14234815537929535 -0.004904363304376602 0.0018206927925348282 0 0 0 0
2642679788 0.027874067425727844 -0.13018961250782013 -0.004510359838604927 0.0025193141773343086 0 0 0 0
2646401872 0.03317132964730263 -0.11852665990591049 -0.0036768838763237 0.0028612958267331123 0 0 0 0
2650123956 0.04260968416929245 -0.10727537423372269 -0.002932397648692131 0.002848738804459572 0 0 0 0
2653846040 0.05391138046979904 -0.09711120277643204 -0.002461242489516735 0.0026236027479171753 0 0 0 0
2657568124 0.06479652225971222 -0.09189946204423904 -0.002283708192408085 0.0022781668230891228 0 0 0 0
2661290208 0.0789901614189148 -0.0896221250295639 -0.002295329235494137 0.002255495637655258 0 0 0 0
2665012292 0.0915098786354065 -0.09130002558231354 -0.002448752522468567 0.0023203669115900993 0 0 0 0
2668734376 0.10350249707698822 -0.09404486417770386 -0.002391461282968521 0.0027354061603546143 0 0 0 0
2672456460 0.11314180493354797 -0.10041593015193939 -0.0021545225754380226 0.0032112356275320053 0 0 0 0
2676178544 0.12152811139822006 -0.10902012139558792 -0.0020470432937145233 0.0034978054463863373 0 0 0 0
2679900628 0.12714609503746033 -0.11827601492404938 -0.0015783356502652168 0.004210803657770157 0 0 0 0
2683622712 0.12959040701389313 -0.12713244557380676 -0.0007331734523177147 0.004671834409236908 0 0 0 0
2687344796 0.12997078895568848 -0.13743387162685394 0.0004868479445576668 0.004914300516247749 0 0 0 0
2691066880 0.1296185553073883 -0.1467093974351883 0.001598551869392395 0.004413295537233353 0 0 0 0
2694788964 0.12703204154968262 -0.1550922691822052 0.0023331576958298683 0.004141911864280701 0 0 0 0
2698511048 0.1251406967639923 -0.16264399886131287 0.0031222477555274963 0.0034113358706235886 0 0 0 0
2702233132 0.11903703212738037 -0.17191539704799652 0.004050460644066334 0.00267734844237566 0 0 0 0
2705955216 0.11175306886434555 -0.17906305193901062 0.004524401389062405 0.0014700805768370628 0 0 0 0
2709677300 0.10328692197799683 -0.18657906353473663 0.004619854502379894 0.00021216273307800293 0 0 0 0
2713399384 0.09014245867729187 -0.19188261032104492 0.004285566508769989 -0.0009215082973241806 0 0 0 0
2717121468 0.07788432389497757 -0.19437144696712494 0.0033414391800761223 -0.0018082931637763977 0 0 0 0
2720843552 0.0647120326757431 -0.19487270712852478 0.0027448469772934914 -0.0020770812407135963 0 0 0 0
2724565636 0.05062541365623474 -0.19204996526241302 0.0021950053051114082 -0.002108699642121792 0 0 0 0
2728287720 0.03663584589958191 -0.18560567498207092 0.001916772685945034 -0.002285536378622055 0 0 0 0
2732009804 0.024433225393295288 -0.17670400440692902 0.0017097108066082 -0.002371516078710556 0 0 0 0
2735731888 0.014596372842788696 -0.1651708036661148 0.0014932258054614067 -0.0027356306090950966 0 0 0 0
2739453972 0.006884558126330376 -0.15446849167346954 0.0010092295706272125 -0.0030669691041111946 0 0 0 0
2743176056 -0.0007120594382286072 -0.1404062807559967 0.00040783919394016266 -0.0030905213207006454 0 0 0 0
2746898140 -0.006152823567390442 -0.1244337186217308 -1.1412426829338074e-05 -0.0028877221047878265 0 0 0 0
2750620224 -0.009316980838775635 -0.10670846700668335 -0.00016621313989162445 -0.002659098245203495 0 0 0 0
2754342308 -0.007275637239217758 -0.08856131136417389 -0.00018090102821588516 -0.002667372114956379 0 0 0 0
2758064392 -0.0028188489377498627 -0.0712815597653389 -0.0003403564915060997 -0.002932971343398094 0 0 0 0
2761786476 0.0037384890019893646 -0.05395721271634102 -0.0008976003155112267 -0.0029662959277629852 0 0 0 0
2765508560 0.013741879723966122 -0.03724569454789162 -0.0014351634308695793 -0.00295853428542614 0 0 0 0
2769230644 0.02752063050866127 -0.02241496555507183 -0.0019541699439287186 -0.0026625171303749084 0 0 0 0
2772952728 0.04367838054895401 -0.010154337622225285 -0.002284536138176918 -0.002065284177660942 0 0 0 0
2776674812 0.06175759807229042 -2.8815120458602905e-05 -0.0023897355422377586 -0.0015543624758720398 0 0 0 0
2780396896 0.08145827054977417 0.0059790099039673805 -0.002224172465503216 -0.0013491008430719376 0 0 0 0
2784118980 0.10168324410915375 0.009886704385280609 -0.002544165588915348 -0.0009932341054081917 0 0 0 0
2787841064 0.1234637051820755 0.01030850037932396 -0.002517993561923504 -0.0005109598860144615 0 0 0 0
2791563148 0.14574359357357025 0.008663251996040344 -0.0022532595321536064 -0.00013459939509630203 0 0 0 0
2795285232 0.16783234477043152 0.002001142129302025 -0.0018264539539813995 2.810545265674591e-05 0 0 0 0
2799007316 0.18942314386367798 -0.010486230254173279 -0.00156316626816988 1.7656013369560242e-05 0 0 0 0
2802729400 0.20973892509937286 -0.02500949613749981 -0.0015100128948688507 -0.0001247711479663849 0 0 0 0
2806451484 0.22591818869113922 -0.04200068861246109 -0.0016446681693196297 -0.00024731922894716263 0 0 0 0
2810173568 0.23964014649391174 -0.06022172048687935 -0.001991785131394863 2.471078187227249e-05 0 0 0 0
2813895652 0.2497866451740265 -0.08415533602237701 -0.002079659141600132 0.0006829220801591873 0 0 0 0
2817617736 0.25712037086486816 -0.10625459253787994 -0.001698431558907032 0.0011647166684269905 0 0 0 0
2821339820 0.25872859358787537 -0.1315433382987976 -0.0010022828355431557 0.0015271427109837532 0 0 0 0
2825061904 0.25773435831069946 -0.15731975436210632 -0.0006106849759817123 0.0013504931703209877 0 0 0 0
2828783988 0.2554154098033905 -0.1799793243408203 -0.000200638547539711 0.0011958824470639229 0 0 0 0
2832506072 0.24768343567848206 -0.20341533422470093 -2.9249116778373718e-05 0.0009974772110581398 0 0 0 0
2836228156 0.23549242317676544 -0.22709371149539948 0.00014325976371765137 0.0010311556980013847 0 0 0 0
2839950240 0.21938456594944 -0.2488100379705429 0.00040752533823251724 0.0009201793000102043 0 0 0 0
2843672324 0.20719756186008453 -0.2624424695968628 0.0006522294133901596 0.0006148824468255043 0 0 0 0
2847394408 0.1886625736951828 -0.27651840448379517 0.0007233629003167152 0.00034227315336465836 0 0 0 0
2851116492 0.16403740644454956 -0.2922527492046356 0.000682528130710125 0.00013394467532634735 0 0 0 0
2854838576 0.1458761990070343 -0.3025944232940674 0.0006447648629546165 -0.00010089389979839325 0 0 0 0
2858560660 0.12775564193725586 -0.310740202665329 0.0007793428376317024 -0.0005530565977096558 0 0 0 0
2862282744 0.10136204957962036 -0.3169040083885193 0.0007304120808839798 -0.0005938811227679253 0 0 0 0
2866004828 0.07680146396160126 -0.31759771704673767 0.0007224073633551598 -0.0005584368482232094 0 0 0 0
2869726912 0.05411868169903755 -0.3172875642776489 0.0007656579837203026 -0.0008366769179701805 0 0 0 0
2873448996 0.03260837495326996 -0.3126075565814972 0.0006521018221974373 -0.0009316578507423401 0 0 0 0
2877171080 0.004373528063297272 -0.3059159219264984 0.0005387002602219582 -0.0011418722569942474 0 0 0 0
2880893164 -0.015809789299964905 -0.29532212018966675 0.0003737322986125946 -0.0011232653632760048 0 0 0 0
2884615248 -0.03546983748674393 -0.2819269299507141 0.00020940229296684265 -0.0011327145621180534 0 0 0 0
2888337332 -0.05452432110905647 -0.26613718271255493 0.00018133223056793213 -0.0010335827246308327 0 0 0 0
2892059416 -0.07350710034370422 -0.24894127249717712 -9.256415069103241e-06 -0.00103694386780262 0 0 0 0
2895781500 -0.0882878452539444 -0.22891642153263092 -0.00013668276369571686 -0.0010059615597128868 0 0 0 0
2899503584 -0.102029949426651 -0.20512498915195465 -0.0002802405506372452 -0.0008231336250901222 0 0 0 0
2903225668 -0.11110960692167282 -0.1806456297636032 -0.00024423375725746155 -0.0005607884377241135 0 0 0 0
2906947752 -0.11533667147159576 -0.1576373279094696 -0.00018410757184028625 -0.000322575680911541 0 0 0 0
2910669836 -0.11867022514343262 -0.12969833612442017 -3.192201256752014e-05 -0.00022994540631771088 0 0 0 0
2914391920 -0.11682304739952087 -0.10557101666927338 9.460095316171646e-05 -0.00026990752667188644 0 0 0 0
2918114004 -0.11201335489749908 -0.08145652711391449 0.00021426472812891006 -0.0002605011686682701 0 0 0 0
2921836088 -0.10499284416437149 -0.058375440537929535 0.000277126207947731 -0.0003682943060994148 0 0 0 0
2925558172 -0.09725772589445114 -0.03529439494013786 0.00030321255326271057 -0.0005854573100805283 0 0 0 0
2929280256 -0.08553268760442734 -0.013728354126214981 0.0001839231699705124 -0.0007042717188596725 0 0 0 0
2933002340 -0.07025455683469772 0.007928593084216118 2.0157545804977417e-05 -0.0006845025345683098 0 0 0 0
2936724424 -0.05251492187380791 0.026560422033071518 -0.00019395072013139725 -0.0006096912547945976 0 0 0 0
2940446508 -0.03358158469200134 0.041809599846601486 -0.0002937018871307373 -0.00043023284524679184 0 0 0 0
2944168592 -0.012078316882252693 0.0561082661151886 -0.0004199249669909477 -3.68775799870491e-05 0 0 0 0
2947890676 0.011294584721326828 0.06823167204856873 -0.0004138527438044548 0.00035285111516714096 0 0 0 0
2951612760 0.037791281938552856 0.07565578818321228 -0.00016806740313768387 0.0006753783673048019 0 0 0 0
2955334844 0.06484132260084152 0.07985508441925049 0.00028206873685121536 0.0010627908632159233 0 0 0 0
2959056928 0.09210304915904999 0.07945697754621506 0.0007545389235019684 0.0010007712990045547 0 0 0 0
2962779012 0.11835367977619171 0.07538191974163055 0.0010189414024353027 0.0010260920971632004 0 0 0 0
2966501096 0.1434665322303772 0.06796063482761383 0.0015460280701518059 0.0008895788341760635 0 0 0 0
2970223180 0.16688193380832672 0.056832678616046906 0.002095460891723633 0.0005721962079405785 0 0 0 0
2973945264 0.1894545555114746 0.04232781380414963 0.002363060601055622 -5.6420452892780304e-05 0 0 0 0
2977667348 0.20966418087482452 0.025007180869579315 0.0023680347949266434 -0.0006811367347836494 0 0 0 0
2981389432 0.22677144408226013 0.00975096970796585 0.002116951160132885 -0.0010756775736808777 0 0 0 0
2985111516 0.24124521017074585 -0.013131685554981232 0.0017747348174452782 -0.001391868107020855 0 0 0 0
2988833600 0.25169816613197327 -0.03575661778450012 0.0013867421075701714 -0.0015513105317950249 0 0 0 0
2992555684 0.2604101002216339 -0.05858467519283295 0.0009631896391510963 -0.0016904473304748535 0 0 0 0
2996277768 0.2648063898086548 -0.08242317289113998 0.0009305030107498169 -0.001691204495728016 0 0 0 0
2999999852 0.267080694437027 -0.10698097199201584 0.0005723824724555016 -0.0015078475698828697 0 0 0 0
