# HZ S RI R 50
1500000000 -0.15050379931926727 0.004531335085630417 0.07489722222089767 -0.03549705073237419 0 0 0 0
1503722084 -0.1250925362110138 0.0385577455163002 0.06514663249254227 -0.04875844717025757 0 0 0 0
1507444168 -0.09304355829954147 0.06792764365673065 0.053058139979839325 -0.05916931852698326 0 0 0 0
1511166252 -0.054523859173059464 0.09272480010986328 0.03832676261663437 -0.06664931774139404 0 0 0 0
1514888336 -0.012414283119142056 0.1101592555642128 0.02325134351849556 -0.06969241797924042 0 0 0 0
1518610420 0.03528273478150368 0.12009753286838531 0.008334215730428696 -0.06876389682292938 0 0 0 0
1522332504 0.08462134003639221 0.12170356512069702 -0.004268430173397064 -0.0648692399263382 0 0 0 0
1526054588 0.13447295129299164 0.11458191275596619 -0.014636140316724777 -0.05938428267836571 0 0 0 0
1529776672 0.18318089842796326 0.09979358315467834 -0.022633345797657967 -0.052708446979522705 0 0 0 0
1533498756 0.22984158992767334 0.07351790368556976 -0.028951507061719894 -0.044861044734716415 0 0 0 0
1537220840 0.272501677274704 0.04187295585870743 -0.033434122800827026 -0.036909881979227066 0 0 0 0
1540942924 0.309448778629303 0.0006369221955537796 -0.035681240260601044 -0.029434800148010254 0 0 0 0
1544665008 0.3398899435997009 -0.04317024350166321 -0.036551401019096375 -0.02330944314599037 0 0 0 0
1548387092 0.36044806241989136 -0.0950462818145752 -0.03735942766070366 -0.01764226332306862 0 0 0 0
1552109176 0.37514811754226685 -0.1470578908920288 -0.03788150101900101 -0.012164835818111897 0 0 0 0
1555831260 0.38222551345825195 -0.20071792602539062 -0.03768080472946167 -0.00630513671785593 0 0 0 0
1559553344 0.3787452280521393 -0.25681638717651367 -0.03617957606911659 -0.0008035022765398026 0 0 0 0
1563275428 0.36555740237236023 -0.31172317266464233 -0.03400237113237381 0.00386862363666296 0 0 0 0
1566997512 0.3487592935562134 -0.3654532730579376 -0.031525470316410065 0.007907876744866371 0 0 0 0
1570719596 0.3222011923789978 -0.4179863929748535 -0.028585858643054962 0.011120162904262543 0 0 0 0
1574441680 0.2870754599571228 -0.4641948342323303 -0.025825725868344307 0.013264287263154984 0 0 0 0
1578163764 0.2421824038028717 -0.506309449672699 -0.02336042746901512 0.015499107539653778 0 0 0 0
1581885848 0.19235163927078247 -0.5396055579185486 -0.021100707352161407 0.01748109981417656 0 0 0 0
1585607932 0.13786855340003967 -0.5648308396339417 -0.018262086436152458 0.019236408174037933 0 0 0 0
1589330016 0.08298569172620773 -0.583295464515686 -0.01553761214017868 0.020487837493419647 0 0 0 0
1593052100 0.022345393896102905 -0.5941922664642334 -0.013319685123860836 0.021480973809957504 0 0 0 0
1596774184 -0.03736644983291626 -0.5956915020942688 -0.011068136431276798 0.022716745734214783 0 0 0 0
1600496268 -0.09700104594230652 -0.5903005599975586 -0.008829868398606777 0.024281848222017288 0 0 0 0
1604218352 -0.15755903720855713 -0.5718286037445068 -0.005527465604245663 0.025866519659757614 0 0 0 0
1607940436 -0.21461942791938782 -0.5468800663948059 -0.0016441987827420235 0.02691139094531536 0 0 0 0
1611662520 -0.2672808766365051 -0.5150651931762695 0.00252409465610981 0.027178321033716202 0 0 0 0
1615384604 -0.3135024607181549 -0.47473466396331787 0.00675787590444088 0.02659376710653305 0 0 0 0
1619106688 -0.35667216777801514 -0.42725369334220886 0.010979942977428436 0.025382205843925476 0 0 0 0
1622828772 -0.3922697901725769 -0.37504133582115173 0.015050418674945831 0.02362065389752388 0 0 0 0
1626550856 -0.4199807345867157 -0.31851765513420105 0.019220035523176193 0.021007830277085304 0 0 0 0
1630272940 -0.441902220249176 -0.2564166486263275 0.022910336032509804 0.016882892698049545 0 0 0 0
1633995024 -0.4565368890762329 -0.19152390956878662 0.025439497083425522 0.012244665995240211 0 0 0 0
1637717108 -0.4615757465362549 -0.12379837036132812 0.026942819356918335 0.007224259898066521 0 0 0 0
1641439192 -0.4574020504951477 -0.05297645926475525 0.027155844494700432 0.0018822606652975082 0 0 0 0
1645161276 -0.4410160183906555 0.019420772790908813 0.02628139778971672 -0.0030908845365047455 0 0 0 0
1648883360 -0.4131038188934326 0.0872284471988678 0.02469385415315628 -0.007426265627145767 0 0 0 0
1652605444 -0.3751622438430786 0.15002238750457764 0.022352252155542374 -0.011323320679366589 0 0 0 0
1656327528 -0.32512763142585754 0.20985206961631775 0.01922493614256382 -0.014894280582666397 0 0 0 0
1660049612 -0.26653778553009033 0.2608751654624939 0.015824394300580025 -0.01761043258011341 0 0 0 0
1663771696 -0.20066016912460327 0.30081063508987427 0.011935776099562645 -0.01949787512421608 0 0 0 0
1667493780 -0.1327013522386551 0.33191388845443726 0.007946355268359184 -0.020741920918226242 0 0 0 0
1671215864 -0.056507956236600876 0.3533512353897095 0.0034690964967012405 -0.021229607984423637 0 0 0 0
1674937948 0.02403070032596588 0.36474519968032837 -0.0011124666780233383 -0.020231544971466064 0 0 0 0
1678660032 0.1070481538772583 0.3619924783706665 -0.004511827602982521 -0.01830269768834114 0 0 0 0
1682382116 0.1867297738790512 0.34584155678749084 -0.007239373400807381 -0.015945391729474068 0 0 0 0
1686104200 0.2638872265815735 0.3178263306617737 -0.009450915269553661 -0.01316288486123085 0 0 0 0
1689826284 0.33811134099960327 0.27520865201950073 -0.010688289999961853 -0.009942930191755295 0 0 0 0
1693548368 0.4022859036922455 0.2228250801563263 -0.010869648307561874 -0.007020925171673298 0 0 0 0
1697270452 0.45752573013305664 0.1605713814496994 -0.010493780486285686 -0.004570368677377701 0 0 0 0
1700992536 0.5019214749336243 0.08827819675207138 -0.009619168937206268 -0.00267995148897171 0 0 0 0
1704714620 0.5337828397750854 0.01402197778224945 -0.008663645014166832 -0.0013382993638515472 0 0 0 0
1708436704 0.5523096919059753 -0.06626224517822266 -0.007633213885128498 -0.000228135846555233 0 0 0 0
1712158788 0.5588676333427429 -0.1483241617679596 -0.006538182497024536 0.0005151461809873581 0 0 0 0
1715880872 0.5551762580871582 -0.22483716905117035 -0.005534597672522068 0.0009382758289575577 0 0 0 0
1719602956 0.5346502065658569 -0.3049837350845337 -0.004620952531695366 0.000989663414657116 0 0 0 0
1723325040 0.5034016370773315 -0.3785512447357178 -0.003796531818807125 0.0008000368252396584 0 0 0 0
1727047124 0.4673077166080475 -0.43951189517974854 -0.0032513802871108055 0.0002738162875175476 0 0 0 0
1730769208 0.4135705232620239 -0.5019857287406921 -0.0032790908589959145 -0.00018532946705818176 0 0 0 0
1734491292 0.3562448024749756 -0.5521476864814758 -0.003460402600467205 -0.0004661800339818001 0 0 0 0
1738213376 0.2925732135772705 -0.5914900898933411 -0.0035929689183831215 -0.0006519369781017303 0 0 0 0
1741935460 0.22752800583839417 -0.6177253723144531 -0.003989371471107006 -0.0008985511958599091 0 0 0 0
1745657544 0.15377077460289001 -0.6351262331008911 -0.004628757014870644 -0.0009727003052830696 0 0 0 0
1749379628 0.08286875486373901 -0.6413851976394653 -0.005388094112277031 -0.0005647391080856323 0 0 0 0
1753101712 0.013526754453778267 -0.6365965604782104 -0.005767924711108208 0.00010457541793584824 0 0 0 0
1756823796 -0.056285858154296875 -0.6197409629821777 -0.0059881070628762245 0.0005378136411309242 0 0 0 0
1760545880 -0.1159888505935669 -0.5942510366439819 -0.006282067857682705 0.0009153373539447784 0 0 0 0
1764267964 -0.1744302213191986 -0.5600532293319702 -0.006731119938194752 0.001461937092244625 0 0 0 0
1767990048 -0.22450290620326996 -0.5199387073516846 -0.007239355705678463 0.0021698540076613426 0 0 0 0
1771712132 -0.2658880949020386 -0.47350847721099854 -0.007769588381052017 0.0028572184965014458 0 0 0 0
1775434216 -0.29883286356925964 -0.4233832359313965 -0.008596348576247692 0.003725324757397175 0 0 0 0
1779156300 -0.3252401351928711 -0.36913543939590454 -0.009510908275842667 0.0054955389350652695 0 0 0 0
1782878384 -0.343908429145813 -0.31298118829727173 -0.010171983391046524 0.007858829572796822 0 0 0 0
1786600468 -0.3557041883468628 -0.2540125250816345 -0.009959926828742027 0.010709241963922977 0 0 0 0
1790322552 -0.35810744762420654 -0.19632969796657562 -0.008807397447526455 0.013846411369740963 0 0 0 0
1794044636 -0.3535407781600952 -0.1378013789653778 -0.006726342253386974 0.01677609793841839 0 0 0 0
1797766720 -0.339584082365036 -0.08179483562707901 -0.004114634357392788 0.019385309889912605 0 0 0 0
1801488804 -0.31875208020210266 -0.02966800332069397 -0.0005667349323630333 0.022145558148622513 0 0 0 0
1805210888 -0.28931254148483276 0.01965692639350891 0.004224959760904312 0.02405640110373497 0 0 0 0
1808932972 -0.25253596901893616 0.06797464936971664 0.010195170529186726 0.02474146895110607 0 0 0 0
1812655056 -0.2083008885383606 0.10671599209308624 0.016601551324129105 0.02354964055120945 0 0 0 0
1816377140 -0.15698984265327454 0.13718874752521515 0.02256404235959053 0.020381243899464607 0 0 0 0
1820099224 -0.103123739361763 0.15752799808979034 0.02796461433172226 0.015924960374832153 0 0 0 0
1823821308 -0.04732578620314598 0.16854137182235718 0.0322406031191349 0.009291062131524086 0 0 0 0
1827543392 0.006872966885566711 0.16956345736980438 0.03451816737651825 0.0018029464408755302 0 0 0 0
1831265476 0.06031922250986099 0.16140791773796082 0.03429495915770531 -0.006380636245012283 0 0 0 0
1834987560 0.10856277495622635 0.14698444306850433 0.032068293541669846 -0.013653729110956192 0 0 0 0
1838709644 0.15486176311969757 0.12341757118701935 0.028125448152422905 -0.01935318112373352 0 0 0 0
1842431728 0.19304490089416504 0.09621723741292953 0.024231677874922752 -0.023993652313947678 0 0 0 0
1846153812 0.22595137357711792 0.06297103315591812 0.01916377618908882 -0.027916904538869858 0 0 0 0
1849875896 0.2531621754169464 0.02698543667793274 0.013427767902612686 -0.030806098133325577 0 0 0 0
1853597980 0.2735801935195923 -0.012155979871749878 0.007784378714859486 -0.032380931079387665 0 0 0 0
1857320064 0.2879798412322998 -0.05211769789457321 0.0025417786091566086 -0.03287786245346069 0 0 0 0
1861042148 0.2953464388847351 -0.09516412019729614 -0.0027859313413500786 -0.03310017287731171 0 0 0 0
1864764232 0.296028733253479 -0.1352439522743225 -0.008347399532794952 -0.03301609680056572 0 0 0 0
1868486316 0.2889184057712555 -0.1729447841644287 -0.014325249008834362 -0.031432703137397766 0 0 0 0
1872208400 0.2784891724586487 -0.20768213272094727 -0.019486214965581894 -0.028693590313196182 0 0 0 0
1875930484 0.26169702410697937 -0.24244700372219086 -0.024490276351571083 -0.02488081529736519 0 0 0 0
1879652568 0.2399308681488037 -0.2740423083305359 -0.028430718928575516 -0.02069130167365074 0 0 0 0
1883374652 0.2153089940547943 -0.29992547631263733 -0.03184305131435394 -0.015908297151327133 0 0 0 0
1887096736 0.1853843480348587 -0.3201449513435364 -0.03480691462755203 -0.010744825936853886 0 0 0 0
1890818820 0.15303105115890503 -0.3346201479434967 -0.036831583827733994 -0.004456082358956337 0 0 0 0
1894540904 0.11945919692516327 -0.3429720103740692 -0.03781010955572128 0.0021198252215981483 0 0 0 0
1898262988 0.08607900142669678 -0.3453906178474426 -0.03772634640336037 0.008967714384198189 0 0 0 0
1901985072 0.05261977016925812 -0.3413703739643097 -0.03582315519452095 0.016176598146557808 0 0 0 0
1905707156 0.021487832069396973 -0.3331682085990906 -0.03225536271929741 0.022678248584270477 0 0 0 0
1909429240 -0.005444953218102455 -0.31657466292381287 -0.02746567875146866 0.028196284547448158 0 0 0 0
1913151324 -0.028827909380197525 -0.29830601811408997 -0.022459935396909714 0.03272043168544769 0 0 0 0
1916873408 -0.04941074922680855 -0.27740225195884705 -0.01624574512243271 0.03674204275012016 0 0 0 0
1920595492 -0.06426114588975906 -0.25322219729423523 -0.00907367654144764 0.039588212966918945 0 0 0 0
1924317576 -0.07450531423091888 -0.22796404361724854 -0.0016241008415818214 0.0412069633603096 0 0 0 0
1928039660 -0.08074448257684708 -0.20145834982395172 0.006485272198915482 0.040694765746593475 0 0 0 0
1931761744 -0.08470079302787781 -0.17582692205905914 0.01486243773251772 0.0381254106760025 0 0 0 0
1935483828 -0.08333860337734222 -0.1486404985189438 0.02192067727446556 0.0336700975894928 0 0 0 0
1939205912 -0.07731928676366806 -0.12296892702579498 0.026695681735873222 0.028328262269496918 0 0 0 0
1942927996 -0.06694450974464417 -0.09696511924266815 0.030210591852664948 0.022602548822760582 0 0 0 0
1946650080 -0.052210479974746704 -0.07319127023220062 0.03274940699338913 0.017628813162446022 0 0 0 0
1950372164 -0.032246533781290054 -0.05105776712298393 0.035127971321344376 0.012214350514113903 0 0 0 0
1954094248 -0.008172549307346344 -0.03434538468718529 0.03721854090690613 0.006367474794387817 0 0 0 0
1957816332 0.019418692216277122 -0.02252432517707348 0.03842008486390114 -0.0006164759397506714 0 0 0 0
1961538416 0.04868784546852112 -0.016286281868815422 0.03782890364527702 -0.00810929574072361 0 0 0 0
1965260500 0.07808615267276764 -0.01675841584801674 0.0352960005402565 -0.015155547298491001 0 0 0 0
1968982584 0.10617983341217041 -0.024145614355802536 0.031793221831321716 -0.021612592041492462 0 0 0 0
1972704668 0.13194243609905243 -0.03491407260298729 0.027324829250574112 -0.027323175221681595 0 0 0 0
1976426752 0.15506036579608917 -0.04960619658231735 0.021599460393190384 -0.03205472230911255 0 0 0 0
1980148836 0.17484071850776672 -0.06886103749275208 0.014575572684407234 -0.03579411655664444 0 0 0 0
1983870920 0.19027376174926758 -0.09247920662164688 0.007013804279267788 -0.03755822405219078 0 0 0 0
1987593004 0.20218011736869812 -0.11714506894350052 -0.0005226600915193558 -0.03788018971681595 0 0 0 0
1991315088 0.2074451595544815 -0.14428341388702393 -0.007604922167956829 -0.03676581382751465 0 0 0 0
1995037172 0.20876875519752502 -0.16891735792160034 -0.014478909783065319 -0.03400863707065582 0 0 0 0
1998759256 0.20363806188106537 -0.19601836800575256 -0.02046762779355049 -0.029254857450723648 0 0 0 0
2002481340 0.19508911669254303 -0.2196202576160431 -0.023848870769143105 -0.024342216551303864 0 0 0 0
2006203424 0.18188424408435822 -0.2425791174173355 -0.027223017066717148 -0.019755523651838303 0 0 0 0
2009925508 0.16681483387947083 -0.2610474228858948 -0.02935422584414482 -0.015580258332192898 0 0 0 0
2013647592 0.14788052439689636 -0.2762283384799957 -0.031423043459653854 -0.010735019110143185 0 0 0 0
2017369676 0.13056868314743042 -0.29017677903175354 -0.03330124914646149 -0.005830475129187107 0 0 0 0
2021091760 0.10656432062387466 -0.30062830448150635 -0.034688714891672134 0.00029336847364902496 0 0 0 0
2024813844 0.08204886317253113 -0.3078979551792145 -0.03447578847408295 0.006995286792516708 0 0 0 0
2028535928 0.05439325422048569 -0.3118896782398224 -0.03277759999036789 0.013722953386604786 0 0 0 0
2032258012 0.027358144521713257 -0.3096877634525299 -0.029421810060739517 0.019511140882968903 0 0 0 0
2035980096 0.0009786039590835571 -0.3018381595611572 -0.024820633232593536 0.024262037128210068 0 0 0 0
2039702180 -0.023568272590637207 -0.2910141050815582 -0.01970914751291275 0.027832375839352608 0 0 0 0
2043424264 -0.05004475638270378 -0.27344799041748047 -0.014148209244012833 0.030626371502876282 0 0 0 0
2047146348 -0.06889981031417847 -0.2539134621620178 -0.008601473644375801 0.031842704862356186 0 0 0 0
2050868432 -0.08540910482406616 -0.22991974651813507 -0.003506558947265148 0.032188933342695236 0 0 0 0
2054590516 -0.09986536204814911 -0.2033054530620575 0.0016263257712125778 0.032109085470438004 0 0 0 0
2058312600 -0.10744336992502213 -0.17515935003757477 0.006557363085448742 0.03157993406057358 0 0 0 0
2062034684 -0.11315019428730011 -0.14530347287654877 0.011859416961669922 0.029690057039260864 0 0 0 0
2065756768 -0.11438371986150742 -0.1133008748292923 0.01693945750594139 0.026861831545829773 0 0 0 0
2069478852 -0.10913504660129547 -0.08235450834035873 0.020841021090745926 0.023550979793071747 0 0 0 0
2073200936 -0.09963586926460266 -0.05032332241535187 0.024347465485334396 0.019359398633241653 0 0 0 0
2076923020 -0.08413790166378021 -0.019890347495675087 0.026452019810676575 0.01473414245992899 0 0 0 0
2080645104 -0.06308916211128235 0.008747780695557594 0.028110641986131668 0.010241333395242691 0 0 0 0
2084367188 -0.03585518151521683 0.03341652452945709 0.02842240408062935 0.005831463262438774 0 0 0 0
2088089272 -0.004950329661369324 0.052416522055864334 0.028729815036058426 0.0020509110763669014 0 0 0 0
2091811356 0.028813373297452927 0.06553927063941956 0.029232535511255264 -0.0017880918458104134 0 0 0 0
2095533440 0.06436219811439514 0.07312153279781342 0.029722675681114197 -0.006542777642607689 0 0 0 0
2099255524 0.10041563212871552 0.07444354891777039 0.028882749378681183 -0.012210234999656677 0 0 0 0
2102977608 0.13639593124389648 0.07007776945829391 0.026775585487484932 -0.017997201532125473 0 0 0 0
2106699692 0.1713961362838745 0.060210149735212326 0.022879017516970634 -0.02291800267994404 0 0 0 0
2110421776 0.20475223660469055 0.04472886025905609 0.018242619931697845 -0.026743631809949875 0 0 0 0
2114143860 0.23502995073795319 0.021413341164588928 0.012406481429934502 -0.029703622683882713 0 0 0 0
2117865944 0.2597818672657013 -0.004681438207626343 0.007112814113497734 -0.031322114169597626 0 0 0 0
2121588028 0.27875274419784546 -0.03405062109231949 0.00072429608553648 -0.032515812665224075 0 0 0 0
2125310112 0.2930757701396942 -0.06444142758846283 -0.005930813029408455 -0.032031938433647156 0 0 0 0
2129032196 0.30320191383361816 -0.09817340970039368 -0.012107414193451405 -0.029685860499739647 0 0 0 0
2132754280 0.3062179684638977 -0.13250023126602173 -0.017330627888441086 -0.025639690458774567 0 0 0 0
2136476364 0.3059518337249756 -0.16666176915168762 -0.021121468394994736 -0.021021869033575058 0 0 0 0
2140198448 0.29778367280960083 -0.1998145580291748 -0.02350650168955326 -0.01607910357415676 0 0 0 0
2143920532 0.2867411673069 -0.22994208335876465 -0.024644549936056137 -0.011749032884836197 0 0 0 0
2147642616 0.2684576213359833 -0.2608388662338257 -0.025291193276643753 -0.007120788097381592 0 0 0 0
2151364700 0.24764469265937805 -0.2837100028991699 -0.02556038647890091 -0.003194226883351803 0 0 0 0
2155086784 0.22456030547618866 -0.30463647842407227 -0.025075921788811684 0.0006610704585909843 0 0 0 0
2158808868 0.1945238709449768 -0.3226449191570282 -0.024322664365172386 0.004485352896153927 0 0 0 0
2162530952 0.16539572179317474 -0.33421778678894043 -0.022928815335035324 0.0077968258410692215 0 0 0 0
2166253036 0.13578692078590393 -0.3385544717311859 -0.021268827840685844 0.010585058480501175 0 0 0 0
2169975120 0.10466088354587555 -0.3402182459831238 -0.01999211683869362 0.013160275295376778 0 0 0 0
2173697204 0.07764647901058197 -0.33672067523002625 -0.018324419856071472 0.016441624611616135 0 0 0 0
2177419288 0.049956247210502625 -0.33043646812438965 -0.015822039917111397 0.020017089322209358 0 0 0 0
2181141372 0.020307809114456177 -0.3195415735244751 -0.0120086669921875 0.022954752668738365 0 0 0 0
2184863456 -0.004044592380523682 -0.304217129945755 -0.008013040758669376 0.02477617934346199 0 0 0 0
2188585540 -0.025301188230514526 -0.2856990098953247 -0.003446632996201515 0.026110194623470306 0 0 0 0
2192307624 -0.046074073761701584 -0.26270854473114014 0.001395239494740963 0.026598894968628883 0 0 0 0
2196029708 -0.05925700068473816 -0.23822371661663055 0.006492709740996361 0.025926318019628525 0 0 0 0
2199751792 -0.07058458775281906 -0.21217703819274902 0.011394601315259933 0.02394985593855381 0 0 0 0
2203473876 -0.0767417773604393 -0.18357624113559723 0.0156807042658329 0.020800601691007614 0 0 0 0
2207195960 -0.08105813711881638 -0.154338538646698 0.01916690543293953 0.01697358302772045 0 0 0 0
2210918044 -0.07795538008213043 -0.12421640008687973 0.021517138928174973 0.0128415422514081 0 0 0 0
2214640128 -0.06967176496982574 -0.09445501118898392 0.023008206859230995 0.008593103848397732 0 0 0 0
2218362212 -0.056820228695869446 -0.06747817248106003 0.02348652482032776 0.003697977401316166 0 0 0 0
2222084296 -0.03907764330506325 -0.04480261728167534 0.022625653073191643 -0.0010698400437831879 0 0 0 0
2225806380 -0.017900701612234116 -0.024261653423309326 0.020833449438214302 -0.0046898797154426575 0 0 0 0
2229528464 0.005877435207366943 -0.008868386037647724 0.019384991377592087 -0.007683116942644119 0 0 0 0
2233250548 0.03108077682554722 0.0027013905346393585 0.017219584435224533 -0.010734805837273598 0 0 0 0
2236972632 0.058057911694049835 0.00970388948917389 0.01491709053516388 -0.013261541724205017 0 0 0 0
2240694716 0.08580352365970612 0.012096572667360306 0.012059896253049374 -0.015687961131334305 0 0 0 0
2244416800 0.11257624626159668 0.00955185852944851 0.008930619806051254 -0.017361048609018326 0 0 0 0
2248138884 0.1384284496307373 0.0013881325721740723 0.0056158397346735 -0.018313439562916756 0 0 0 0
2251860968 0.16197329759597778 -0.0074344053864479065 0.0015179282054305077 -0.018741782754659653 0 0 0 0
2255583052 0.1838490515947342 -0.024092089384794235 -0.0022133225575089455 -0.01805143803358078 0 0 0 0
2259305136 0.2015027552843094 -0.0415981188416481 -0.004830223508179188 -0.016700560227036476 0 0 0 0
2263027220 0.21597863733768463 -0.0635792464017868 -0.00739985890686512 -0.01481472048908472 0 0 0 0
2266749304 0.22777073085308075 -0.08299752324819565 -0.009135851636528969 -0.013017414137721062 0 0 0 0
2270471388 0.2319151759147644 -0.11099497973918915 -0.010703634470701218 -0.011206602677702904 0 0 0 0
2274193472 0.23539885878562927 -0.13180695474147797 -0.011983253061771393 -0.009509322233498096 0 0 0 0
2277915556 0.23413246870040894 -0.15491890907287598 -0.013208342716097832 -0.007552267052233219 0 0 0 0
2281637640 0.22237995266914368 -0.18498723208904266 -0.013968860730528831 -0.005122588016092777 0 0 0 0
2285359724 0.2116066813468933 -0.20355592668056488 -0.014355715364217758 -0.0028036190196871758 0 0 0 0
2289081808 0.19578124582767487 -0.2214967906475067 -0.014478419907391071 -0.0005495212972164154 0 0 0 0
2292803892 0.17981968820095062 -0.23551815748214722 -0.014281108975410461 0.0014769667759537697 0 0 0 0
2296525976 0.1631525158882141 -0.24431708455085754 -0.013526562601327896 0.0034511834383010864 0 0 0 0
2300248060 0.14094313979148865 -0.25372228026390076 -0.01263138372451067 0.0053351521492004395 0 0 0 0
2303970144 0.12467825412750244 -0.26019591093063354 -0.011279024183750153 0.007079885341227055 0 0 0 0
2307692228 0.10382739454507828 -0.25979337096214294 -0.010209967382252216 0.008605157025158405 0 0 0 0
2311414312 0.07995492964982986 -0.26056209206581116 -0.0081672053784132 0.01010327972471714 0 0 0 0
2315136396 0.0530899241566658 -0.25629928708076477 -0.005642912350594997 0.010820136405527592 0 0 0 0
2318858480 0.03546906262636185 -0.2470405399799347 -0.004062341526150703 0.010607307776808739 0 0 0 0
2322580564 0.011823858134448528 -0.23243094980716705 -0.002443370409309864 0.010053114034235477 0 0 0 0
2326302648 -0.006774090230464935 -0.21530574560165405 -0.0011601587757468224 0.009398037567734718 0 0 0 0
2330024732 -0.012177906930446625 -0.1953534036874771 -0.0003956081345677376 0.008930954150855541 0 0 0 0
2333746816 -0.031080856919288635 -0.17089535295963287 0.0001783212646842003 0.008355915546417236 0 0 0 0
2337468900 -0.03173378109931946 -0.1470394730567932 0.0010303650051355362 0.007983402349054813 0 0 0 0
2341190984 -0.0374239906668663 -0.11989814043045044 0.0018881093710660934 0.00755266472697258 0 0 0 0
2344913068 -0.032819587737321854 -0.09303868561983109 0.0024789543822407722 0.006823183968663216 0 0 0 0
2348635152 -0.025763895362615585 -0.06627272814512253 0.003025396727025509 0.005877447314560413 0 0 0 0
2352357236 -0.012861879542469978 -0.04160967469215393 0.003222396597266197 0.005134065635502338 0 0 0 0
2356079320 0.005424670875072479 -0.019505390897393227 0.0033748317509889603 0.004672889597713947 0 0 0 0
2359801404 0.027175888419151306 -0.0012770453467965126 0.0035272035747766495 0.004142862744629383 0 0 0 0
2363523488 0.051735591143369675 0.013482666574418545 0.0037420978769659996 0.003445136360824108 0 0 0 0
2367245572 0.07906614243984222 0.023375442251563072 0.003549531102180481 0.0026207854971289635 0 0 0 0
2370967656 0.10802926123142242 0.027839872986078262 0.003186788409948349 0.002369021065533161 0 0 0 0
2374689740 0.13675211369991302 0.026502635329961777 0.0030250903218984604 0.002170449122786522 0 0 0 0
2378411824 0.16389773786067963 0.020230554044246674 0.002816922962665558 0.0018880311399698257 0 0 0 0
2382133908 0.19163037836551666 0.012300889939069748 0.0025698579847812653 0.0015286700800061226 0 0 0 0
2385855992 0.21628829836845398 -0.0025449544191360474 0.0022974759340286255 0.0016677677631378174 0 0 0 0
2389578076 0.2378619909286499 -0.018940120935440063 0.0019749505445361137 0.0015836507081985474 0 0 0 0
2393300160 0.2563604414463043 -0.04321179538965225 0.0019073579460382462 0.002350369468331337 0 0 0 0
2397022244 0.2700503170490265 -0.0664052963256836 0.0022391192615032196 0.0030967965722084045 0 0 0 0
2400744328 0.28173038363456726 -0.09352542459964752 0.0034111235290765762 0.003533722832798958 0 0 0 0
2404466412 0.28743740916252136 -0.12091778963804245 0.004773183725774288 0.0032204119488596916 0 0 0 0
2408188496 0.29019418358802795 -0.14789849519729614 0.005758950486779213 0.002387138083577156 0 0 0 0
2411910580 0.28863584995269775 -0.17366334795951843 0.00660075806081295 0.0015066275373101234 0 0 0 0
2415632664 0.2811075747013092 -0.20163419842720032 0.00711517408490181 0.000327075831592083 0 0 0 0
2419354748 0.26660728454589844 -0.22888177633285522 0.007507051341235638 -0.0010750144720077515 0 0 0 0
2423076832 0.2535457909107208 -0.250999391078949 0.007561642676591873 -0.002771396189928055 0 0 0 0
2426798916 0.23485703766345978 -0.27173876762390137 0.007241521030664444 -0.004409680142998695 0 0 0 0
2430521000 0.21311968564987183 -0.2908792793750763 0.006152529269456863 -0.005818641744554043 0 0 0 0
2434243084 0.1879729926586151 -0.30540305376052856 0.00467142928391695 -0.006736558862030506 0 0 0 0
2437965168 0.16911432147026062 -0.3144116997718811 0.0035941889509558678 -0.006998918950557709 0 0 0 0
2441687252 0.1426943689584732 -0.3234228789806366 0.0025407690554857254 -0.007346746511757374 0 0 0 0
2445409336 0.1102660596370697 -0.329477459192276 0.0018269065767526627 -0.007817249745130539 0 0 0 0
2449131420 0.08314535766839981 -0.32769790291786194 0.0012003881856799126 -0.008207417093217373 0 0 0 0
2452853504 0.05709847807884216 -0.32187944650650024 0.0004299292340874672 -0.00879279151558876 0 0 0 0
2456575588 0.026627786457538605 -0.31306755542755127 -0.0006884094327688217 -0.009419779293239117 0 0 0 0
2460297672 0.00032271165400743484 -0.2990531325340271 -0.002182834781706333 -0.010257361456751823 0 0 0 0
2464019756 -0.02244207076728344 -0.28094881772994995 -0.004332485608756542 -0.010640328750014305 0 0 0 0
2467741840 -0.04330025240778923 -0.25971513986587524 -0.00674530491232872 -0.010199028998613358 0 0 0 0
2471463924 -0.05709703266620636 -0.23663866519927979 -0.008544890210032463 -0.009524937719106674 0 0 0 0
2475186008 -0.07232464104890823 -0.21075975894927979 -0.01041918620467186 -0.008195634931325912 0 0 0 0
2478908092 -0.08138655126094818 -0.18322759866714478 -0.012192288413643837 -0.006616686470806599 0 0 0 0
2482630176 -0.08573023229837418 -0.1553216427564621 -0.013698783703148365 -0.004774930886924267 0 0 0 0
2486352260 -0.08755891770124435 -0.12554949522018433 -0.014865189790725708 -0.002637346275150776 0 0 0 0
2490074344 -0.08459426462650299 -0.09508350491523743 -0.01581200584769249 4.068110138177872e-05 0 0 0 0
2493796428 -0.07592751830816269 -0.06660879403352737 -0.01621987484395504 0.0028705745935440063 0 0 0 0
2497518512 -0.06367376446723938 -0.038410644978284836 -0.015616832301020622 0.005986005067825317 0 0 0 0
2501240596 -0.046722497791051865 -0.012872394174337387 -0.014526107348501682 0.00868668407201767 0 0 0 0
2504962680 -0.02540159411728382 0.009195501916110516 -0.01325210090726614 0.010884718038141727 0 0 0 0
2508684764 -0.0010503064841032028 0.027671508491039276 -0.011574452742934227 0.013494923710823059 0 0 0 0
2512406848 0.026177065446972847 0.04254559427499771 -0.009260406717658043 0.016191981732845306 0 0 0 0
2516128932 0.05629494786262512 0.05141008645296097 -0.0059256358072161674 0.018168728798627853 0 0 0 0
2519851016 0.08662867546081543 0.055754654109478 -0.0019206274300813675 0.01926649548113346 0 0 0 0
2523573100 0.11624757200479507 0.054321493953466415 0.002238372340798378 0.01869182288646698 0 0 0 0
2527295184 0.14590242505073547 0.046063847839832306 0.0056709423661231995 0.017605852335691452 0 0 0 0
2531017268 0.17217443883419037 0.03633558005094528 0.008642833679914474 0.01593620330095291 0 0 0 0
2534739352 0.19466346502304077 0.021538279950618744 0.01147290226072073 0.0138058140873909 0 0 0 0
2538461436 0.21436989307403564 0.004782259464263916 0.013762695714831352 0.011026876978576183 0 0 0 0
2542183520 0.23002739250659943 -0.014931716024875641 0.01552354171872139 0.007962780073285103 0 0 0 0
2545905604 0.24380961060523987 -0.03670532628893852 0.016468387097120285 0.004607697017490864 0 0 0 0
2549627688 0.2538735568523407 -0.061282142996788025 0.016829008236527443 0.0008750315755605698 0 0 0 0
2553349772 0.259768009185791 -0.08047206699848175 0.01602303795516491 -0.0025852592661976814 0 0 0 0
2557071856 0.2625426650047302 -0.10220476239919662 0.014305164106190205 -0.0060155680403113365 0 0 0 0
2560793940 0.2624904215335846 -0.12672848999500275 0.011856352910399437 -0.008340529166162014 0 0 0 0
2564516024 0.25884145498275757 -0.1484163999557495 0.009409966878592968 -0.009788116440176964 0 0 0 0
2568238108 0.25389471650123596 -0.16600251197814941 0.007158147171139717 -0.010432077571749687 0 0 0 0
2571960192 0.243752583861351 -0.18506836891174316 0.0048897890374064445 -0.01082610059529543 0 0 0 0
2575682276 0.23253479599952698 -0.20309966802597046 0.002819754183292389 -0.010834429413080215 0 0 0 0
2579404360 0.22011269629001617 -0.21601498126983643 0.0012554870918393135 -0.010346194729208946 0 0 0 0
2583126444 0.20544862747192383 -0.22928695380687714 1.2527219951152802e-05 -0.01012483611702919 0 0 0 0
2586848528 0.18845263123512268 -0.2410459965467453 -0.0013750763610005379 -0.010052242316305637 0 0 0 0
2590570612 0.17197580635547638 -0.24888581037521362 -0.0030907997861504555 -0.009652107022702694 0 0 0 0
2594292696 0.15304696559906006 -0.25394001603126526 -0.004474261775612831 -0.008757587522268295 0 0 0 0
2598014780 0.13463374972343445 -0.25795695185661316 -0.005593963898718357 -0.007774484343826771 0 0 0 0
2601736864 0.12071439623832703 -0.257560133934021 -0.006686732172966003 -0.006746926344931126 0 0 0 0
2605458948 0.10041972249746323 -0.25412529706954956 -0.007625441066920757 -0.005106775090098381 0 0 0 0
2609181032 0.08231990784406662 -0.2489674985408783 -0.007884803228080273 -0.0032011205330491066 0 0 0 0
2612903116 0.06683928519487381 -0.2405605912208557 -0.007389259524643421 -0.00167823676019907 0 0 0 0
2616625200 0.054606080055236816 -0.22964438796043396 -0.006936097517609596 -0.0004851995036005974 0 0 0 0
2620347284 0.043722979724407196 -0.21858462691307068 -0.006172485649585724 0.00042537227272987366 0 0 0 0
2624069368 0.032621897757053375 -0.20518818497657776 -0.005272092297673225 0.00098457932472229 0 0 0 0
2627791452 0.026953471824526787 -0.19047868251800537 -0.004633630625903606 0.0012946529313921928 0 0 0 0
2631513536 0.023324742913246155 -0.17440564930438995 -0.004209524020552635 0.0012043341994285583 0 0 0 0
2635235620 0.023755287751555443 -0.16039972007274628 -0.003950199112296104 0.0013627465814352036 0 0 0 0
2638957704 0.025843005627393723 -0.14481395483016968 -0.003766818903386593 0.0015999134629964828 0 0 0 0
2642679788 0.029747413471341133 -0.13227170705795288 -0.003307466395199299 0.0017801159992814064 0 0 0 0
2646401872 0.035798974335193634 -0.12041011452674866 -0.002960250712931156 0.0017111124470829964 0 0 0 0
2650123956 0.04334034398198128 -0.11068357527256012 -0.002618364989757538 0.001585325226187706 0 0 0 0
2653846040 0.05394452065229416 -0.10213035345077515 -0.002595437690615654 0.0013842731714248657 0 0 0 0
2657568124 0.06600424647331238 -0.09662054479122162 -0.0027248896658420563 0.0014288052916526794 0 0 0 0
2661290208 0.07791703939437866 -0.09531887620687485 -0.0030285734683275223 0.001705637201666832 0 0 0 0
2665012292 0.08970139920711517 -0.0954403281211853 -0.003038269467651844 0.002089458517730236 0 0 0 0
2668734376 0.09751550108194351 -0.10059289634227753 -0.0030516600236296654 0.002566906623542309 0 0 0 0
2672456460 0.10688012838363647 -0.10395444184541702 -0.002827553078532219 0.0031144199892878532 0 0 0 0
2676178544 0.11319682002067566 -0.11153577268123627 -0.002396821044385433 0.003614732064306736 0 0 0 0
2679900628 0.11906301975250244 -0.11854295432567596 -0.001790097914636135 0.004120765253901482 0 0 0 0
2683622712 0.1224716454744339 -0.1269853413105011 -0.001040867529809475 0.004363406449556351 0 0 0 0
2687344796 0.12268197536468506 -0.1353577971458435 -0.0001801745966076851 0.004590543918311596 0 0 0 0
2691066880 0.1224551647901535 -0.14339356124401093 0.0007133753970265388 0.004504880867898464 0 0 0 0
2694788964 0.11971412599086761 -0.1514950841665268 0.0012338804081082344 0.004435420036315918 0 0 0 0
2698511048 0.11913247406482697 -0.15716198086738586 0.00215827114880085 0.004318146035075188 0 0 0 0
2702233132 0.11271236836910248 -0.16555547714233398 0.0033260490745306015 0.003982936963438988 0 0 0 0
2705955216 0.10884129256010056 -0.17033913731575012 0.004256578162312508 0.0031516291201114655 0 0 0 0
2709677300 0.0988704115152359 -0.17780011892318726 0.0050614336505532265 0.001747804693877697 0 0 0 0
2713399384 0.09168830513954163 -0.18151973187923431 0.005095805041491985 0.000235777348279953 0 0 0 0
2717121468 0.07939548790454865 -0.1838398426771164 0.004561897367238998 -0.0010654190555214882 0 0 0 0
2720843552 0.06774470210075378 -0.1848883032798767 0.0040009887889027596 -0.0019763289019465446 0 0 0 0
2724565636 0.05611076578497887 -0.18352335691452026 0.0031583765521645546 -0.002512971870601177 0 0 0 0
2728287720 0.044457320123910904 -0.17807820439338684 0.0022917715832591057 -0.0026680827140808105 0 0 0 0
2732009804 0.03319751098752022 -0.17161187529563904 0.0017936602234840393 -0.002563532441854477 0 0 0 0
2735731888 0.02324933558702469 -0.16196511685848236 0.0014494741335511208 -0.0025905389338731766 0 0 0 0
2739453972 0.015360098332166672 -0.1517963856458664 0.0012746425345540047 -0.0025469521060585976 0 0 0 0
2743176056 0.007178596220910549 -0.13873472809791565 0.0010813567787408829 -0.0026181023567914963 0 0 0 0
2746898140 0.002808544784784317 -0.12371718883514404 0.0009541874751448631 -0.002737557515501976 0 0 0 0
2750620224 0.002189863473176956 -0.10837145149707794 0.0006735818460583687 -0.0027934955433011055 0 0 0 0
2754342308 0.002273883670568466 -0.0926891341805458 0.0004852237179875374 -0.0030988436192274094 0 0 0 0
2758064392 0.004940614104270935 -0.07746877521276474 9.335577487945557e-05 -0.003610682673752308 0 0 0 0
2761786476 0.011445900425314903 -0.061657536774873734 -0.0007107174023985863 -0.0037063835188746452 0 0 0 0
2765508560 0.020210150629281998 -0.04631732404232025 -0.0014981795102357864 -0.00359541829675436 0 0 0 0
2769230644 0.03206169605255127 -0.03221511095762253 -0.0021869735792279243 -0.0030095335096120834 0 0 0 0
2772952728 0.04572542756795883 -0.021152816712856293 -0.0024165185168385506 -0.0023415526375174522 0 0 0 0
2776674812 0.0617942288517952 -0.012542127631604671 -0.0025317948311567307 -0.0019498802721500397 0 0 0 0
2780396896 0.07885170727968216 -0.005714482627809048 -0.0025942297652363777 -0.0015785591676831245 0 0 0 0
2784118980 0.09701702743768692 -0.0008731745183467865 -0.0029340246692299843 -0.0012298524379730225 0 0 0 0
2787841064 0.11603037267923355 0.00010466575622558594 -0.0028996504843235016 -0.0005468027666211128 0 0 0 0
2791563148 0.1356326788663864 0.0003745332360267639 -0.002627153880894184 7.096491754055023e-05 0 0 0 0
2795285232 0.15710407495498657 -0.004907708615064621 -0.0022225268185138702 0.0005547152832150459 0 0 0 0
2799007316 0.1770651936531067 -0.012580417096614838 -0.0016994038596749306 0.0007547307759523392 0 0 0 0
2802729400 0.19632279872894287 -0.024260185658931732 -0.001149768941104412 0.000564897432923317 0 0 0 0
2806451484 0.21352073550224304 -0.03984859585762024 -0.0011455835774540901 0.00028569623827934265 0 0 0 0
2810173568 0.22717732191085815 -0.05652964487671852 -0.0013721147552132607 0.00029942579567432404 0 0 0 0
2813895652 0.24111317098140717 -0.0765276625752449 -0.0013938108459115028 0.0005382280796766281 0 0 0 0
2817617736 0.24823355674743652 -0.10053280740976334 -0.0011249594390392303 0.0008536400273442268 0 0 0 0
2821339820 0.25203439593315125 -0.12259913980960846 -0.0007843803614377975 0.0010467125102877617 0 0 0 0
2825061904 0.25315412878990173 -0.1467542052268982 -0.0003205304965376854 0.0010752398520708084 0 0 0 0
2828783988 0.25135356187820435 -0.16710355877876282 1.2819655239582062e-05 0.0008559301495552063 0 0 0 0
2832506072 0.24704062938690186 -0.18897435069084167 0.00014884863048791885 0.0007611243054270744 0 0 0 0
2836228156 0.2371583878993988 -0.2125784158706665 0.0003523183986544609 0.0005330881103873253 0 0 0 0
2839950240 0.2272689938545227 -0.23359405994415283 0.0005155652761459351 0.00047331955283880234 0 0 0 0
2843672324 0.21261362731456757 -0.2520742416381836 0.0006684847176074982 0.00012395065277814865 0 0 0 0
2847394408 0.1952526569366455 -0.27065908908843994 0.0005868710577487946 -0.00010150205343961716 0 0 0 0
2851116492 0.17930223047733307 -0.28443536162376404 0.0004309043288230896 -0.00025220587849617004 0 0 0 0
2854838576 0.15865455567836761 -0.29786717891693115 0.0004176618531346321 -0.00038998760282993317 0 0 0 0
2858560660 0.14066576957702637 -0.30826425552368164 0.0004210257902741432 -0.0009220773354172707 0 0 0 0
2862282744 0.11394819617271423 -0.3161487281322479 0.0001262454316020012 -0.0008941255509853363 0 0 0 0
2866004828 0.09483301639556885 -0.3182031810283661 0.00013861153274774551 -0.0006956364959478378 0 0 0 0
2869726912 0.06485642492771149 -0.32246091961860657 0.00018850527703762054 -0.0006769364699721336 0 0 0 0
2873448996 0.04189620167016983 -0.32023507356643677 0.00025282613933086395 -0.0007400186732411385 0 0 0 0
2877171080 0.012948542833328247 -0.3134971857070923 0.00019972678273916245 -0.0008049206808209419 0 0 0 0
2880893164 -0.008065834641456604 -0.3062277138233185 0.00013876520097255707 -0.0010583121329545975 0 0 0 0
2884615248 -0.032377395778894424 -0.29251065850257874 -8.586142212152481e-05 -0.0009634345769882202 0 0 0 0
2888337332 -0.05358543246984482 -0.2787187099456787 -0.00018846429884433746 -0.0008676312863826752 0 0 0 0
2892059416 -0.07576076686382294 -0.2593971788883209 -0.0003462899476289749 -0.0007488029077649117 0 0 0 0
2895781500 -0.09238733351230621 -0.23939640820026398 -0.0004191361367702484 -0.00041576381772756577 0 0 0 0
2899503584 -0.10392698645591736 -0.21575558185577393 -0.00036508403718471527 -0.0003340151160955429 0 0 0 0
2903225668 -0.12023492157459259 -0.18832556903362274 -0.0003231363371014595 2.4323351681232452e-05 0 0 0 0
2906947752 -0.12427598983049393 -0.163857564330101 -8.018501102924347e-05 0.0001939116045832634 0 0 0 0
2910669836 -0.12778818607330322 -0.13665252923965454 0.0002148076891899109 0.00019965879619121552 0 0 0 0
2914391920 -0.1263943910598755 -0.10962250828742981 0.0003612646833062172 7.151439785957336e-05 0 0 0 0
2918114004 -0.1225651279091835 -0.0825016126036644 0.0006097340956330299 8.616410195827484e-05 0 0 0 0
2921836088 -0.11605602502822876 -0.05633560195565224 0.0006255311891436577 -4.7575682401657104e-05 0 0 0 0
2925558172 -0.10654522478580475 -0.03231515362858772 0.0008247401565313339 -0.00021287333220243454 0 0 0 0
2929280256 -0.09358519315719604 -0.007835308089852333 0.0008361879736185074 -0.000519290566444397 0 0 0 0
2933002340 -0.0772627666592598 0.014496153220534325 0.0006045075133442879 -0.0005804048851132393 0 0 0 0
2936724424 -0.05801895633339882 0.033346302807331085 0.0004405239596962929 -0.0005391733720898628 0 0 0 0
2940446508 -0.03733907639980316 0.0503665953874588 0.0002999529242515564 -0.0005551725625991821 0 0 0 0
2944168592 -0.013921359553933144 0.06477849930524826 0.0001334119588136673 -0.00030825380235910416 0 0 0 0
2947890676 0.0119785126298666 0.07599849253892899 0.00016190484166145325 -1.4231540262699127e-05 0 0 0 0
2951612760 0.03972852602601051 0.08397669345140457 0.000410555861890316 0.0002670120447874069 0 0 0 0
2955334844 0.06724473088979721 0.08773388713598251 0.0008086990565061569 0.0003872755914926529 0 0 0 0
2959056928 0.09636463224887848 0.08706067502498627 0.0011521251872181892 0.00034847483038902283 0 0 0 0
2962779012 0.12443483620882034 0.081041619181633 0.0014587948098778725 0.0002266857773065567 0 0 0 0
2966501096 0.15008151531219482 0.07184441387653351 0.0017706910148262978 8.653663098812103e-05 0 0 0 0
2970223180 0.17395229637622833 0.06060744822025299 0.0020676646381616592 -0.0002919221296906471 0 0 0 0
2973945264 0.1967400163412094 0.04530615732073784 0.0021033724769949913 -0.0009883735328912735 0 0 0 0
2977667348 0.21724113821983337 0.02578536421060562 0.0020279092714190483 -0.0013461261987686157 0 0 0 0
2981389432 0.23458856344223022 0.005612090229988098 0.001681036315858364 -0.0018301662057638168 0 0 0 0
2985111516 0.24728979170322418 -0.015436366200447083 0.0013798773288726807 -0.0018298113718628883 0 0 0 0
2988833600 0.2576741576194763 -0.04085208475589752 0.0009175995364785194 -0.002195967361330986 0 0 0 0
2992555684 0.26554590463638306 -0.06164830923080444 0.00041968096047639847 -0.0022524017840623856 0 0 0 0
2996277768 0.26805102825164795 -0.0881626158952713 8.896645158529282e-05 -0.0019381949678063393 0 0 0 0
2999999852 0.2703644037246704 -0.11178833991289139 -0.0004113391041755676 -0.001862398348748684 0 0 0 0
