# HZ S RI R 50
1500000000 -0.1559969186782837 0.0018117278814315796 0.07169613987207413 -0.034763261675834656 0 0 0 0
1503722084 -0.13070407509803772 0.036424096673727036 0.06331133842468262 -0.046384699642658234 0 0 0 0
1507444168 -0.09797908365726471 0.06718797981739044 0.05164682865142822 -0.05666923522949219 0 0 0 0
1511166252 -0.05944523215293884 0.09260959923267365 0.03843167796730995 -0.06359592080116272 0 0 0 0
1514888336 -0.01626550406217575 0.11104439944028854 0.02408747375011444 -0.06687217205762863 0 0 0 0
1518610420 0.0314585417509079 0.1222158670425415 0.010365307331085205 -0.06676192581653595 0 0 0 0
1522332504 0.08189059793949127 0.12426406145095825 -0.0016346899792551994 -0.06415194272994995 0 0 0 0
1526054588 0.13238617777824402 0.11753786355257034 -0.012444155290722847 -0.05952832102775574 0 0 0 0
1529776672 0.18212009966373444 0.10205001384019852 -0.020818933844566345 -0.05364227294921875 0 0 0 0
1533498756 0.22913673520088196 0.07706084102392197 -0.02818145975470543 -0.04619796574115753 0 0 0 0
1537220840 0.271889865398407 0.04566114395856857 -0.03306402638554573 -0.03842729702591896 0 0 0 0
1540942924 0.30990931391716003 0.003786824643611908 -0.03585024178028107 -0.030231092125177383 0 0 0 0
1544665008 0.33952584862709045 -0.04063698649406433 -0.0367119237780571 -0.02322452701628208 0 0 0 0
1548387092 0.3618624210357666 -0.0937785804271698 -0.03719194978475571 -0.01734544336795807 0 0 0 0
1552109176 0.3766760230064392 -0.14590542018413544 -0.0376400351524353 -0.011965793557465076 0 0 0 0
1555831260 0.38302820920944214 -0.20081932842731476 -0.037311770021915436 -0.006304030306637287 0 0 0 0
1559553344 0.3793155550956726 -0.2579828202724457 -0.03597674146294594 -0.0007891496643424034 0 0 0 0
1563275428 0.36844560503959656 -0.3121575117111206 -0.03414240851998329 0.003557414747774601 0 0 0 0
1566997512 0.3507300615310669 -0.366799533367157 -0.03197890892624855 0.007648030295968056 0 0 0 0
1570719596 0.3214421570301056 -0.41943997144699097 -0.02923496812582016 0.01126894261687994 0 0 0 0
1574441680 0.28534936904907227 -0.4651474356651306 -0.02613852359354496 0.014140885323286057 0 0 0 0
1578163764 0.24393396079540253 -0.5065709948539734 -0.023489203304052353 0.01651735045015812 0 0 0 0
1581885848 0.19297733902931213 -0.5387399792671204 -0.02092326059937477 0.018025195226073265 0 0 0 0
1585607932 0.13961684703826904 -0.5647972822189331 -0.018295317888259888 0.01975538395345211 0 0 0 0
1589330016 0.08681640028953552 -0.5836321115493774 -0.015718689188361168 0.020878998562693596 0 0 0 0
1593052100 0.02399517595767975 -0.5939038991928101 -0.0132322171702981 0.02211860381066799 0 0 0 0
1596774184 -0.03375944495201111 -0.5971736311912537 -0.010941121727228165 0.02317577600479126 0 0 0 0
1600496268 -0.09792032837867737 -0.5897969007492065 -0.008213886059820652 0.024632856249809265 0 0 0 0
1604218352 -0.1538904458284378 -0.575700044631958 -0.005191857926547527 0.025985147804021835 0 0 0 0
1607940436 -0.21099640429019928 -0.5509718656539917 -0.0014973962679505348 0.02674243599176407 0 0 0 0
1611662520 -0.2672884464263916 -0.5183624029159546 0.002478836104273796 0.027196411043405533 0 0 0 0
1615384604 -0.3168400526046753 -0.47598329186439514 0.00699998065829277 0.02666334994137287 0 0 0 0
1619106688 -0.36115530133247375 -0.42808860540390015 0.011137006804347038 0.025538504123687744 0 0 0 0
1622828772 -0.3977920711040497 -0.37371206283569336 0.015404007397592068 0.02354244515299797 0 0 0 0
1626550856 -0.42308342456817627 -0.3175584077835083 0.019726959988474846 0.02053314819931984 0 0 0 0
1630272940 -0.4451093375682831 -0.25322195887565613 0.022902628406882286 0.016965003684163094 0 0 0 0
1633995024 -0.457327663898468 -0.18723022937774658 0.025451522320508957 0.012260528281331062 0 0 0 0
1637717108 -0.4601445496082306 -0.12113030254840851 0.026985149830579758 0.007437530905008316 0 0 0 0
1641439192 -0.4553161561489105 -0.05231858789920807 0.02759842574596405 0.0025283247232437134 0 0 0 0
1645161276 -0.4397171139717102 0.018527254462242126 0.027000242844223976 -0.0023081637918949127 0 0 0 0
1648883360 -0.4117087423801422 0.08894158899784088 0.025778716430068016 -0.0068431878462433815 0 0 0 0
1652605444 -0.37293338775634766 0.15310557186603546 0.023759525269269943 -0.011110397055745125 0 0 0 0
1656327528 -0.3249390423297882 0.21049359440803528 0.02093186229467392 -0.015092543326318264 0 0 0 0
1660049612 -0.26810380816459656 0.25999587774276733 0.017219141125679016 -0.017966607585549355 0 0 0 0
1663771696 -0.2024654597043991 0.3019154369831085 0.013108649291098118 -0.02013072371482849 0 0 0 0
1667493780 -0.13311976194381714 0.33325380086898804 0.009062218479812145 -0.021582866087555885 0 0 0 0
1671215864 -0.053429923951625824 0.3560478687286377 0.00410816166549921 -0.02230011112987995 0 0 0 0
1674937948 0.024066338315606117 0.3663097620010376 -0.0007585007697343826 -0.02137751691043377 0 0 0 0
1678660032 0.10699537396430969 0.363553524017334 -0.004604424349963665 -0.019212227314710617 0 0 0 0
1682382116 0.1877192258834839 0.3463152050971985 -0.007436693646013737 -0.016624197363853455 0 0 0 0
1686104200 0.26643484830856323 0.3181796371936798 -0.009486185386776924 -0.013774558901786804 0 0 0 0
1689826284 0.3385750651359558 0.2761336863040924 -0.010569286532700062 -0.010740038007497787 0 0 0 0
1693548368 0.4042832553386688 0.22108116745948792 -0.011154701933264732 -0.008017947897315025 0 0 0 0
1697270452 0.45813077688217163 0.16046318411827087 -0.01110694371163845 -0.005327235907316208 0 0 0 0
1700992536 0.5025258660316467 0.08706457167863846 -0.010304723866283894 -0.0032031210139393806 0 0 0 0
1704714620 0.5346185564994812 0.012449696660041809 -0.009354716166853905 -0.0015824083238840103 0 0 0 0
1708436704 0.5543519258499146 -0.06479299068450928 -0.008230360224843025 -0.00036137737333774567 0 0 0 0
1712158788 0.5604020357131958 -0.14623159170150757 -0.007215862162411213 0.00043861567974090576 0 0 0 0
1715880872 0.5537348985671997 -0.22730185091495514 -0.006265018135309219 0.0009310757741332054 0 0 0 0
1719602956 0.5359267592430115 -0.30482903122901917 -0.005365784280002117 0.0012057758867740631 0 0 0 0
1723325040 0.5053114295005798 -0.3783312141895294 -0.0044111646711826324 0.0012198761105537415 0 0 0 0
1727047124 0.4678141474723816 -0.43982869386672974 -0.0037290528416633606 0.0008182898163795471 0 0 0 0
1730769208 0.4144432544708252 -0.5026746392250061 -0.003579358570277691 0.00042004697024822235 0 0 0 0
1734491292 0.35510045289993286 -0.5518925189971924 -0.003507629968225956 -3.9142556488513947e-05 0 0 0 0
1738213376 0.29721948504447937 -0.5898098349571228 -0.0037510469555854797 -0.0002552112564444542 0 0 0 0
1741935460 0.22225594520568848 -0.6204479932785034 -0.003981356509029865 -0.0003090696409344673 0 0 0 0
1745657544 0.1549225151538849 -0.6368356347084045 -0.00439143180847168 -0.0003576306626200676 0 0 0 0
1749379628 0.0826951339840889 -0.6427448987960815 -0.004957187920808792 -0.00011275336146354675 0 0 0 0
1753101712 0.011367641389369965 -0.636187732219696 -0.005347369238734245 0.00035591796040534973 0 0 0 0
1756823796 -0.053851962089538574 -0.6213244199752808 -0.005522211082279682 0.0007727732881903648 0 0 0 0
1760545880 -0.11544476449489594 -0.5955770611763 -0.005569079890847206 0.0013450691476464272 0 0 0 0
1764267964 -0.17615386843681335 -0.5622334480285645 -0.005940384231507778 0.0017698463052511215 0 0 0 0
1767990048 -0.22618848085403442 -0.5192831754684448 -0.00624416209757328 0.0022409753873944283 0 0 0 0
1771712132 -0.264667272567749 -0.47571176290512085 -0.006903777830302715 0.0024818163365125656 0 0 0 0
1775434216 -0.30159181356430054 -0.42189231514930725 -0.007778307422995567 0.0033566029742360115 0 0 0 0
1779156300 -0.32642263174057007 -0.3677756190299988 -0.008795017376542091 0.004945068620145321 0 0 0 0
1782878384 -0.34441375732421875 -0.31213584542274475 -0.009499713778495789 0.007095277309417725 0 0 0 0
1786600468 -0.3559131920337677 -0.2546250522136688 -0.009544126689434052 0.00967988558113575 0 0 0 0
1790322552 -0.3584115207195282 -0.19593673944473267 -0.008685861714184284 0.012628808617591858 0 0 0 0
1794044636 -0.35262879729270935 -0.13883695006370544 -0.006929296068847179 0.015371695160865784 0 0 0 0
1797766720 -0.3395897448062897 -0.08282268792390823 -0.004470150917768478 0.018198100849986076 0 0 0 0
1801488804 -0.31865349411964417 -0.025426574051380157 -0.0010612988844513893 0.02085496298968792 0 0 0 0
1805210888 -0.2892242670059204 0.024318568408489227 0.0032654032111167908 0.02284432202577591 0 0 0 0
1808932972 -0.25003448128700256 0.0694972351193428 0.0088285431265831 0.023647528141736984 0 0 0 0
1812655056 -0.2050078809261322 0.10765787959098816 0.014623555354773998 0.02290382795035839 0 0 0 0
1816377140 -0.15630002319812775 0.13510289788246155 0.02024560049176216 0.02106425166130066 0 0 0 0
1820099224 -0.10211817175149918 0.15529170632362366 0.026136163622140884 0.01692185550928116 0 0 0 0
1823821308 -0.04841732606291771 0.16591696441173553 0.030769221484661102 0.010845671407878399 0 0 0 0
1827543392 0.00689205527305603 0.16768379509449005 0.032950568944215775 0.0033461255952715874 0 0 0 0
1831265476 0.05768558010458946 0.16085338592529297 0.03313562273979187 -0.003367728553712368 0 0 0 0
1834987560 0.10659544914960861 0.1465347707271576 0.03185834735631943 -0.01054370403289795 0 0 0 0
1838709644 0.15245166420936584 0.1245051920413971 0.029626958072185516 -0.01671680063009262 0 0 0 0
1842431728 0.1925850808620453 0.09854751080274582 0.02611171081662178 -0.022255221381783485 0 0 0 0
1846153812 0.22636915743350983 0.06423594057559967 0.021354295313358307 -0.026948999613523483 0 0 0 0
1849875896 0.2530675530433655 0.028721079230308533 0.015857091173529625 -0.030329972505569458 0 0 0 0
1853597980 0.2749622166156769 -0.011010393500328064 0.009967446327209473 -0.032690733671188354 0 0 0 0
1857320064 0.28947702050209045 -0.051297880709171295 0.004418490454554558 -0.03390094265341759 0 0 0 0
1861042148 0.29759564995765686 -0.09341266006231308 -0.0013204831629991531 -0.03459863364696503 0 0 0 0
1864764232 0.2975228726863861 -0.13543149828910828 -0.007651167921721935 -0.03496501222252846 0 0 0 0
1868486316 0.2907763421535492 -0.17293383181095123 -0.014512150548398495 -0.0330459326505661 0 0 0 0
1872208400 0.27936649322509766 -0.20929518342018127 -0.020450958982110023 -0.029614867642521858 0 0 0 0
1875930484 0.26315104961395264 -0.24241873621940613 -0.02491016313433647 -0.025216909125447273 0 0 0 0
1879652568 0.24039405584335327 -0.2741367816925049 -0.02843141183257103 -0.020764488726854324 0 0 0 0
1883374652 0.21598908305168152 -0.29971855878829956 -0.03146206587553024 -0.016340263187885284 0 0 0 0
1887096736 0.18468427658081055 -0.32136091589927673 -0.03439783304929733 -0.01126496959477663 0 0 0 0
1890818820 0.15280814468860626 -0.33643126487731934 -0.03667614981532097 -0.00563321728259325 0 0 0 0
1894540904 0.12225692719221115 -0.344074010848999 -0.03819774091243744 0.00039295852184295654 0 0 0 0
1898262988 0.08445701003074646 -0.3478457033634186 -0.038456592708826065 0.007891828194260597 0 0 0 0
1901985072 0.05350193381309509 -0.34326815605163574 -0.03688592091202736 0.015057233162224293 0 0 0 0
1905707156 0.022064074873924255 -0.33576321601867676 -0.033595748245716095 0.02202172577381134 0 0 0 0
1909429240 -0.007546819746494293 -0.31995901465415955 -0.029707737267017365 0.0275389663875103 0 0 0 0
1913151324 -0.029341626912355423 -0.30167150497436523 -0.02504701539874077 0.033098962157964706 0 0 0 0
1916873408 -0.05415643751621246 -0.2789098024368286 -0.018643012270331383 0.03810291737318039 0 0 0 0
1920595492 -0.0686183050274849 -0.25379642844200134 -0.011278760619461536 0.04191994667053223 0 0 0 0
1924317576 -0.07837602496147156 -0.22696055471897125 -0.0022983020171523094 0.04405612125992775 0 0 0 0
1928039660 -0.08395083993673325 -0.19962619245052338 0.00701553001999855 0.04358947277069092 0 0 0 0
1931761744 -0.08616893738508224 -0.17203167080879211 0.016187699511647224 0.0403827503323555 0 0 0 0
1935483828 -0.08361496031284332 -0.14516346156597137 0.023298274725675583 0.03558291494846344 0 0 0 0
1939205912 -0.07747071236371994 -0.11757425963878632 0.02872365713119507 0.029100961983203888 0 0 0 0
1942927996 -0.06564120948314667 -0.09297189861536026 0.03239518776535988 0.02296476438641548 0 0 0 0
1946650080 -0.04958388954401016 -0.06953737884759903 0.03487129509449005 0.017475713044404984 0 0 0 0
1950372164 -0.029148492962121964 -0.048995740711688995 0.036882635205984116 0.01165703497827053 0 0 0 0
1954094248 -0.004288476891815662 -0.0329546295106411 0.0387224443256855 0.005071583203971386 0 0 0 0
1957816332 0.02327537164092064 -0.02253217250108719 0.03994881361722946 -0.0021027233451604843 0 0 0 0
1961538416 0.05226529762148857 -0.018133733421564102 0.03880434110760689 -0.010079119354486465 0 0 0 0
1965260500 0.08057346940040588 -0.01862037368118763 0.03546078875660896 -0.017629344016313553 0 0 0 0
1968982584 0.10788717120885849 -0.02586909383535385 0.031074317172169685 -0.023744232952594757 0 0 0 0
1972704668 0.1328601986169815 -0.03708591312170029 0.0256622526794672 -0.02878756821155548 0 0 0 0
1976426752 0.1557009220123291 -0.04971233755350113 0.020199093967676163 -0.03266758844256401 0 0 0 0
1980148836 0.175740584731102 -0.06967537850141525 0.01327524334192276 -0.035549014806747437 0 0 0 0
1983870920 0.19169673323631287 -0.09355572611093521 0.005755924619734287 -0.03704475611448288 0 0 0 0
1987593004 0.20337174832820892 -0.11897818744182587 -0.0011170944198966026 -0.036823686212301254 0 0 0 0
1991315088 0.20794634521007538 -0.1455533504486084 -0.007828726433217525 -0.03554576635360718 0 0 0 0
1995037172 0.20831941068172455 -0.17257407307624817 -0.014399428851902485 -0.03300737217068672 0 0 0 0
1998759256 0.20409654080867767 -0.1979772448539734 -0.01977178268134594 -0.029011564329266548 0 0 0 0
2002481340 0.19469338655471802 -0.22372189164161682 -0.023816626518964767 -0.024600479751825333 0 0 0 0
2006203424 0.180874764919281 -0.24512308835983276 -0.02643260918557644 -0.019942522048950195 0 0 0 0
2009925508 0.1678730547428131 -0.2613341510295868 -0.029131639748811722 -0.016055181622505188 0 0 0 0
2013647592 0.14781644940376282 -0.2779058814048767 -0.03166481852531433 -0.011573422700166702 0 0 0 0
2017369676 0.12558706104755402 -0.2914678454399109 -0.03398231044411659 -0.0061242664232850075 0 0 0 0
2021091760 0.10197877883911133 -0.3021012246608734 -0.03563942015171051 0.0002495069056749344 0 0 0 0
2024813844 0.07892554253339767 -0.3070775270462036 -0.03544994443655014 0.007257894612848759 0 0 0 0
2028535928 0.05081876367330551 -0.30778029561042786 -0.033350132405757904 0.014314928092062473 0 0 0 0
2032258012 0.026689965277910233 -0.3049168586730957 -0.029106516391038895 0.020534269511699677 0 0 0 0
2035980096 0.0017025917768478394 -0.2981366813182831 -0.02409527637064457 0.024737469851970673 0 0 0 0
2039702180 -0.024334244430065155 -0.28660649061203003 -0.018821734935045242 0.02814514748752117 0 0 0 0
2043424264 -0.045935578644275665 -0.2705877423286438 -0.013536853715777397 0.030142782256007195 0 0 0 0
2047146348 -0.0655013769865036 -0.2518064081668854 -0.008411407470703125 0.0313107892870903 0 0 0 0
2050868432 -0.08238212019205093 -0.22922566533088684 -0.003407674841582775 0.031673043966293335 0 0 0 0
2054590516 -0.09682196378707886 -0.20391222834587097 0.0015271557494997978 0.031733788549900055 0 0 0 0
2058312600 -0.10649341344833374 -0.1752842515707016 0.006451509892940521 0.030966099351644516 0 0 0 0
2062034684 -0.11075548082590103 -0.14705485105514526 0.01146030705422163 0.029385022819042206 0 0 0 0
2065756768 -0.11340325325727463 -0.11520595848560333 0.015812275931239128 0.027168776839971542 0 0 0 0
2069478852 -0.10854080319404602 -0.08327279984951019 0.020352140069007874 0.02427314966917038 0 0 0 0
2073200936 -0.0991901233792305 -0.05094246566295624 0.024318616837263107 0.02011985331773758 0 0 0 0
2076923020 -0.08278927206993103 -0.0201108381152153 0.026773110032081604 0.015485065057873726 0 0 0 0
2080645104 -0.06152455881237984 0.00784900039434433 0.02827579155564308 0.010587754659354687 0 0 0 0
2084367188 -0.03501783311367035 0.03132166713476181 0.02882917784154415 0.0065795183181762695 0 0 0 0
2088089272 -0.0042374394834041595 0.050337500870227814 0.029611092060804367 0.002400035038590431 0 0 0 0
2091811356 0.029101397842168808 0.06318463385105133 0.03032819926738739 -0.0019441517069935799 0 0 0 0
2095533440 0.0641651302576065 0.07084169238805771 0.030426062643527985 -0.00694707315415144 0 0 0 0
2099255524 0.10004783421754837 0.07201342284679413 0.029867151752114296 -0.012680933810770512 0 0 0 0
2102977608 0.13562597334384918 0.06814682483673096 0.027335885912179947 -0.01889186166226864 0 0 0 0
2106699692 0.16924937069416046 0.05893406644463539 0.02315252460539341 -0.024045152589678764 0 0 0 0
2110421776 0.203292578458786 0.04294391721487045 0.017958849668502808 -0.028266342356801033 0 0 0 0
2114143860 0.23236346244812012 0.022238798439502716 0.0119840232655406 -0.030840162187814713 0 0 0 0
2117865944 0.2574445605278015 -0.0038378238677978516 0.006110086105763912 -0.0322013795375824 0 0 0 0
2121588028 0.2776491045951843 -0.03229004144668579 -0.00012202095240354538 -0.03260954096913338 0 0 0 0
2125310112 0.29205721616744995 -0.0635671466588974 -0.006924516521394253 -0.0321323424577713 0 0 0 0
2129032196 0.3024425208568573 -0.09809669852256775 -0.013143213465809822 -0.02958817221224308 0 0 0 0
2132754280 0.30687737464904785 -0.13056562840938568 -0.0183298047631979 -0.025364968925714493 0 0 0 0
2136476364 0.30543792247772217 -0.16477355360984802 -0.022033682093024254 -0.020286565646529198 0 0 0 0
2140198448 0.29748013615608215 -0.19995957612991333 -0.024146653711795807 -0.01522844098508358 0 0 0 0
2143920532 0.28528299927711487 -0.23096799850463867 -0.025051182135939598 -0.010425945743918419 0 0 0 0
2147642616 0.269578218460083 -0.25724565982818604 -0.02545606903731823 -0.006460434757173061 0 0 0 0
2151364700 0.24721339344978333 -0.28239473700523376 -0.025326579809188843 -0.002397485077381134 0 0 0 0
2155086784 0.22404271364212036 -0.30436837673187256 -0.024909045547246933 0.001367327757179737 0 0 0 0
2158808868 0.1955544799566269 -0.3198259174823761 -0.024080369621515274 0.004974584095180035 0 0 0 0
2162530952 0.16887012124061584 -0.3299180269241333 -0.022869545966386795 0.008280807174742222 0 0 0 0
2166253036 0.1387738287448883 -0.3368218243122101 -0.02071456052362919 0.01137327216565609 0 0 0 0
2169975120 0.11019402742385864 -0.3390332758426666 -0.019141199067234993 0.014041314832866192 0 0 0 0
2173697204 0.0793575644493103 -0.33729371428489685 -0.017384570091962814 0.016865331679582596 0 0 0 0
2177419288 0.04973369091749191 -0.331326425075531 -0.014707572758197784 0.020051155239343643 0 0 0 0
2181141372 0.025918230414390564 -0.31996506452560425 -0.011443735100328922 0.02248905599117279 0 0 0 0
2184863456 -0.0006208419799804688 -0.3062301576137543 -0.007406258024275303 0.024489566683769226 0 0 0 0
2188585540 -0.025823960080742836 -0.2879830002784729 -0.0030386457219719887 0.025552473962306976 0 0 0 0
2192307624 -0.04433401674032211 -0.2652944326400757 0.0018551768735051155 0.02619067020714283 0 0 0 0
2196029708 -0.05924571305513382 -0.23982107639312744 0.00706131849437952 0.02536899596452713 0 0 0 0
2199751792 -0.0700327605009079 -0.21343262493610382 0.011973381973803043 0.0233372263610363 0 0 0 0
2203473876 -0.07595708221197128 -0.18424932658672333 0.016417372971773148 0.019817231222987175 0 0 0 0
2207195960 -0.0791044756770134 -0.15597638487815857 0.01929635927081108 0.016141796484589577 0 0 0 0
2210918044 -0.07872730493545532 -0.1251153200864792 0.02158573642373085 0.011309612542390823 0 0 0 0
2214640128 -0.06716908514499664 -0.09995562583208084 0.022598709911108017 0.0071601253002882 0 0 0 0
2218362212 -0.05993245542049408 -0.07001400738954544 0.02267012931406498 0.0022049443796277046 0 0 0 0
2222084296 -0.042277608066797256 -0.04676239192485809 0.02135317213833332 -0.001745837740600109 0 0 0 0
2225806380 -0.021870987489819527 -0.024808738380670547 0.0196708794683218 -0.004890681244432926 0 0 0 0
2229528464 0.002449159510433674 -0.007377666421234608 0.017869222909212112 -0.007624443620443344 0 0 0 0
2233250548 0.029022011905908585 0.005022904835641384 0.016367916017770767 -0.00998698826879263 0 0 0 0
2236972632 0.05739762634038925 0.013443119823932648 0.014407331123948097 -0.012680040672421455 0 0 0 0
2240694716 0.08595691621303558 0.0137432049959898 0.01172281987965107 -0.015013477765023708 0 0 0 0
2244416800 0.11365415155887604 0.010758338496088982 0.008259724825620651 -0.016914457082748413 0 0 0 0
2248138884 0.1395336240530014 0.005946900695562363 0.005173943005502224 -0.017705228179693222 0 0 0 0
2251860968 0.16307857632637024 -0.007638312876224518 0.001617472618818283 -0.017894351854920387 0 0 0 0
2255583052 0.18434619903564453 -0.023825936019420624 -0.0017950451001524925 -0.017472822219133377 0 0 0 0
2259305136 0.20206372439861298 -0.03945550322532654 -0.004677562974393368 -0.016285043209791183 0 0 0 0
2263027220 0.21490591764450073 -0.06443144381046295 -0.007192324846982956 -0.014635488390922546 0 0 0 0
2266749304 0.22604259848594666 -0.08443012833595276 -0.009273355826735497 -0.012762682512402534 0 0 0 0
2270471388 0.23432955145835876 -0.10567944496870041 -0.010733808390796185 -0.010817370377480984 0 0 0 0
2274193472 0.23414729535579681 -0.13289394974708557 -0.012001842260360718 -0.008572184480726719 0 0 0 0
2277915556 0.23456186056137085 -0.15712974965572357 -0.012901407666504383 -0.006351540796458721 0 0 0 0
2281637640 0.22618316113948822 -0.1832410991191864 -0.013095691800117493 -0.004383915103971958 0 0 0 0
2285359724 0.21239490807056427 -0.204490065574646 -0.013270910829305649 -0.0030632195994257927 0 0 0 0
2289081808 0.19813351333141327 -0.22207750380039215 -0.013844111934304237 -0.0010057752951979637 0 0 0 0
2292803892 0.18296808004379272 -0.2356254756450653 -0.013870949856936932 0.0008808951824903488 0 0 0 0
2296525976 0.15947894752025604 -0.24858461320400238 -0.013467484153807163 0.0031124157831072807 0 0 0 0
2300248060 0.1474931836128235 -0.2529152035713196 -0.012776278890669346 0.005061134696006775 0 0 0 0
2303970144 0.1293940544128418 -0.2612309157848358 -0.011459918692708015 0.006905507296323776 0 0 0 0
2307692228 0.09617593139410019 -0.26420876383781433 -0.010060114786028862 0.008386529050767422 0 0 0 0
2311414312 0.08211972564458847 -0.26041704416275024 -0.008176212199032307 0.009744854643940926 0 0 0 0
2315136396 0.05359714478254318 -0.2564474642276764 -0.005670100450515747 0.010428128764033318 0 0 0 0
2318858480 0.03411366045475006 -0.2464168220758438 -0.004119919613003731 0.00974926445633173 0 0 0 0
2322580564 0.016314677894115448 -0.2325081080198288 -0.0030441889539361 0.009437298402190208 0 0 0 0
2326302648 -0.0061989277601242065 -0.21471889317035675 -0.0019060196354985237 0.00920587033033371 0 0 0 0
2330024732 -0.018029838800430298 -0.19520744681358337 -0.0009158309549093246 0.00892556831240654 0 0 0 0
2333746816 -0.02801135741174221 -0.17303234338760376 -3.5793520510196686e-05 0.008526403456926346 0 0 0 0
2337468900 -0.036158692091703415 -0.14747759699821472 0.0010256627574563026 0.008165339939296246 0 0 0 0
2341190984 -0.039727453142404556 -0.11975996941328049 0.001827155239880085 0.007548191584646702 0 0 0 0
2344913068 -0.03509470447897911 -0.09248050302267075 0.0024494268000125885 0.006870451383292675 0 0 0 0
2348635152 -0.02743823453783989 -0.06502331793308258 0.002963057719171047 0.006111505441367626 0 0 0 0
2352357236 -0.013656438328325748 -0.03997686877846718 0.0031416816636919975 0.005280839279294014 0 0 0 0
2356079320 0.005049910396337509 -0.017462868243455887 0.003382306545972824 0.004487792029976845 0 0 0 0
2359801404 0.027579134330153465 0.0005144486203789711 0.0034122690558433533 0.003858232870697975 0 0 0 0
2363523488 0.052946537733078 0.01506609283387661 0.003409690223634243 0.003250556066632271 0 0 0 0
2367245572 0.0803493782877922 0.024982262402772903 0.003177042119204998 0.002881632186472416 0 0 0 0
2370967656 0.1093059703707695 0.02798335999250412 0.002816910855472088 0.0026296740397810936 0 0 0 0
2374689740 0.13810443878173828 0.026779813691973686 0.0025095799937844276 0.0026946943253278732 0 0 0 0
2378411824 0.16581395268440247 0.021262191236019135 0.002678448334336281 0.002679973840713501 0 0 0 0
2382133908 0.19192692637443542 0.010530047118663788 0.0027746427804231644 0.0022812532261013985 0 0 0 0
2385855992 0.21664834022521973 -0.0032439008355140686 0.002646426670253277 0.002303863875567913 0 0 0 0
2389578076 0.2372187227010727 -0.021705634891986847 0.0025356775149703026 0.0022030621767044067 0 0 0 0
2393300160 0.2542728781700134 -0.04532356932759285 0.0024118879809975624 0.002327767200767994 0 0 0 0
2397022244 0.268658846616745 -0.0660940557718277 0.002527950331568718 0.0031085489317774773 0 0 0 0
2400744328 0.2809755206108093 -0.0913430005311966 0.0036359699442982674 0.003753693774342537 0 0 0 0
2404466412 0.28505295515060425 -0.11849640309810638 0.00504732970148325 0.0037395767867565155 0 0 0 0
2408188496 0.2885797619819641 -0.1464603841304779 0.0066509731113910675 0.002746586687862873 0 0 0 0
2411910580 0.2876527011394501 -0.17492765188217163 0.0074453093111515045 0.0014710547402501106 0 0 0 0
2415632664 0.27978765964508057 -0.2007548213005066 0.007996687665581703 -8.715968579053879e-05 0 0 0 0
2419354748 0.26842135190963745 -0.22713793814182281 0.007978280074894428 -0.0017691720277071 0 0 0 0
2423076832 0.2554430067539215 -0.24749314785003662 0.007843196392059326 -0.0033500073477625847 0 0 0 0
2426798916 0.23610609769821167 -0.27284669876098633 0.0070270635187625885 -0.005023478530347347 0 0 0 0
2430521000 0.21718290448188782 -0.28943997621536255 0.005934699438512325 -0.006338699720799923 0 0 0 0
2434243084 0.19469182193279266 -0.30406972765922546 0.004438117146492004 -0.007210005074739456 0 0 0 0
2437965168 0.16784264147281647 -0.3167361617088318 0.0033125029876828194 -0.007606302388012409 0 0 0 0
2441687252 0.1440928876399994 -0.32419589161872864 0.002200782299041748 -0.007986098527908325 0 0 0 0
2445409336 0.1148725152015686 -0.3292411267757416 0.001319526694715023 -0.008178645744919777 0 0 0 0
2449131420 0.0829504132270813 -0.3290112316608429 0.0003727767616510391 -0.008496787399053574 0 0 0 0
2452853504 0.058627899736166 -0.3224014341831207 -0.0004582339897751808 -0.008628161624073982 0 0 0 0
2456575588 0.027636736631393433 -0.3148095905780792 -0.0014259414747357368 -0.008983585983514786 0 0 0 0
2460297672 0.0032526031136512756 -0.3011165261268616 -0.0026625990867614746 -0.009675552137196064 0 0 0 0
2464019756 -0.020265625789761543 -0.2827919125556946 -0.004444589838385582 -0.010050063952803612 0 0 0 0
2467741840 -0.04365525767207146 -0.26151514053344727 -0.006549227051436901 -0.009696902707219124 0 0 0 0
2471463924 -0.06034447252750397 -0.23905855417251587 -0.008258509449660778 -0.009093401953577995 0 0 0 0
2475186008 -0.07139742374420166 -0.21369674801826477 -0.010066070593893528 -0.007973114028573036 0 0 0 0
2478908092 -0.08398221433162689 -0.18495410680770874 -0.01183138508349657 -0.006629639305174351 0 0 0 0
2482630176 -0.08905413746833801 -0.1556394398212433 -0.013438834808766842 -0.004963984712958336 0 0 0 0
2486352260 -0.09018353372812271 -0.12565629184246063 -0.014771483838558197 -0.002764640375971794 0 0 0 0
2490074344 -0.08666631579399109 -0.09460316598415375 -0.01579221896827221 -0.00019650161266326904 0 0 0 0
2493796428 -0.07774245738983154 -0.06501995027065277 -0.016343535855412483 0.0032649096101522446 0 0 0 0
2497518512 -0.06481286138296127 -0.037254657596349716 -0.015842851251363754 0.006285463459789753 0 0 0 0
2501240596 -0.04726928099989891 -0.011915383860468864 -0.01465669646859169 0.00902561191469431 0 0 0 0
2504962680 -0.025550521910190582 0.010115593671798706 -0.01281724777072668 0.011673402972519398 0 0 0 0
2508684764 -0.0014277352020144463 0.028230641037225723 -0.011235649697482586 0.013745918869972229 0 0 0 0
2512406848 0.02555430307984352 0.043118786066770554 -0.00871353317052126 0.01625429280102253 0 0 0 0
2516128932 0.0553886815905571 0.05306665599346161 -0.005357292480766773 0.018043264746665955 0 0 0 0
2519851016 0.08643794804811478 0.057585202157497406 -0.0011036349460482597 0.018919961526989937 0 0 0 0
2523573100 0.11734367907047272 0.05535196512937546 0.0027154795825481415 0.018207821995019913 0 0 0 0
2527295184 0.14690262079238892 0.04931099712848663 0.005864154547452927 0.016938695684075356 0 0 0 0
2531017268 0.17410197854042053 0.03697619587182999 0.008798978291451931 0.015307536348700523 0 0 0 0
2534739352 0.19715885818004608 0.021899107843637466 0.011245341040194035 0.01309547945857048 0 0 0 0
2538461436 0.2170262336730957 0.0033063217997550964 0.013304425403475761 0.010674123652279377 0 0 0 0
2542183520 0.2326211780309677 -0.016001485288143158 0.015073422342538834 0.007490732707083225 0 0 0 0
2545905604 0.24579057097434998 -0.03827601671218872 0.01611066609621048 0.004035395570099354 0 0 0 0
2549627688 0.2567081153392792 -0.059730157256126404 0.016371136531233788 0.0007067900151014328 0 0 0 0
2553349772 0.2610948383808136 -0.083370141685009 0.015607351437211037 -0.0026994971558451653 0 0 0 0
2557071856 0.2626231908798218 -0.10507261753082275 0.01395920105278492 -0.005775517784059048 0 0 0 0
2560793940 0.262615829706192 -0.12791955471038818 0.011542949825525284 -0.008024153299629688 0 0 0 0
2564516024 0.25767460465431213 -0.1502305418252945 0.009144855663180351 -0.009284737519919872 0 0 0 0
2568238108 0.2517649531364441 -0.1686573475599289 0.007043479010462761 -0.010313598439097404 0 0 0 0
2571960192 0.24119868874549866 -0.18696169555187225 0.004848913289606571 -0.010735037736594677 0 0 0 0
2575682276 0.23088836669921875 -0.20297588407993317 0.003064722754061222 -0.010636761784553528 0 0 0 0
2579404360 0.2181743085384369 -0.2175459861755371 0.001271161250770092 -0.01025029644370079 0 0 0 0
2583126444 0.2024189531803131 -0.22960105538368225 4.212372004985809e-06 -0.010004617273807526 0 0 0 0
2586848528 0.18617460131645203 -0.24227426946163177 -0.0012779710814356804 -0.009878585115075111 0 0 0 0
2590570612 0.17186610400676727 -0.24821138381958008 -0.003035522997379303 -0.009387674741446972 0 0 0 0
2594292696 0.15517829358577728 -0.2531886398792267 -0.004574550315737724 -0.008397843688726425 0 0 0 0
2598014780 0.13636158406734467 -0.25742030143737793 -0.005513522773981094 -0.007223891094326973 0 0 0 0
2601736864 0.11936910450458527 -0.2556522786617279 -0.0064020417630672455 -0.006193103268742561 0 0 0 0
2605458948 0.09858303517103195 -0.2540910840034485 -0.007156359031796455 -0.0044260332360863686 0 0 0 0
2609181032 0.08158322423696518 -0.24893614649772644 -0.007155229337513447 -0.003020205534994602 0 0 0 0
2612903116 0.06708309799432755 -0.23919665813446045 -0.006909389980137348 -0.001965508796274662 0 0 0 0
2616625200 0.052206333726644516 -0.22808405756950378 -0.00650807935744524 -0.0006023263558745384 0 0 0 0
2620347284 0.040973640978336334 -0.21641400456428528 -0.0057548638433218 0.0001888815313577652 0 0 0 0
2624069368 0.0346367284655571 -0.20233145356178284 -0.004990890622138977 0.0005716560408473015 0 0 0 0
2627791452 0.03121952898800373 -0.18730409443378448 -0.004263337701559067 0.00048063602298498154 0 0 0 0
2631513536 0.02692066878080368 -0.1738046109676361 -0.0041409870609641075 0.00018324051052331924 0 0 0 0
2635235620 0.02585490047931671 -0.15936481952667236 -0.0043111443519592285 0.0005080960690975189 0 0 0 0
2638957704 0.0284469872713089 -0.14573067426681519 -0.004256286658346653 0.0008809622377157211 0 0 0 0
2642679788 0.032061077654361725 -0.135153666138649 -0.0041525885462760925 0.0014018118381500244 0 0 0 0
2646401872 0.03699692338705063 -0.12397337704896927 -0.0039255088195204735 0.0017035678029060364 0 0 0 0
2650123956 0.04390671104192734 -0.11400772631168365 -0.0032897451892495155 0.0019468991085886955 0 0 0 0
2653846040 0.0515885055065155 -0.10567039251327515 -0.0030736280605196953 0.0017777681350708008 0 0 0 0
2657568124 0.06335710734128952 -0.0991567075252533 -0.003090500831604004 0.001645844429731369 0 0 0 0
2661290208 0.07543644309043884 -0.0962769165635109 -0.003350132144987583 0.0018383655697107315 0 0 0 0
2665012292 0.08630139380693436 -0.09660789370536804 -0.003427904099225998 0.002565041184425354 0 0 0 0
2668734376 0.09717440605163574 -0.0983511209487915 -0.0031790705397725105 0.0031700003892183304 0 0 0 0
2672456460 0.10528554767370224 -0.1031937450170517 -0.0027839280664920807 0.0036305105313658714 0 0 0 0
2676178544 0.11291774362325668 -0.10981198400259018 -0.0022994931787252426 0.004054199904203415 0 0 0 0
2679900628 0.11886698007583618 -0.11750543117523193 -0.0016561271622776985 0.004792273975908756 0 0 0 0
2683622712 0.12328387796878815 -0.12494667619466782 -0.0006036665290594101 0.005197129212319851 0 0 0 0
2687344796 0.1231512576341629 -0.13456322252750397 0.0005210051313042641 0.0051482366397976875 0 0 0 0
2691066880 0.12504437565803528 -0.14156584441661835 0.0014961417764425278 0.004746561869978905 0 0 0 0
2694788964 0.12243138998746872 -0.1500534862279892 0.002247086726129055 0.004275389015674591 0 0 0 0
2698511048 0.1203479915857315 -0.15777067840099335 0.00315270759165287 0.0037665972486138344 0 0 0 0
2702233132 0.11378193646669388 -0.16584332287311554 0.0038719428703188896 0.002980961464345455 0 0 0 0
2705955216 0.1092711091041565 -0.17251241207122803 0.004326296038925648 0.001990346238017082 0 0 0 0
2709677300 0.10019799321889877 -0.17902319133281708 0.0045023150742053986 0.0009925039485096931 0 0 0 0
2713399384 0.09081535041332245 -0.18435826897621155 0.004460792988538742 -0.00013181567192077637 0 0 0 0
2717121468 0.08237263560295105 -0.18437427282333374 0.004237443208694458 -0.000996297225356102 0 0 0 0
2720843552 0.06973236799240112 -0.18638968467712402 0.003732413984835148 -0.0017292769625782967 0 0 0 0
2724565636 0.056358836591243744 -0.185198113322258 0.003176143392920494 -0.0023623304441571236 0 0 0 0
2728287720 0.043560780584812164 -0.1813032031059265 0.002454831264913082 -0.0027237478643655777 0 0 0 0
2732009804 0.031028028577566147 -0.17388615012168884 0.0018038423731923103 -0.0027494560927152634 0 0 0 0
2735731888 0.02200210839509964 -0.16341620683670044 0.0015112338587641716 -0.002879783511161804 0 0 0 0
2739453972 0.014125321060419083 -0.15276694297790527 0.0010496340692043304 -0.002896605059504509 0 0 0 0
2743176056 0.006472885608673096 -0.13853617012500763 0.0006192773580551147 -0.0028577791526913643 0 0 0 0
2746898140 0.0016079656779766083 -0.12334290146827698 0.0003358190879225731 -0.0026969509199261665 0 0 0 0
2750620224 0.00016755983233451843 -0.10792124271392822 0.0003277882933616638 -0.0027815448120236397 0 0 0 0
2754342308 0.0023453105241060257 -0.09257957339286804 0.000280577689409256 -0.0030015548691153526 0 0 0 0
2758064392 0.003912242129445076 -0.07802385091781616 -0.00023295357823371887 -0.0033598607406020164 0 0 0 0
2761786476 0.009933102875947952 -0.06180693954229355 -0.0009475694969296455 -0.003487112931907177 0 0 0 0
2765508560 0.018325675278902054 -0.046257536858320236 -0.0016489308327436447 -0.003251863643527031 0 0 0 0
2769230644 0.029708078131079674 -0.03159075602889061 -0.0020504891872406006 -0.0025742817670106888 0 0 0 0
2772952728 0.0442008450627327 -0.019998829811811447 -0.0022729672491550446 -0.002065081149339676 0 0 0 0
2776674812 0.06104223430156708 -0.009787296876311302 -0.0022961869835853577 -0.001893138512969017 0 0 0 0
2780396896 0.07972349226474762 -0.0030366312712430954 -0.0024923523887991905 -0.0016371998935937881 0 0 0 0
2784118980 0.0983530730009079 0.0010315123945474625 -0.0028580836951732635 -0.0012998608872294426 0 0 0 0
2787841064 0.11803798377513885 0.0021430067718029022 -0.0030832169577479362 -0.0004968671128153801 0 0 0 0
2791563148 0.13838239014148712 -0.00023997575044631958 -0.0028739608824253082 8.089281618595123e-05 0 0 0 0
2795285232 0.15973293781280518 -0.003264959901571274 -0.0024242596700787544 0.0007448811084032059 0 0 0 0
2799007316 0.18018367886543274 -0.012723445892333984 -0.0016716113314032555 0.0011536674574017525 0 0 0 0
2802729400 0.19921043515205383 -0.024528903886675835 -0.0009514810517430305 0.001072426326572895 0 0 0 0
2806451484 0.21544067561626434 -0.03935052454471588 -0.0006499066948890686 0.00045625679194927216 0 0 0 0
2810173568 0.22978901863098145 -0.057792916893959045 -0.0007398026064038277 0.00011223554611206055 0 0 0 0
2813895652 0.24148035049438477 -0.0794743224978447 -0.0008982019498944283 0.00020501110702753067 0 0 0 0
2817617736 0.2496112734079361 -0.10061709582805634 -0.0009578270837664604 0.00038274936378002167 0 0 0 0
2821339820 0.25299400091171265 -0.12593641877174377 -0.0007085930556058884 0.0006162114441394806 0 0 0 0
2825061904 0.2525210380554199 -0.15021488070487976 -0.0005381274968385696 0.0005920473486185074 0 0 0 0
2828783988 0.25093647837638855 -0.16938000917434692 -0.00033561140298843384 0.0007390007376670837 0 0 0 0
2832506072 0.24653153121471405 -0.19105121493339539 -0.00013028178364038467 0.0005948077887296677 0 0 0 0
2836228156 0.23494097590446472 -0.2156822681427002 0.00010471511632204056 0.0004265531897544861 0 0 0 0
2839950240 0.22423109412193298 -0.23581305146217346 0.0001792609691619873 0.0003784205764532089 0 0 0 0
2843672324 0.21058495342731476 -0.2532387375831604 0.00020087417215108871 0.00019975192844867706 0 0 0 0
2847394408 0.19448226690292358 -0.26918619871139526 0.0002195741981267929 0.00016710441559553146 0 0 0 0
2851116492 0.17764532566070557 -0.28431040048599243 0.00032339151948690414 0.00025950558483600616 0 0 0 0
2854838576 0.15267309546470642 -0.2985233664512634 0.0005388818681240082 0.00014200154691934586 0 0 0 0
2858560660 0.13821037113666534 -0.30562204122543335 0.0006753578782081604 -0.0004913536831736565 0 0 0 0
2862282744 0.11011780053377151 -0.31580185890197754 0.0006272522732615471 -0.0005661211907863617 0 0 0 0
2866004828 0.08511417359113693 -0.3190276622772217 0.0005917130038142204 -0.000657140277326107 0 0 0 0
2869726912 0.06658676266670227 -0.31981703639030457 0.0007658489048480988 -0.0007621869444847107 0 0 0 0
2873448996 0.04120047390460968 -0.3176988363265991 0.0006181970238685608 -0.0009994544088840485 0 0 0 0
2877171080 0.011204294860363007 -0.3113759756088257 0.000501156784594059 -0.0012365784496068954 0 0 0 0
2880893164 -0.008890965022146702 -0.3045452833175659 0.0002759937196969986 -0.0013000881299376488 0 0 0 0
2884615248 -0.03339460492134094 -0.29137250781059265 -4.0601007640361786e-05 -0.0013951687142252922 0 0 0 0
2888337332 -0.05450744181871414 -0.27584972977638245 -0.0002048015594482422 -0.001184290274977684 0 0 0 0
2892059416 -0.07284685969352722 -0.25812625885009766 -0.00044437404721975327 -0.0010364474728703499 0 0 0 0
2895781500 -0.0910143032670021 -0.23645789921283722 -0.0005952296778559685 -0.0008097328245639801 0 0 0 0
2899503584 -0.10257701575756073 -0.21305613219738007 -0.0006790617480874062 -0.0004719318822026253 0 0 0 0
2903225668 -0.11407210677862167 -0.1883074790239334 -0.0002798577770590782 -0.00010678265243768692 0 0 0 0
2906947752 -0.12216724455356598 -0.16205665469169617 -5.138292908668518e-05 -9.801145642995834e-05 0 0 0 0
2910669836 -0.12448348104953766 -0.1356503665447235 0.0003058873116970062 -0.00010970793664455414 0 0 0 0
2914391920 -0.1236063688993454 -0.10914447158575058 0.00034020375460386276 -0.00024058017879724503 0 0 0 0
2918114004 -0.11970364302396774 -0.08320067822933197 0.00045860838145017624 -0.0004656743258237839 0 0 0 0
2921836088 -0.11326468735933304 -0.05852678045630455 0.0004891892895102501 -0.0005020555108785629 0 0 0 0
2925558172 -0.10468707978725433 -0.03382619097828865 0.0003709951415657997 -0.0006204079836606979 0 0 0 0
2929280256 -0.09220151603221893 -0.010056577622890472 0.0003092056140303612 -0.0007626442238688469 0 0 0 0
2933002340 -0.07617998123168945 0.01132846251130104 5.948450416326523e-05 -0.0007180981338024139 0 0 0 0
2936724424 -0.05690963566303253 0.031531959772109985 -0.0001598438248038292 -0.0005549760535359383 0 0 0 0
2940446508 -0.03697531670331955 0.048241306096315384 -0.00019203033298254013 -0.00042018014937639236 0 0 0 0
2944168592 -0.013966009952127934 0.06274706870317459 -0.0003065280616283417 -0.00015641935169696808 0 0 0 0
2947890676 0.011543640866875648 0.07439035922288895 -0.0001942720264196396 0.00014129094779491425 0 0 0 0
2951612760 0.03995998948812485 0.08229801803827286 0.000131998211145401 0.00042736437171697617 0 0 0 0
2955334844 0.06747440993785858 0.08595339953899384 0.0005056504160165787 0.0006925668567419052 0 0 0 0
2959056928 0.09507694095373154 0.08537022769451141 0.0007959287613630295 0.0006413720548152924 0 0 0 0
2962779012 0.12243405729532242 0.08034153282642365 0.0012251269072294235 0.0007431507110595703 0 0 0 0
2966501096 0.1477862149477005 0.07309284806251526 0.0015757223591208458 0.000538211315870285 0 0 0 0
2970223180 0.17235110700130463 0.06093129888176918 0.002233722247183323 0.00011703372001647949 0 0 0 0
2973945264 0.19436952471733093 0.04605565965175629 0.002298898994922638 -0.0004500672221183777 0 0 0 0
2977667348 0.2155410647392273 0.027240067720413208 0.002284849062561989 -0.0010802000761032104 0 0 0 0
2981389432 0.23367656767368317 0.008182631805539131 0.0019252244383096695 -0.0013980753719806671 0 0 0 0
2985111516 0.2477327287197113 -0.01376621425151825 0.0017634853720664978 -0.0017245104536414146 0 0 0 0
2988833600 0.2585640549659729 -0.034889861941337585 0.0015361784026026726 -0.001970069482922554 0 0 0 0
2992555684 0.26703324913978577 -0.061355676501989365 0.0010700449347496033 -0.0022837305441498756 0 0 0 0
2996277768 0.27020877599716187 -0.0858556255698204 0.000704597681760788 -0.0024955645203590393 0 0 0 0
2999999852 0.2729760706424713 -0.11076603829860687 0.00020729750394821167 -0.00233256071805954 0 0 0 0
