# HZ S RI R 50
1500000000 -0.15044566988945007 -0.01959960348904133 0.0682617649435997 -0.03267800807952881 0 0 0 0
1503722084 -0.12933170795440674 0.01511925458908081 0.059797000139951706 -0.04436382278800011 0 0 0 0
1507444168 -0.10225214064121246 0.04523298889398575 0.04968609660863876 -0.05364563316106796 0 0 0 0
1511166252 -0.06799452751874924 0.07179584354162216 0.036686550825834274 -0.06073981150984764 0 0 0 0
1514888336 -0.029002757743000984 0.09295431524515152 0.02282758429646492 -0.06405800580978394 0 0 0 0
1518610420 0.015470288693904877 0.10661487281322479 0.009562283754348755 -0.06364277005195618 0 0 0 0
1522332504 0.06225647032260895 0.11248356848955154 -0.0013886122032999992 -0.060700494796037674 0 0 0 0
1526054588 0.11009731888771057 0.10815826058387756 -0.011180603876709938 -0.056106086820364 0 0 0 0
1529776672 0.15643571317195892 0.09736158698797226 -0.01937401480972767 -0.05042513459920883 0 0 0 0
1533498756 0.2029365599155426 0.08007733523845673 -0.026011284440755844 -0.04397498816251755 0 0 0 0
1537220840 0.24767553806304932 0.05397666245698929 -0.03082805499434471 -0.03674890846014023 0 0 0 0
1540942924 0.28910818696022034 0.019101478159427643 -0.033811893314123154 -0.029219677671790123 0 0 0 0
1544665008 0.3233783543109894 -0.022698573768138885 -0.03487592563033104 -0.02323353849351406 0 0 0 0
1548387092 0.3504338264465332 -0.07117646932601929 -0.03578268736600876 -0.017308957874774933 0 0 0 0
1552109176 0.3694126009941101 -0.12148986011743546 -0.03608221560716629 -0.011583982035517693 0 0 0 0
1555831260 0.38082751631736755 -0.17728747427463531 -0.03558770567178726 -0.006096880882978439 0 0 0 0
1559553344 0.3832884728908539 -0.23268023133277893 -0.034113816916942596 -0.0011404091492295265 0 0 0 0
1563275428 0.3755512237548828 -0.29056835174560547 -0.032075185328722 0.0033416524529457092 0 0 0 0
1566997512 0.3597889542579651 -0.34965643286705017 -0.029676223173737526 0.007144845090806484 0 0 0 0
1570719596 0.33806851506233215 -0.40051186084747314 -0.027048783376812935 0.009878722950816154 0 0 0 0
1574441680 0.30592024326324463 -0.45083969831466675 -0.02424304559826851 0.012073565274477005 0 0 0 0
1578163764 0.2664768397808075 -0.494527131319046 -0.022225113585591316 0.013707123696804047 0 0 0 0
1581885848 0.21722985804080963 -0.5353362560272217 -0.020294489338994026 0.015684442594647408 0 0 0 0
1585607932 0.16490334272384644 -0.5658321380615234 -0.01791168376803398 0.017380524426698685 0 0 0 0
1589330016 0.10577622801065445 -0.5901905298233032 -0.01542438380420208 0.018793076276779175 0 0 0 0
1593052100 0.044105324894189835 -0.6059442162513733 -0.013337243348360062 0.019850675016641617 0 0 0 0
1596774184 -0.018646448850631714 -0.6115407347679138 -0.011181586422026157 0.02115502394735813 0 0 0 0
1600496268 -0.08018834888935089 -0.607825756072998 -0.009215796366333961 0.022379279136657715 0 0 0 0
1604218352 -0.14495348930358887 -0.593745231628418 -0.00638519786298275 0.023883745074272156 0 0 0 0
1607940436 -0.2082698941230774 -0.5690310001373291 -0.0030980296432971954 0.02489566244184971 0 0 0 0
1611662520 -0.26451778411865234 -0.5393269062042236 0.0002609929069876671 0.02539338544011116 0 0 0 0
1615384604 -0.31923994421958923 -0.49676182866096497 0.004133989103138447 0.025515170767903328 0 0 0 0
1619106688 -0.36726057529449463 -0.44589728116989136 0.008079132065176964 0.02503533661365509 0 0 0 0
1622828772 -0.4071115255355835 -0.39085063338279724 0.012269368395209312 0.02387968637049198 0 0 0 0
1626550856 -0.43991008400917053 -0.32852059602737427 0.016570180654525757 0.02197929099202156 0 0 0 0
1630272940 -0.4630359709262848 -0.2623974084854126 0.02057061344385147 0.018736835569143295 0 0 0 0
1633995024 -0.47547128796577454 -0.1948724389076233 0.02360726334154606 0.014509150758385658 0 0 0 0
1637717108 -0.4797295033931732 -0.12064874172210693 0.02555735968053341 0.00980057567358017 0 0 0 0
1641439192 -0.4736696779727936 -0.04781860113143921 0.02649308741092682 0.004768578335642815 0 0 0 0
1645161276 -0.45539548993110657 0.02509915828704834 0.026409167796373367 0.00030537787824869156 0 0 0 0
1648883360 -0.42542845010757446 0.09724444150924683 0.025552017614245415 -0.00424172542989254 0 0 0 0
1652605444 -0.38413873314857483 0.16311149299144745 0.024305611848831177 -0.008762642741203308 0 0 0 0
1656327528 -0.3312818109989166 0.22417616844177246 0.021776603534817696 -0.0130104199051857 0 0 0 0
1660049612 -0.2702849507331848 0.27409836649894714 0.018409719690680504 -0.016565969213843346 0 0 0 0
1663771696 -0.2005845308303833 0.3151276409626007 0.014233228750526905 -0.019179807975888252 0 0 0 0
1667493780 -0.12706258893013 0.3451944887638092 0.010244214907288551 -0.020670011639595032 0 0 0 0
1671215864 -0.04760892689228058 0.3641931116580963 0.0057943882420659065 -0.021608857437968254 0 0 0 0
1674937948 0.03370249643921852 0.3720862567424774 0.0012062164023518562 -0.021304471418261528 0 0 0 0
1678660032 0.11583547294139862 0.3668709993362427 -0.0027151210233569145 -0.019826609641313553 0 0 0 0
1682382116 0.1962936669588089 0.3479505181312561 -0.005879721604287624 -0.017830772325396538 0 0 0 0
1686104200 0.27411651611328125 0.3165838122367859 -0.008596898056566715 -0.015138473361730576 0 0 0 0
1689826284 0.34553784132003784 0.27215322852134705 -0.010111047886312008 -0.012196069583296776 0 0 0 0
1693548368 0.40869441628456116 0.21815796196460724 -0.010992899537086487 -0.009291398338973522 0 0 0 0
1697270452 0.46240678429603577 0.15362638235092163 -0.010960699990391731 -0.006735127419233322 0 0 0 0
1700992536 0.5052599906921387 0.08709385991096497 -0.01067756861448288 -0.004820126108825207 0 0 0 0
1704714620 0.5357184410095215 0.009899228811264038 -0.010401413775980473 -0.0030900491401553154 0 0 0 0
1708436704 0.5537756085395813 -0.07075841724872589 -0.009790957905352116 -0.0012607648968696594 0 0 0 0
1712158788 0.5606377124786377 -0.15063150227069855 -0.008646104484796524 0.00013857241719961166 0 0 0 0
1715880872 0.5539360046386719 -0.22904594242572784 -0.007546327076852322 0.0011532818898558617 0 0 0 0
1719602956 0.5334317088127136 -0.30634984374046326 -0.006134498864412308 0.0015603350475430489 0 0 0 0
1723325040 0.5041919350624084 -0.37780308723449707 -0.004988505505025387 0.00158668402582407 0 0 0 0
1727047124 0.46407830715179443 -0.4432196617126465 -0.004269784316420555 0.0009959833696484566 0 0 0 0
1730769208 0.4110937714576721 -0.5037511587142944 -0.004160720854997635 0.0005279257893562317 0 0 0 0
1734491292 0.35419750213623047 -0.5522828102111816 -0.0044620102271437645 0.0002287980169057846 0 0 0 0
1738213376 0.29085567593574524 -0.5912985801696777 -0.004701544530689716 0.00026634614914655685 0 0 0 0
1741935460 0.22249452769756317 -0.6195534467697144 -0.004872139543294907 0.00030471663922071457 0 0 0 0
1745657544 0.1560005098581314 -0.634774923324585 -0.005330570973455906 0.0006188033148646355 0 0 0 0
1749379628 0.08027607202529907 -0.6411091089248657 -0.0057129403576254845 0.0013370933011174202 0 0 0 0
1753101712 0.013970740139484406 -0.6359683275222778 -0.005659887567162514 0.0020424295216798782 0 0 0 0
1756823796 -0.056006669998168945 -0.619637668132782 -0.0054681310430169106 0.0025506140664219856 0 0 0 0
1760545880 -0.11470168828964233 -0.5941775441169739 -0.005392521619796753 0.002919384278357029 0 0 0 0
1764267964 -0.17328858375549316 -0.5616163015365601 -0.005397575907409191 0.0032930877059698105 0 0 0 0
1767990048 -0.22101803123950958 -0.519413948059082 -0.005318270996212959 0.003729362040758133 0 0 0 0
1771712132 -0.26570451259613037 -0.4730258584022522 -0.005337429232895374 0.003935081884264946 0 0 0 0
1775434216 -0.2994341552257538 -0.4220444858074188 -0.005809085443615913 0.004213491454720497 0 0 0 0
1779156300 -0.32560327649116516 -0.3683122396469116 -0.006518489681184292 0.00523769948631525 0 0 0 0
1782878384 -0.3438637852668762 -0.31405961513519287 -0.007248952053487301 0.006780440919101238 0 0 0 0
1786600468 -0.35502955317497253 -0.25605309009552 -0.007401907816529274 0.009010463953018188 0 0 0 0
1790322552 -0.3585232198238373 -0.19662705063819885 -0.006692820228636265 0.011581421829760075 0 0 0 0
1794044636 -0.3524317741394043 -0.14124076068401337 -0.005114861764013767 0.013861985877156258 0 0 0 0
1797766720 -0.3402436375617981 -0.08495238423347473 -0.0034191934391856194 0.01618112437427044 0 0 0 0
1801488804 -0.3202575147151947 -0.03025612235069275 -0.0005585132166743279 0.018652884289622307 0 0 0 0
1805210888 -0.29300862550735474 0.019298233091831207 0.0035555753856897354 0.02049797959625721 0 0 0 0
1808932972 -0.25722354650497437 0.06570960581302643 0.008402107283473015 0.021160632371902466 0 0 0 0
1812655056 -0.21274082362651825 0.10645723342895508 0.013582378625869751 0.020229019224643707 0 0 0 0
1816377140 -0.16224735975265503 0.13942010700702667 0.01830204762518406 0.018378043547272682 0 0 0 0
1820099224 -0.10772577673196793 0.16123627126216888 0.023278577253222466 0.01530546322464943 0 0 0 0
1823821308 -0.051586393266916275 0.17241987586021423 0.027365906164050102 0.010565734468400478 0 0 0 0
1827543392 0.0050320737063884735 0.17479926347732544 0.030120722949504852 0.0040595754981040955 0 0 0 0
1831265476 0.05784628540277481 0.16825801134109497 0.03129325434565544 -0.002011651173233986 0 0 0 0
1834987560 0.11013352870941162 0.15152938663959503 0.030614681541919708 -0.00930784735828638 0 0 0 0
1838709644 0.15653789043426514 0.12939977645874023 0.02781878411769867 -0.015643209218978882 0 0 0 0
1842431728 0.19680869579315186 0.10183022916316986 0.024265235289931297 -0.02045246958732605 0 0 0 0
1846153812 0.23088225722312927 0.06761866807937622 0.02006431296467781 -0.024305257946252823 0 0 0 0
1849875896 0.2585614025592804 0.029195956885814667 0.01547724474221468 -0.02753610908985138 0 0 0 0
1853597980 0.28002724051475525 -0.008282899856567383 0.010653425008058548 -0.02975071594119072 0 0 0 0
1857320064 0.2949562072753906 -0.05152059346437454 0.005743728019297123 -0.03126510605216026 0 0 0 0
1861042148 0.3019428253173828 -0.09578640758991241 0.000632856972515583 -0.03258219361305237 0 0 0 0
1864764232 0.3010266125202179 -0.13647542893886566 -0.0052621131762862206 -0.033435072749853134 0 0 0 0
1868486316 0.2943011522293091 -0.17566679418087006 -0.012008445337414742 -0.03245243430137634 0 0 0 0
1872208400 0.2822474539279938 -0.21289411187171936 -0.018002847209572792 -0.029557952657341957 0 0 0 0
1875930484 0.26554861664772034 -0.24704153835773468 -0.022656172513961792 -0.02546290121972561 0 0 0 0
1879652568 0.24375320971012115 -0.2780226767063141 -0.026464495807886124 -0.021313725039362907 0 0 0 0
1883374652 0.21694402396678925 -0.3057880997657776 -0.029802022501826286 -0.017189566045999527 0 0 0 0
1887096736 0.1872512400150299 -0.32692596316337585 -0.032879747450351715 -0.012352639809250832 0 0 0 0
1890818820 0.15369738638401031 -0.3418390452861786 -0.035318441689014435 -0.0065462831407785416 0 0 0 0
1894540904 0.12149520218372345 -0.3503028452396393 -0.0366363525390625 -0.0009653624147176743 0 0 0 0
1898262988 0.08470135927200317 -0.35295677185058594 -0.037409573793411255 0.0055784909054636955 0 0 0 0
1901985072 0.04880434274673462 -0.348833829164505 -0.03646831214427948 0.01295584999024868 0 0 0 0
1905707156 0.020540818572044373 -0.3373563885688782 -0.034004680812358856 0.019296208396553993 0 0 0 0
1909429240 -0.011460542678833008 -0.32325780391693115 -0.030267788097262383 0.02542632631957531 0 0 0 0
1913151324 -0.034589290618896484 -0.3050329387187958 -0.02579393796622753 0.031090855598449707 0 0 0 0
1916873408 -0.056428126990795135 -0.2814808189868927 -0.020149432122707367 0.035928986966609955 0 0 0 0
1920595492 -0.07261700183153152 -0.2560122311115265 -0.013367772102355957 0.04015456140041351 0 0 0 0
1924317576 -0.08528393507003784 -0.2274167388677597 -0.004653908312320709 0.042834650725126266 0 0 0 0
1928039660 -0.0916295275092125 -0.19872909784317017 0.004379716701805592 0.04324174299836159 0 0 0 0
1931761744 -0.092153400182724 -0.17075976729393005 0.013067829422652721 0.04138858616352081 0 0 0 0
1935483828 -0.08815224468708038 -0.14287875592708588 0.020904984325170517 0.03678112104535103 0 0 0 0
1939205912 -0.08213668316602707 -0.11456240713596344 0.02678157389163971 0.03101949580013752 0 0 0 0
1942927996 -0.06960909068584442 -0.08889901638031006 0.030779754742980003 0.02512735314667225 0 0 0 0
1946650080 -0.05346430093050003 -0.06480594724416733 0.033815618604421616 0.01909865066409111 0 0 0 0
1950372164 -0.032480400055646896 -0.04334631562232971 0.03605538606643677 0.013890810310840607 0 0 0 0
1954094248 -0.007255794480443001 -0.026687581092119217 0.0381852462887764 0.00822473131120205 0 0 0 0
1957816332 0.020983822643756866 -0.015066524967551231 0.040051497519016266 0.0010856427252292633 0 0 0 0
1961538416 0.05099555104970932 -0.009142694994807243 0.04009125754237175 -0.006865819916129112 0 0 0 0
1965260500 0.08203627169132233 -0.008685790002346039 0.03804928809404373 -0.014269997365772724 0 0 0 0
1968982584 0.11224332451820374 -0.0158391073346138 0.03430577367544174 -0.02122577279806137 0 0 0 0
1972704668 0.14018213748931885 -0.02797192707657814 0.030209079384803772 -0.0271467175334692 0 0 0 0
1976426752 0.16478992998600006 -0.044206321239471436 0.025132782757282257 -0.03260885179042816 0 0 0 0
1980148836 0.18655280768871307 -0.06563882529735565 0.01829536259174347 -0.03727933391928673 0 0 0 0
1983870920 0.20296847820281982 -0.09192277491092682 0.01062975637614727 -0.04021603614091873 0 0 0 0
1987593004 0.21390090882778168 -0.11998794972896576 0.0021224822849035263 -0.041712526232004166 0 0 0 0
1991315088 0.21897846460342407 -0.14939582347869873 -0.006409319117665291 -0.04089942201972008 0 0 0 0
1995037172 0.2174483984708786 -0.17802055180072784 -0.014672876335680485 -0.038353949785232544 0 0 0 0
1998759256 0.21054211258888245 -0.20623072981834412 -0.021489350125193596 -0.03362876549363136 0 0 0 0
2002481340 0.20100456476211548 -0.22954705357551575 -0.02635296620428562 -0.028413139283657074 0 0 0 0
2006203424 0.1844223141670227 -0.25318634510040283 -0.030244169756770134 -0.023054856806993484 0 0 0 0
2009925508 0.16621297597885132 -0.2714880704879761 -0.03319728374481201 -0.01772449165582657 0 0 0 0
2013647592 0.14838886260986328 -0.2847701907157898 -0.03605697304010391 -0.012076125480234623 0 0 0 0
2017369676 0.12288494408130646 -0.2996850907802582 -0.03829319775104523 -0.005223458632826805 0 0 0 0
2021091760 0.10056820511817932 -0.30758368968963623 -0.0388403981924057 0.0018321704119443893 0 0 0 0
2024813844 0.07478334754705429 -0.31307706236839294 -0.03784913569688797 0.009641633369028568 0 0 0 0
2028535928 0.0486190989613533 -0.31435608863830566 -0.03503881394863129 0.01691340282559395 0 0 0 0
2032258012 0.022238681092858315 -0.30987873673439026 -0.03058633767068386 0.02268304117023945 0 0 0 0
2035980096 -0.006049424409866333 -0.30112192034721375 -0.02522517368197441 0.027474045753479004 0 0 0 0
2039702180 -0.028921008110046387 -0.2886967062950134 -0.019675958901643753 0.03094939887523651 0 0 0 0
2043424264 -0.05240805074572563 -0.2715884745121002 -0.013662882149219513 0.03297740966081619 0 0 0 0
2047146348 -0.07344051450490952 -0.2502811551094055 -0.007885221391916275 0.03421955555677414 0 0 0 0
2050868432 -0.0891779214143753 -0.22659814357757568 -0.0020885244011878967 0.03446353226900101 0 0 0 0
2054590516 -0.10115504264831543 -0.2005980759859085 0.0036293230950832367 0.033904120326042175 0 0 0 0
2058312600 -0.11126163601875305 -0.17093519866466522 0.009051450528204441 0.032624803483486176 0 0 0 0
2062034684 -0.11520218104124069 -0.14118176698684692 0.014143241569399834 0.030416307970881462 0 0 0 0
2065756768 -0.11442356556653976 -0.11041747033596039 0.01882186532020569 0.02760428749024868 0 0 0 0
2069478852 -0.11000031232833862 -0.0764799490571022 0.023573022335767746 0.023663368076086044 0 0 0 0
2073200936 -0.09827218949794769 -0.045983754098415375 0.026697196066379547 0.018874648958444595 0 0 0 0
2076923020 -0.08101147413253784 -0.015495022758841515 0.028639253228902817 0.013634387403726578 0 0 0 0
2080645104 -0.058511149138212204 0.01210576482117176 0.02950664982199669 0.008997173979878426 0 0 0 0
2084367188 -0.03158854320645332 0.03517182171344757 0.03059551864862442 0.004545181058347225 0 0 0 0
2088089272 -0.00032008811831474304 0.05308091267943382 0.030802397057414055 0.00011898763477802277 0 0 0 0
2091811356 0.03348309546709061 0.06481707096099854 0.031230317428708076 -0.004590666852891445 0 0 0 0
2095533440 0.06869576126337051 0.07040385901927948 0.030554283410310745 -0.010009287856519222 0 0 0 0
2099255524 0.10404298454523087 0.07108035683631897 0.029101302847266197 -0.015499135479331017 0 0 0 0
2102977608 0.13863486051559448 0.06616710126399994 0.02574671059846878 -0.021305415779352188 0 0 0 0
2106699692 0.1715211421251297 0.056992869824171066 0.02087933011353016 -0.026150263845920563 0 0 0 0
2110421776 0.203823059797287 0.0406188890337944 0.014813724905252457 -0.029457079246640205 0 0 0 0
2114143860 0.23339034616947174 0.018135733902454376 0.00910266675055027 -0.03105105273425579 0 0 0 0
2117865944 0.258012056350708 -0.005057879723608494 0.003667864017188549 -0.03181043267250061 0 0 0 0
2121588028 0.27778327465057373 -0.03513609617948532 -0.0023085549473762512 -0.03222745284438133 0 0 0 0
2125310112 0.2927204668521881 -0.06459392607212067 -0.0089437086135149 -0.03121575340628624 0 0 0 0
2129032196 0.30104243755340576 -0.10066496580839157 -0.015125026926398277 -0.028239097446203232 0 0 0 0
2132754280 0.3055928349494934 -0.13374537229537964 -0.020152829587459564 -0.023699909448623657 0 0 0 0
2136476364 0.30315276980400085 -0.16660113632678986 -0.023544108495116234 -0.018365124240517616 0 0 0 0
2140198448 0.2949625551700592 -0.20073020458221436 -0.02528260089457035 -0.012981570325791836 0 0 0 0
2143920532 0.2824687361717224 -0.23069661855697632 -0.025879815220832825 -0.00802895799279213 0 0 0 0
2147642616 0.26848262548446655 -0.25593170523643494 -0.025443239137530327 -0.003462580032646656 0 0 0 0
2151364700 0.24561302363872528 -0.2797667384147644 -0.024439312517642975 0.00044324807822704315 0 0 0 0
2155086784 0.22265814244747162 -0.3012961745262146 -0.023176897317171097 0.003688736818730831 0 0 0 0
2158808868 0.19773492217063904 -0.31669554114341736 -0.021906711161136627 0.00669163279235363 0 0 0 0
2162530952 0.16935433447360992 -0.3284638822078705 -0.020144127309322357 0.009457823820412159 0 0 0 0
2166253036 0.13914448022842407 -0.33692067861557007 -0.018521826714277267 0.01181020587682724 0 0 0 0
2169975120 0.11156347393989563 -0.33948948979377747 -0.01711171679198742 0.014085331931710243 0 0 0 0
2173697204 0.07925297319889069 -0.3375784754753113 -0.015181055292487144 0.016757754608988762 0 0 0 0
2177419288 0.05075491964817047 -0.3316299617290497 -0.012356193736195564 0.019378751516342163 0 0 0 0
2181141372 0.024818286299705505 -0.32228440046310425 -0.008826284669339657 0.02124819904565811 0 0 0 0
2184863456 -0.002316191792488098 -0.30840325355529785 -0.005585761740803719 0.022345393896102905 0 0 0 0
2188585540 -0.023678626865148544 -0.28949397802352905 -0.0022061923518776894 0.0232357420027256 0 0 0 0
2192307624 -0.04607807844877243 -0.2650877833366394 0.002061200328171253 0.023654015734791756 0 0 0 0
2196029708 -0.06128150224685669 -0.24025894701480865 0.006754566915333271 0.023433301597833633 0 0 0 0
2199751792 -0.07091078162193298 -0.21370723843574524 0.01134546659886837 0.0217308159917593 0 0 0 0
2203473876 -0.07782894372940063 -0.18461674451828003 0.015363642014563084 0.018520688638091087 0 0 0 0
2207195960 -0.07914543896913528 -0.15553879737854004 0.018068773671984673 0.01499217376112938 0 0 0 0
2210918044 -0.07845454663038254 -0.12542560696601868 0.02003314532339573 0.01101494487375021 0 0 0 0
2214640128 -0.06810835748910904 -0.09962495416402817 0.02110537514090538 0.006924698129296303 0 0 0 0
2218362212 -0.05958376079797745 -0.07110502570867538 0.02100990153849125 0.0025016693398356438 0 0 0 0
2222084296 -0.04394931346178055 -0.04663998261094093 0.020106112584471703 -0.0009774407371878624 0 0 0 0
2225806380 -0.022509340196847916 -0.025552023202180862 0.019121406599879265 -0.003590615466237068 0 0 0 0
2229528464 0.0007337601855397224 -0.007571991533041 0.01854398101568222 -0.006282140500843525 0 0 0 0
2233250548 0.026936732232570648 0.005950636230409145 0.017628606408834457 -0.009462220594286919 0 0 0 0
2236972632 0.055227626115083694 0.015066343359649181 0.01567654311656952 -0.012677747756242752 0 0 0 0
2240694716 0.08435413986444473 0.01821308769285679 0.012912939302623272 -0.015260561369359493 0 0 0 0
2244416800 0.11408089846372604 0.014407170936465263 0.009251926094293594 -0.01744844764471054 0 0 0 0
2248138884 0.14183492958545685 0.008549435064196587 0.005216982215642929 -0.018869411200284958 0 0 0 0
2251860968 0.1669042408466339 -0.004789985716342926 0.001132836565375328 -0.019365821033716202 0 0 0 0
2255583052 0.18769755959510803 -0.023296859115362167 -0.002842566929757595 -0.018489301204681396 0 0 0 0
2259305136 0.20679375529289246 -0.040784817188978195 -0.0060529690235853195 -0.01668018288910389 0 0 0 0
2263027220 0.21907129883766174 -0.06563419103622437 -0.00808415375649929 -0.0149090476334095 0 0 0 0
2266749304 0.22856664657592773 -0.08944409340620041 -0.010298226028680801 -0.012653172016143799 0 0 0 0
2270471388 0.23609688878059387 -0.11048615723848343 -0.011936448514461517 -0.010432753711938858 0 0 0 0
2274193472 0.23431895673274994 -0.13729071617126465 -0.01276639848947525 -0.008284845389425755 0 0 0 0
2277915556 0.2336443066596985 -0.16064126789569855 -0.01331667136400938 -0.00646169763058424 0 0 0 0
2281637640 0.2311704009771347 -0.1797720193862915 -0.01399555429816246 -0.004558471031486988 0 0 0 0
2285359724 0.21368743479251862 -0.20560267567634583 -0.01440391968935728 -0.002605241723358631 0 0 0 0
2289081808 0.1985178142786026 -0.22436992824077606 -0.014639494940638542 -8.759833872318268e-05 0 0 0 0
2292803892 0.1826678216457367 -0.23901548981666565 -0.01427378598600626 0.00218949094414711 0 0 0 0
2296525976 0.1625683605670929 -0.24974195659160614 -0.013423713855445385 0.004160178825259209 0 0 0 0
2300248060 0.14125095307826996 -0.25888222455978394 -0.01244407705962658 0.0062309689819812775 0 0 0 0
2303970144 0.12702900171279907 -0.26380932331085205 -0.01135779544711113 0.008168058469891548 0 0 0 0
2307692228 0.09999878704547882 -0.2640330195426941 -0.009776783175766468 0.009730689227581024 0 0 0 0
2311414312 0.07766202092170715 -0.26229190826416016 -0.007194841280579567 0.010979573242366314 0 0 0 0
2315136396 0.05459849536418915 -0.25617414712905884 -0.004489698447287083 0.011204411275684834 0 0 0 0
2318858480 0.03163154795765877 -0.24793393909931183 -0.002629011869430542 0.010503212921321392 0 0 0 0
2322580564 0.014435850083827972 -0.23259416222572327 -0.0012186337262392044 0.009802538901567459 0 0 0 0
2326302648 -0.0052171871066093445 -0.21532440185546875 -0.00019695889204740524 0.008875483646988869 0 0 0 0
2330024732 -0.019526317715644836 -0.1951361447572708 0.0006984835490584373 0.007848534733057022 0 0 0 0
2333746816 -0.02764422446489334 -0.17379866540431976 0.0009283451363444328 0.007089271210134029 0 0 0 0
2337468900 -0.037239763885736465 -0.1479928195476532 0.0012196032330393791 0.007058962248265743 0 0 0 0
2341190984 -0.04119856655597687 -0.11995483934879303 0.0019407616928219795 0.006502049975097179 0 0 0 0
2344913068 -0.037776026874780655 -0.09216819703578949 0.0025000106543302536 0.005960812792181969 0 0 0 0
2348635152 -0.030235759913921356 -0.06472477316856384 0.0029270900413393974 0.005011202767491341 0 0 0 0
2352357236 -0.015073447488248348 -0.04034042730927467 0.0027869027107954025 0.004411789588630199 0 0 0 0
2356079320 0.0030077826231718063 -0.017691098153591156 0.002696637064218521 0.003974917344748974 0 0 0 0
2359801404 0.024920327588915825 0.0007177675142884254 0.002680865116417408 0.0035235313698649406 0 0 0 0
2363523488 0.049768976867198944 0.015668556094169617 0.0025931308045983315 0.002965911291539669 0 0 0 0
2367245572 0.07655737549066544 0.02647623047232628 0.002106722444295883 0.0028720712289214134 0 0 0 0
2370967656 0.10558342933654785 0.03132098540663719 0.001965816132724285 0.003000933676958084 0 0 0 0
2374689740 0.13495823740959167 0.03155858442187309 0.0019637364894151688 0.003464658744633198 0 0 0 0
2378411824 0.16318491101264954 0.02868988737463951 0.002403474412858486 0.003531024791300297 0 0 0 0
2382133908 0.19201165437698364 0.019314393401145935 0.0026326077058911324 0.003580169752240181 0 0 0 0
2385855992 0.2182633876800537 0.003268785774707794 0.0028746621683239937 0.003323165699839592 0 0 0 0
2389578076 0.24205784499645233 -0.013457119464874268 0.0027339505031704903 0.0034114057198166847 0 0 0 0
2393300160 0.2604990005493164 -0.037539511919021606 0.0026550274342298508 0.0035185329616069794 0 0 0 0
2397022244 0.27535128593444824 -0.06230819970369339 0.002992786467075348 0.003677508793771267 0 0 0 0
2400744328 0.28701770305633545 -0.09182897210121155 0.004309014417231083 0.003984468057751656 0 0 0 0
2404466412 0.2938172519207001 -0.1178213357925415 0.006010209210216999 0.0037158429622650146 0 0 0 0
2408188496 0.2956889569759369 -0.1489233672618866 0.007440044544637203 0.002788173034787178 0 0 0 0
2411910580 0.29528382420539856 -0.1746971309185028 0.008357318118214607 0.0015601757913827896 0 0 0 0
2415632664 0.2862556576728821 -0.20372989773750305 0.008459546603262424 -0.00015842728316783905 0 0 0 0
2419354748 0.27549731731414795 -0.22994783520698547 0.008520356379449368 -0.0018140608444809914 0 0 0 0
2423076832 0.25822675228118896 -0.2554319202899933 0.008516261354088783 -0.003922596573829651 0 0 0 0
2426798916 0.2375815510749817 -0.278867244720459 0.007711868733167648 -0.006088036112487316 0 0 0 0
2430521000 0.21967855095863342 -0.2946197986602783 0.006355131044983864 -0.00726049579679966 0 0 0 0
2434243084 0.19541694223880768 -0.3099452257156372 0.004966548644006252 -0.006920089013874531 0 0 0 0
2437965168 0.16967663168907166 -0.32061997056007385 0.0032167863100767136 -0.007665116339921951 0 0 0 0
2441687252 0.14260506629943848 -0.32926395535469055 0.0020708851516246796 -0.007827570661902428 0 0 0 0
2445409336 0.11272089928388596 -0.3339235186576843 0.0011418992653489113 -0.008271735161542892 0 0 0 0
2449131420 0.08147983253002167 -0.33340588212013245 0.0005873385816812515 -0.008781526237726212 0 0 0 0
2452853504 0.05254866182804108 -0.32733187079429626 -0.00023567304015159607 -0.009259849786758423 0 0 0 0
2456575588 0.02629445493221283 -0.31809496879577637 -0.0011256029829382896 -0.009700415655970573 0 0 0 0
2460297672 0.0017338395118713379 -0.303613543510437 -0.0024763084948062897 -0.010247357189655304 0 0 0 0
2464019756 -0.02551157772541046 -0.28697359561920166 -0.004743005149066448 -0.010462108999490738 0 0 0 0
2467741840 -0.046260930597782135 -0.26534944772720337 -0.0066440170630812645 -0.009951906278729439 0 0 0 0
2471463924 -0.06502899527549744 -0.24214020371437073 -0.008396290242671967 -0.008955865167081356 0 0 0 0
2475186008 -0.07893728464841843 -0.21523389220237732 -0.010120443999767303 -0.007952038198709488 0 0 0 0
2478908092 -0.08925090730190277 -0.1851886510848999 -0.011956783011555672 -0.006748133338987827 0 0 0 0
2482630176 -0.09445545077323914 -0.15450988709926605 -0.013642486184835434 -0.005017636343836784 0 0 0 0
2486352260 -0.09473221004009247 -0.12323082238435745 -0.015024567022919655 -0.0029306281358003616 0 0 0 0
2490074344 -0.09164028614759445 -0.0917234942317009 -0.01592988148331642 -0.0005806079134345055 0 0 0 0
2493796428 -0.08160249888896942 -0.06171565502882004 -0.016615234315395355 0.0023408839479088783 0 0 0 0
2497518512 -0.06856722384691238 -0.033107757568359375 -0.016107836738228798 0.00560949370265007 0 0 0 0
2501240596 -0.05030462145805359 -0.008297882974147797 -0.014986426569521427 0.008482791483402252 0 0 0 0
2504962680 -0.02853786200284958 0.014790602028369904 -0.013426114805042744 0.010878070257604122 0 0 0 0
2508684764 -0.003647306002676487 0.0345093198120594 -0.011514291167259216 0.013477489352226257 0 0 0 0
2512406848 0.023689448833465576 0.04883468896150589 -0.009260546416044235 0.015777859836816788 0 0 0 0
2516128932 0.05560287460684776 0.05898305028676987 -0.005900045856833458 0.017859406769275665 0 0 0 0
2519851016 0.08782742917537689 0.06390083581209183 -0.0019402094185352325 0.01878274790942669 0 0 0 0
2523573100 0.12005580961704254 0.06170598417520523 0.0020966781303286552 0.018401140347123146 0 0 0 0
2527295184 0.14998739957809448 0.05618952959775925 0.004679779522120953 0.017134232446551323 0 0 0 0
2531017268 0.18043744564056396 0.041665516793727875 0.008026182651519775 0.016008948907256126 0 0 0 0
2534739352 0.2047085464000702 0.02730538696050644 0.010792911984026432 0.014139480888843536 0 0 0 0
2538461436 0.22533658146858215 0.006359659135341644 0.012976186349987984 0.01125996746122837 0 0 0 0
2542183520 0.24100105464458466 -0.017245888710021973 0.014788464643061161 0.008403999730944633 0 0 0 0
2545905604 0.2542300820350647 -0.04101157933473587 0.016070542857050896 0.005372011102735996 0 0 0 0
2549627688 0.2628655433654785 -0.06670331954956055 0.016735920682549477 0.001794956624507904 0 0 0 0
2553349772 0.2657945454120636 -0.08883370459079742 0.015973109751939774 -0.0018099993467330933 0 0 0 0
2557071856 0.26534324884414673 -0.11287327110767365 0.014925475232303143 -0.005454525351524353 0 0 0 0
2560793940 0.26567378640174866 -0.13432595133781433 0.012469845823943615 -0.007972625084221363 0 0 0 0
2564516024 0.2594073712825775 -0.15618358552455902 0.009662489406764507 -0.009178719483315945 0 0 0 0
2568238108 0.2511740028858185 -0.17598015069961548 0.007726325653493404 -0.010392744094133377 0 0 0 0
2571960192 0.24095523357391357 -0.19333142042160034 0.0056867580860853195 -0.011019906029105186 0 0 0 0
2575682276 0.22757171094417572 -0.208494633436203 0.0035566166043281555 -0.010908316820859909 0 0 0 0
2579404360 0.213419109582901 -0.22229689359664917 0.0018626898527145386 -0.010870636440813541 0 0 0 0
2583126444 0.19824336469173431 -0.23276887834072113 0.00013789627701044083 -0.010698546655476093 0 0 0 0
2586848528 0.182579904794693 -0.2421395182609558 -0.0014426186680793762 -0.010443884879350662 0 0 0 0
2590570612 0.16607187688350677 -0.24924910068511963 -0.00336381234228611 -0.009710266254842281 0 0 0 0
2594292696 0.14900752902030945 -0.25387245416641235 -0.004442877136170864 -0.008635549806058407 0 0 0 0
2598014780 0.13215269148349762 -0.25726747512817383 -0.005304143764078617 -0.0074827661737799644 0 0 0 0
2601736864 0.11496658623218536 -0.2569788098335266 -0.0062783025205135345 -0.006560176610946655 0 0 0 0
2605458948 0.09677023440599442 -0.2519705295562744 -0.0071558523923158646 -0.005341550335288048 0 0 0 0
2609181032 0.07868721336126328 -0.2469499409198761 -0.00757443904876709 -0.00365297868847847 0 0 0 0
2612903116 0.06438811868429184 -0.23733478784561157 -0.007466197945177555 -0.0019968049600720406 0 0 0 0
2616625200 0.05258144438266754 -0.22640986740589142 -0.006918744184076786 -0.0007773498073220253 0 0 0 0
2620347284 0.0420706570148468 -0.21488475799560547 -0.00621296651661396 9.82852652668953e-05 0 0 0 0
2624069368 0.03286007046699524 -0.20183616876602173 -0.005505124107003212 0.00030055083334445953 0 0 0 0
2627791452 0.028447143733501434 -0.18714134395122528 -0.005078792572021484 0.0005015674978494644 0 0 0 0
2631513536 0.02505571022629738 -0.17300979793071747 -0.004638282582163811 0.0006027761846780777 0 0 0 0
2635235620 0.022760331630706787 -0.15826892852783203 -0.004749506711959839 0.0007894802838563919 0 0 0 0
2638957704 0.024313580244779587 -0.14639201760292053 -0.004625734873116016 0.001355258747935295 0 0 0 0
2642679788 0.028335653245449066 -0.13181385397911072 -0.004243464209139347 0.0019430126994848251 0 0 0 0
2646401872 0.033410120755434036 -0.12057451158761978 -0.0034986361861228943 0.0022725211456418037 0 0 0 0
2650123956 0.041700076311826706 -0.10814353823661804 -0.0028077997267246246 0.0021054772660136223 0 0 0 0
2653846040 0.05262855067849159 -0.09844501316547394 -0.002643725834786892 0.0018087131902575493 0 0 0 0
2657568124 0.06403638422489166 -0.09241052716970444 -0.002775377593934536 0.001681426540017128 0 0 0 0
2661290208 0.07941227406263351 -0.08853384852409363 -0.003030260093510151 0.0017411820590496063 0 0 0 0
2665012292 0.09204534441232681 -0.08969955891370773 -0.003123534843325615 0.002282632514834404 0 0 0 0
2668734376 0.10239407420158386 -0.09400593489408493 -0.0030307043343782425 0.0028395680710673332 0 0 0 0
2672456460 0.11502139270305634 -0.09775540977716446 -0.0028149764984846115 0.003326933830976486 0 0 0 0
2676178544 0.1218147948384285 -0.10845302790403366 -0.0023740697652101517 0.004017548635601997 0 0 0 0
2679900628 0.1276828646659851 -0.11844609677791595 -0.0016673291102051735 0.0044861286878585815 0 0 0 0
2683622712 0.13058260083198547 -0.12810227274894714 -0.000771835446357727 0.004777723923325539 0 0 0 0
2687344796 0.13193152844905853 -0.13775569200515747 0.0001324126496911049 0.004739734344184399 0 0 0 0
2691066880 0.13100756704807281 -0.14839127659797668 0.0008285855874419212 0.004682857543230057 0 0 0 0
2694788964 0.12724189460277557 -0.15733423829078674 0.0018637729808688164 0.0045164646580815315 0 0 0 0
2698511048 0.12314121425151825 -0.16602154076099396 0.002795168198645115 0.0040847742930054665 0 0 0 0
2702233132 0.1169743686914444 -0.17348037660121918 0.0036010555922985077 0.003234406001865864 0 0 0 0
2705955216 0.10945992171764374 -0.18103981018066406 0.004286863841116428 0.0023637162521481514 0 0 0 0
2709677300 0.09921765327453613 -0.18793201446533203 0.00470057874917984 0.0012217005714774132 0 0 0 0
2713399384 0.08792702108621597 -0.1919684261083603 0.004528306424617767 -0.00014047976583242416 0 0 0 0
2717121468 0.0756530612707138 -0.19345782697200775 0.004015670157968998 -0.001084430143237114 0 0 0 0
2720843552 0.06456708908081055 -0.1933947205543518 0.0033800816163420677 -0.0016134576871991158 0 0 0 0
2724565636 0.048417240381240845 -0.19057074189186096 0.002922738902270794 -0.0019601313397288322 0 0 0 0
2728287720 0.03396347537636757 -0.183312326669693 0.0023365048691630363 -0.0022546201944351196 0 0 0 0
2732009804 0.024815618991851807 -0.17448866367340088 0.0020238449797034264 -0.0023912927135825157 0 0 0 0
2735731888 0.014184877276420593 -0.1634746789932251 0.0016615428030490875 -0.0025437604635953903 0 0 0 0
2739453972 0.007339455187320709 -0.15144690871238708 0.0014002900570631027 -0.0025728167966008186 0 0 0 0
2743176056 -0.0016370899975299835 -0.1371215283870697 0.0009923838078975677 -0.002611118368804455 0 0 0 0
2746898140 -0.005414694547653198 -0.12037672102451324 0.0007657371461391449 -0.002676616422832012 0 0 0 0
2750620224 -0.007161952555179596 -0.10342247784137726 0.0006748437881469727 -0.0028075631707906723 0 0 0 0
2754342308 -0.006217751652002335 -0.08666358888149261 0.0005449969321489334 -0.003126467578113079 0 0 0 0
2758064392 -0.0017261337488889694 -0.06901891529560089 2.08243727684021e-06 -0.0035582594573497772 0 0 0 0
2761786476 0.005983270704746246 -0.052254579961299896 -0.0009367531165480614 -0.003659907728433609 0 0 0 0
2765508560 0.016285022720694542 -0.03587878867983818 -0.0016746511682868004 -0.0031686900183558464 0 0 0 0
2769230644 0.030531983822584152 -0.021343842148780823 -0.002139005810022354 -0.0024529723450541496 0 0 0 0
2772952728 0.046576399356126785 -0.008654195815324783 -0.0021337177604436874 -0.0020994292572140694 0 0 0 0
2776674812 0.06545981764793396 -0.000493127852678299 -0.002139410935342312 -0.0018003974109888077 0 0 0 0
2780396896 0.0855763852596283 0.0054985955357551575 -0.0022631436586380005 -0.0015718946233391762 0 0 0 0
2784118980 0.10549906641244888 0.007833544164896011 -0.0026606153696775436 -0.001222960650920868 0 0 0 0
2787841064 0.12629246711730957 0.008757654577493668 -0.0025862958282232285 -0.0006290003657341003 0 0 0 0
2791563148 0.14821211993694305 0.005350880324840546 -0.002397569827735424 -0.00021217390894889832 0 0 0 0
2795285232 0.16974963247776031 -0.0019013900309801102 -0.002161465585231781 0.00028575677424669266 0 0 0 0
2799007316 0.19012627005577087 -0.010968945920467377 -0.0014925207942724228 0.0006459914147853851 0 0 0 0
2802729400 0.20907220244407654 -0.02784363552927971 -0.000992421992123127 0.00037167128175497055 0 0 0 0
2806451484 0.22437429428100586 -0.04469683766365051 -0.0009200554341077805 -5.587376654148102e-05 0 0 0 0
2810173568 0.2367769479751587 -0.06674861162900925 -0.0010609766468405724 -0.00013165082782506943 0 0 0 0
2813895652 0.2474556267261505 -0.08725015819072723 -0.0013296213001012802 0.0001619076356291771 0 0 0 0
2817617736 0.2541954815387726 -0.10765855014324188 -0.0012138457968831062 0.0004966119304299355 0 0 0 0
2821339820 0.25592729449272156 -0.134248286485672 -0.0009149452671408653 0.0007102135568857193 0 0 0 0
2825061904 0.2562856376171112 -0.15543442964553833 -0.000687657855451107 0.0006883405148983002 0 0 0 0
2828783988 0.2508357763290405 -0.1807728111743927 -0.0004256712272763252 0.000788440927863121 0 0 0 0
2832506072 0.24711470305919647 -0.19876247644424438 -0.0002437066286802292 0.0006659943610429764 0 0 0 0
2836228156 0.23212333023548126 -0.22595623135566711 -2.5989487767219543e-05 0.0006146607920527458 0 0 0 0
2839950240 0.22168231010437012 -0.2429955154657364 9.564682841300964e-05 0.0005037188529968262 0 0 0 0
2843672324 0.20597819983959198 -0.2608616054058075 0.000316571444272995 0.00036342721432447433 0 0 0 0
2847394408 0.1883259415626526 -0.27442097663879395 0.0002669161185622215 0.00024699047207832336 0 0 0 0
2851116492 0.16993841528892517 -0.2890162765979767 0.0004059281200170517 0.00018774624913930893 0 0 0 0
2854838576 0.14698971807956696 -0.300444096326828 0.00047185178846120834 0.000117461197078228 0 0 0 0
2858560660 0.1290562003850937 -0.3093818128108978 0.0006567388772964478 -0.00045851990580558777 0 0 0 0
2862282744 0.10250210762023926 -0.3154185712337494 0.0005776155740022659 -0.0005302857607603073 0 0 0 0
2866004828 0.07765122503042221 -0.3170751929283142 0.0005367007106542587 -0.000493793748319149 0 0 0 0
2869726912 0.05501791834831238 -0.31582534313201904 0.0007146457210183144 -0.0006959522143006325 0 0 0 0
2873448996 0.03268531709909439 -0.312214195728302 0.000530049204826355 -0.0008506672456860542 0 0 0 0
2877171080 0.0076552629470825195 -0.30521413683891296 0.00044276658445596695 -0.0009456481784582138 0 0 0 0
2880893164 -0.014099523425102234 -0.29647377133369446 0.0003515956923365593 -0.0010418044403195381 0 0 0 0
2884615248 -0.035344239324331284 -0.28367266058921814 0.0001032436266541481 -0.0010617347434163094 0 0 0 0
2888337332 -0.0511193722486496 -0.2697209417819977 5.2955932915210724e-05 -0.000966409221291542 0 0 0 0
2892059416 -0.075489342212677 -0.2499355971813202 -0.00014560390263795853 -0.0008408082649111748 0 0 0 0
2895781500 -0.08727410435676575 -0.2313070297241211 -0.00023744814097881317 -0.0006883470341563225 0 0 0 0
2899503584 -0.1004464328289032 -0.20898230373859406 -0.00022919289767742157 -0.0004816148430109024 0 0 0 0
2903225668 -0.11062575876712799 -0.18355195224285126 -5.791429430246353e-05 -0.00041272398084402084 0 0 0 0
2906947752 -0.11676564812660217 -0.158695787191391 0.00010812748223543167 -0.00036791712045669556 0 0 0 0
2910669836 -0.1195472702383995 -0.13172782957553864 0.00017042923718690872 -0.00043259840458631516 0 0 0 0
2914391920 -0.12008635699748993 -0.10513436049222946 0.00017923954874277115 -0.000472470186650753 0 0 0 0
2918114004 -0.11448021233081818 -0.08059199899435043 0.0002472642809152603 -0.0004753097891807556 0 0 0 0
2921836088 -0.10725172609090805 -0.056667011231184006 0.00018125399947166443 -0.0003899959847331047 0 0 0 0
2925558172 -0.09805456548929214 -0.03379247337579727 0.0002490067854523659 -0.0005065081641077995 0 0 0 0
2929280256 -0.08545470237731934 -0.011367078870534897 0.00021893903613090515 -0.000515117309987545 0 0 0 0
2933002340 -0.07056115567684174 0.00915179681032896 0.00016398727893829346 -0.0004857191815972328 0 0 0 0
2936724424 -0.0524798184633255 0.027554798871278763 2.2374093532562256e-05 -0.0004305187612771988 0 0 0 0
2940446508 -0.033487752079963684 0.04289950057864189 -0.00018143001943826675 -0.00032087601721286774 0 0 0 0
2944168592 -0.012222371995449066 0.05719936639070511 -9.085237979888916e-05 -0.0002575349062681198 0 0 0 0
2947890676 0.013679271563887596 0.06865222752094269 -5.105137825012207e-05 -5.652569234371185e-05 0 0 0 0
2951612760 0.039552684873342514 0.07662995904684067 4.2358413338661194e-05 0.0003245687112212181 0 0 0 0
2955334844 0.06665753573179245 0.07988917082548141 0.00023587234318256378 0.0003543635830283165 0 0 0 0
2959056928 0.09418321400880814 0.08003191649913788 0.00042575225234031677 0.0006139837205410004 0 0 0 0
2962779012 0.1204025149345398 0.07475954294204712 0.0008062859997153282 0.0007973015308380127 0 0 0 0
2966501096 0.14551237225532532 0.06605502963066101 0.0013239150866866112 0.0007790541276335716 0 0 0 0
2970223180 0.16794463992118835 0.056177131831645966 0.0018949070945382118 0.0005209697410464287 0 0 0 0
2973945264 0.1893317699432373 0.04177064821124077 0.002205304801464081 -7.977709174156189e-06 0 0 0 0
2977667348 0.208908349275589 0.024344637989997864 0.0024242987856268883 -0.0004781484603881836 0 0 0 0
2981389432 0.22707803547382355 0.007225261069834232 0.002226846292614937 -0.0010129734873771667 0 0 0 0
2985111516 0.24058574438095093 -0.014636285603046417 0.002000030130147934 -0.001424374058842659 0 0 0 0
2988833600 0.251365065574646 -0.03555964678525925 0.0018465286120772362 -0.0017884792760014534 0 0 0 0
2992555684 0.258515328168869 -0.057678334414958954 0.0012510549277067184 -0.0019610729068517685 0 0 0 0
2996277768 0.26247212290763855 -0.08202651143074036 0.0007926691323518753 -0.002176603302359581 0 0 0 0
2999999852 0.2659379243850708 -0.10466200113296509 0.00012074317783117294 -0.0019301213324069977 0 0 0 0
