# HZ S RI R 50
1500000000 -0.15346428751945496 -0.0021562129259109497 0.0696825161576271 -0.03248799964785576 0 0 0 0
1503722084 -0.12884247303009033 0.03316788002848625 0.061868518590927124 -0.044371187686920166 0 0 0 0
1507444168 -0.09775084257125854 0.06282190978527069 0.05098533630371094 -0.05425410717725754 0 0 0 0
1511166252 -0.060386061668395996 0.08796248584985733 0.0380077064037323 -0.06121327728033066 0 0 0 0
1514888336 -0.01807001419365406 0.10707464069128036 0.024198230355978012 -0.06483963876962662 0 0 0 0
1518610420 0.027815409004688263 0.11898040026426315 0.011397840455174446 -0.06488782912492752 0 0 0 0
1522332504 0.07772377133369446 0.12193448096513748 -0.0005234908312559128 -0.06246039271354675 0 0 0 0
1526054588 0.12780477106571198 0.11596179008483887 -0.010577507317066193 -0.05832841619849205 0 0 0 0
1529776672 0.1763237565755844 0.10333726555109024 -0.01884639263153076 -0.052990831434726715 0 0 0 0
1533498756 0.22442463040351868 0.08018769323825836 -0.026382146403193474 -0.045942626893520355 0 0 0 0
1537220840 0.26902279257774353 0.047823868691921234 -0.031653232872486115 -0.03856228291988373 0 0 0 0
1540942924 0.3076503872871399 0.009970486164093018 -0.03437328338623047 -0.03157266229391098 0 0 0 0
1544665008 0.3388834595680237 -0.037428002804517746 -0.03608410432934761 -0.024799980223178864 0 0 0 0
1548387092 0.3626056909561157 -0.08733958750963211 -0.037176378071308136 -0.019062219187617302 0 0 0 0
1552109176 0.37714681029319763 -0.14266487956047058 -0.037805456668138504 -0.012978330254554749 0 0 0 0
1555831260 0.3855758607387543 -0.19499441981315613 -0.037658028304576874 -0.007237504236400127 0 0 0 0
1559553344 0.3839891254901886 -0.252214252948761 -0.036303214728832245 -0.0015485771000385284 0 0 0 0
1563275428 0.37179726362228394 -0.30978453159332275 -0.034197185188531876 0.003290358930826187 0 0 0 0
1566997512 0.35512596368789673 -0.36398768424987793 -0.03171556815505028 0.007410697638988495 0 0 0 0
1570719596 0.3263198137283325 -0.4183976948261261 -0.028833730146288872 0.010795586742460728 0 0 0 0
1574441680 0.2914426624774933 -0.4649397134780884 -0.02578861452639103 0.013103723526000977 0 0 0 0
1578163764 0.2500563859939575 -0.5083087086677551 -0.023309245705604553 0.014803647063672543 0 0 0 0
1581885848 0.1992553472518921 -0.5413619875907898 -0.021122774109244347 0.016592372208833694 0 0 0 0
1585607932 0.14525958895683289 -0.5689703226089478 -0.018671425059437752 0.018439054489135742 0 0 0 0
1589330016 0.08422331511974335 -0.590233564376831 -0.016159720718860626 0.020041700452566147 0 0 0 0
1593052100 0.025333791971206665 -0.5991455316543579 -0.013864179141819477 0.021230369806289673 0 0 0 0
1596774184 -0.03651319444179535 -0.6021263599395752 -0.011681560426950455 0.02260724827647209 0 0 0 0
1600496268 -0.098943330347538 -0.5946016311645508 -0.009254910051822662 0.024098511785268784 0 0 0 0
1604218352 -0.15880756080150604 -0.5781424045562744 -0.006211055442690849 0.0256167221814394 0 0 0 0
1607940436 -0.21614663302898407 -0.5519019961357117 -0.002554108388721943 0.026690544560551643 0 0 0 0
1611662520 -0.2713283896446228 -0.5183454751968384 0.0012626536190509796 0.02713939920067787 0 0 0 0
1615384604 -0.31954750418663025 -0.47593915462493896 0.005366377532482147 0.026953475549817085 0 0 0 0
1619106688 -0.361885130405426 -0.4270135164260864 0.009455704130232334 0.02639959752559662 0 0 0 0
1622828772 -0.39819198846817017 -0.37191393971443176 0.014142300002276897 0.025091756135225296 0 0 0 0
1626550856 -0.423892617225647 -0.3154088258743286 0.018704667687416077 0.02283380925655365 0 0 0 0
1630272940 -0.4451230764389038 -0.25074413418769836 0.02288043685257435 0.019063586369156837 0 0 0 0
1633995024 -0.4584405720233917 -0.18413199484348297 0.026255514472723007 0.014294706284999847 0 0 0 0
1637717108 -0.46051254868507385 -0.11796760559082031 0.02861439622938633 0.008913653902709484 0 0 0 0
1641439192 -0.45425188541412354 -0.048662081360816956 0.029330985620617867 0.0028794733807444572 0 0 0 0
1645161276 -0.4373926818370819 0.02085767686367035 0.02834591642022133 -0.002845565788447857 0 0 0 0
1648883360 -0.40997040271759033 0.08800570666790009 0.02678189054131508 -0.007605435326695442 0 0 0 0
1652605444 -0.37065818905830383 0.15223301947116852 0.0240471214056015 -0.012322110123932362 0 0 0 0
1656327528 -0.32253363728523254 0.20737668871879578 0.020776666700839996 -0.01594708487391472 0 0 0 0
1660049612 -0.2656295597553253 0.2589517831802368 0.016751835122704506 -0.0188746377825737 0 0 0 0
1663771696 -0.20029041171073914 0.30004793405532837 0.012331780977547169 -0.0210405383259058 0 0 0 0
1667493780 -0.1314491629600525 0.3313533663749695 0.008005672134459019 -0.022307679057121277 0 0 0 0
1671215864 -0.05444638431072235 0.35358497500419617 0.003237818367779255 -0.022715691477060318 0 0 0 0
1674937948 0.026019759476184845 0.36477553844451904 -0.0019218306988477707 -0.021450096741318703 0 0 0 0
1678660032 0.10544900596141815 0.36242949962615967 -0.005597238428890705 -0.018970541656017303 0 0 0 0
1682382116 0.18738088011741638 0.34553053975105286 -0.008361395448446274 -0.015977520495653152 0 0 0 0
1686104200 0.26615166664123535 0.31578460335731506 -0.010041049681603909 -0.01291440799832344 0 0 0 0
1689826284 0.33814704418182373 0.27505412697792053 -0.010899587534368038 -0.009942635893821716 0 0 0 0
1693548368 0.4027908146381378 0.2212933897972107 -0.01110794860869646 -0.007323538884520531 0 0 0 0
1697270452 0.4574940800666809 0.15684053301811218 -0.010837435722351074 -0.004842174239456654 0 0 0 0
1700992536 0.5012590289115906 0.08910778164863586 -0.010088835842907429 -0.002968471497297287 0 0 0 0
1704714620 0.5341457724571228 0.0113181471824646 -0.00911678932607174 -0.0014991005882620811 0 0 0 0
1708436704 0.5531846284866333 -0.06582821905612946 -0.008221190422773361 -0.00035420339554548264 0 0 0 0
1712158788 0.5592332482337952 -0.1506957709789276 -0.00724357645958662 0.0004772832617163658 0 0 0 0
1715880872 0.5535098314285278 -0.2255690097808838 -0.006251624785363674 0.000963565893471241 0 0 0 0
1719602956 0.5328502655029297 -0.30486541986465454 -0.0051750680431723595 0.0013232557103037834 0 0 0 0
1723325040 0.5030351281166077 -0.37813800573349 -0.004173446446657181 0.0011307792738080025 0 0 0 0
1727047124 0.46294093132019043 -0.44335275888442993 -0.0037202397361397743 0.0005913740023970604 0 0 0 0
1730769208 0.41305768489837646 -0.5007034540176392 -0.003668198361992836 0.00017044786363840103 0 0 0 0
1734491292 0.3558829128742218 -0.5496508479118347 -0.003681724891066551 4.254933446645737e-05 0 0 0 0
1738213376 0.29260098934173584 -0.5880917310714722 -0.0038917753845453262 6.575882434844971e-05 0 0 0 0
1741935460 0.22175286710262299 -0.6183712482452393 -0.0039829108864068985 -0.00013741757720708847 0 0 0 0
1745657544 0.15201233327388763 -0.6340904235839844 -0.004403243772685528 -0.00024608615785837173 0 0 0 0
1749379628 0.08423884212970734 -0.6401290893554688 -0.004982267506420612 -7.838383316993713e-05 0 0 0 0
1753101712 0.011366277933120728 -0.6346351504325867 -0.005491516552865505 0.0005089016631245613 0 0 0 0
1756823796 -0.05442202836275101 -0.6184291839599609 -0.00576433539390564 0.0010060975328087807 0 0 0 0
1760545880 -0.11411736905574799 -0.5950220823287964 -0.006099565885961056 0.0015645595267415047 0 0 0 0
1764267964 -0.1751079559326172 -0.5599929690361023 -0.006099758669734001 0.0021598711609840393 0 0 0 0
1767990048 -0.2199132740497589 -0.5226107835769653 -0.006371869705617428 0.0024869656190276146 0 0 0 0
1771712132 -0.263399600982666 -0.474690318107605 -0.006890618242323399 0.002994953654706478 0 0 0 0
1775434216 -0.29951584339141846 -0.42386624217033386 -0.0077814143151044846 0.0039480580016970634 0 0 0 0
1779156300 -0.3262593150138855 -0.3677270710468292 -0.008407803252339363 0.005812733434140682 0 0 0 0
1782878384 -0.34537824988365173 -0.3123375177383423 -0.00865581352263689 0.007604486308991909 0 0 0 0
1786600468 -0.35575366020202637 -0.255301296710968 -0.008582072332501411 0.009903354570269585 0 0 0 0
1790322552 -0.3592928647994995 -0.1951756626367569 -0.00775543786585331 0.012728208675980568 0 0 0 0
1794044636 -0.3530810475349426 -0.1377854347229004 -0.00609568040817976 0.015657979995012283 0 0 0 0
1797766720 -0.3391171991825104 -0.08112487196922302 -0.003596784546971321 0.018142960965633392 0 0 0 0
1801488804 -0.31801867485046387 -0.027861297130584717 -0.0001864442601799965 0.020561659708619118 0 0 0 0
1805210888 -0.2887377142906189 0.02303611859679222 0.004271514713764191 0.0222237017005682 0 0 0 0
1808932972 -0.2518795430660248 0.06747964024543762 0.00962193962186575 0.022912921383976936 0 0 0 0
1812655056 -0.20724494755268097 0.1071089580655098 0.015176218003034592 0.02159968577325344 0 0 0 0
1816377140 -0.15606288611888885 0.13796766102313995 0.020654914900660515 0.01906449906527996 0 0 0 0
1820099224 -0.10246200859546661 0.15823253989219666 0.025805464014410973 0.015046625398099422 0 0 0 0
1823821308 -0.04597623273730278 0.16897402703762054 0.029909946024417877 0.00900932215154171 0 0 0 0
1827543392 0.010143529623746872 0.170087993144989 0.031649839133024216 0.002077162265777588 0 0 0 0
1831265476 0.0626373365521431 0.16172635555267334 0.03150137886404991 -0.0047597819939255714 0 0 0 0
1834987560 0.11161915957927704 0.14505676925182343 0.030292700976133347 -0.010690566152334213 0 0 0 0
1838709644 0.15690547227859497 0.12127074599266052 0.027607552707195282 -0.01665542833507061 0 0 0 0
1842431728 0.19574907422065735 0.09323690086603165 0.02428903430700302 -0.02163737453520298 0 0 0 0
1846153812 0.2275620996952057 0.05992621183395386 0.01989774964749813 -0.025910822674632072 0 0 0 0
1849875896 0.2534240782260895 0.022763486951589584 0.01466505229473114 -0.029161429032683372 0 0 0 0
1853597980 0.27360835671424866 -0.015321120619773865 0.008980216458439827 -0.031373634934425354 0 0 0 0
1857320064 0.28707602620124817 -0.05726148188114166 0.003608829341828823 -0.032209280878305435 0 0 0 0
1861042148 0.29399818181991577 -0.09689252078533173 -0.0013152062892913818 -0.03294532373547554 0 0 0 0
1864764232 0.2929299473762512 -0.13753175735473633 -0.007359554059803486 -0.033319346606731415 0 0 0 0
1868486316 0.28542253375053406 -0.17663836479187012 -0.014238596893846989 -0.031789544969797134 0 0 0 0
1872208400 0.2757354974746704 -0.20967456698417664 -0.019757254049181938 -0.028675395995378494 0 0 0 0
1875930484 0.25869226455688477 -0.24323514103889465 -0.024489769712090492 -0.024165157228708267 0 0 0 0
1879652568 0.23781128227710724 -0.2726425528526306 -0.02772478200495243 -0.01936635561287403 0 0 0 0
1883374652 0.21104639768600464 -0.2988925874233246 -0.03020528145134449 -0.014979238621890545 0 0 0 0
1887096736 0.18449226021766663 -0.317912220954895 -0.032641660422086716 -0.010525599122047424 0 0 0 0
1890818820 0.15102171897888184 -0.3332344591617584 -0.034470949321985245 -0.004861578345298767 0 0 0 0
1894540904 0.11729855835437775 -0.341900110244751 -0.035559043288230896 0.0007169228047132492 0 0 0 0
1898262988 0.08678828179836273 -0.3432142734527588 -0.03585438057780266 0.006791749037802219 0 0 0 0
1901985072 0.05171174183487892 -0.34029385447502136 -0.03485117852687836 0.013530220836400986 0 0 0 0
1905707156 0.022589683532714844 -0.3290518820285797 -0.032387956976890564 0.019600477069616318 0 0 0 0
1909429240 -0.004850136116147041 -0.31664517521858215 -0.02912701666355133 0.025472965091466904 0 0 0 0
1913151324 -0.027720116078853607 -0.2985643744468689 -0.02457680180668831 0.03084847703576088 0 0 0 0
1916873408 -0.04786386713385582 -0.277182012796402 -0.018570855259895325 0.035887233912944794 0 0 0 0
1920595492 -0.0657179206609726 -0.2527991235256195 -0.011388598941266537 0.03947289660573006 0 0 0 0
1924317576 -0.07503009587526321 -0.2266482710838318 -0.0036753742024302483 0.04179062321782112 0 0 0 0
1928039660 -0.08147892355918884 -0.19981829822063446 0.005361372604966164 0.042042940855026245 0 0 0 0
1931761744 -0.08353175222873688 -0.1737503707408905 0.01438300684094429 0.039770033210515976 0 0 0 0
1935483828 -0.08087076246738434 -0.14750729501247406 0.021649453788995743 0.03507743030786514 0 0 0 0
1939205912 -0.07449190318584442 -0.12163818627595901 0.02684280090034008 0.029170697554945946 0 0 0 0
1942927996 -0.06405751407146454 -0.09601323306560516 0.030705155804753304 0.023095102980732918 0 0 0 0
1946650080 -0.04936476796865463 -0.07282904535531998 0.03307812660932541 0.017668526619672775 0 0 0 0
1950372164 -0.029056228697299957 -0.05197732523083687 0.03508588299155235 0.012322565540671349 0 0 0 0
1954094248 -0.005303870886564255 -0.03605424985289574 0.03734946995973587 0.006287772208452225 0 0 0 0
1957816332 0.021712101995944977 -0.02526591159403324 0.0384678915143013 -0.00014601461589336395 0 0 0 0
1961538416 0.04945216327905655 -0.02029680646955967 0.037848711013793945 -0.008363297209143639 0 0 0 0
1965260500 0.07761730253696442 -0.020642250776290894 0.035184428095817566 -0.015363983809947968 0 0 0 0
1968982584 0.10426552593708038 -0.026370227336883545 0.03137693554162979 -0.021394267678260803 0 0 0 0
1972704668 0.1297459602355957 -0.037197429686784744 0.026833685114979744 -0.026541249826550484 0 0 0 0
1976426752 0.15242210030555725 -0.049914419651031494 0.021455779671669006 -0.031125972047448158 0 0 0 0
1980148836 0.17229825258255005 -0.06890146434307098 0.015522152185440063 -0.03477261960506439 0 0 0 0
1983870920 0.1899515986442566 -0.090608611702919 0.008371186442673206 -0.03677135705947876 0 0 0 0
1987593004 0.20224431157112122 -0.11578013002872467 0.0010001063346862793 -0.037718627601861954 0 0 0 0
1991315088 0.20809808373451233 -0.14259953796863556 -0.006239563226699829 -0.036783427000045776 0 0 0 0
1995037172 0.21012891829013824 -0.1681106686592102 -0.01335887424647808 -0.03449753671884537 0 0 0 0
1998759256 0.20485413074493408 -0.1962088644504547 -0.019216438755393028 -0.030009232461452484 0 0 0 0
2002481340 0.19670891761779785 -0.22086162865161896 -0.023538075387477875 -0.02560621313750744 0 0 0 0
2006203424 0.18381445109844208 -0.24222727119922638 -0.0266376081854105 -0.02095179259777069 0 0 0 0
2009925508 0.1674315631389618 -0.26108023524284363 -0.029439328238368034 -0.016941474750638008 0 0 0 0
2013647592 0.14940068125724792 -0.2764935791492462 -0.03187566250562668 -0.012321647256612778 0 0 0 0
2017369676 0.12649571895599365 -0.2922589182853699 -0.03428158164024353 -0.006914208643138409 0 0 0 0
2021091760 0.10658170282840729 -0.3003281354904175 -0.03605017438530922 -0.0007875878363847733 0 0 0 0
2024813844 0.0811178982257843 -0.3078479468822479 -0.03592051938176155 0.006456322968006134 0 0 0 0
2028535928 0.05545622855424881 -0.31054550409317017 -0.03430270403623581 0.013883587904274464 0 0 0 0
2032258012 0.02779679000377655 -0.3081868886947632 -0.030554763972759247 0.020122239366173744 0 0 0 0
2035980096 0.0024624094367027283 -0.3009829521179199 -0.025756794959306717 0.025099005550146103 0 0 0 0
2039702180 -0.023518428206443787 -0.29052385687828064 -0.020147960633039474 0.02877224236726761 0 0 0 0
2043424264 -0.046771176159381866 -0.27386340498924255 -0.014508605934679508 0.031219447031617165 0 0 0 0
2047146348 -0.06860201060771942 -0.2543322443962097 -0.008515466935932636 0.032598938792943954 0 0 0 0
2050868432 -0.0857379287481308 -0.23192070424556732 -0.003227541223168373 0.03275085613131523 0 0 0 0
2054590516 -0.1004268229007721 -0.20530018210411072 0.001988369971513748 0.032560236752033234 0 0 0 0
2058312600 -0.11061607301235199 -0.17586256563663483 0.007135347463190556 0.03136763721704483 0 0 0 0
2062034684 -0.11432941257953644 -0.14591315388679504 0.011683381162583828 0.029902074486017227 0 0 0 0
2065756768 -0.11443698406219482 -0.11423562467098236 0.01661093533039093 0.027075309306383133 0 0 0 0
2069478852 -0.11104372143745422 -0.08126288652420044 0.020932961255311966 0.024193529039621353 0 0 0 0
2073200936 -0.10051970183849335 -0.047046955674886703 0.024583088234066963 0.019701354205608368 0 0 0 0
2076923020 -0.08276259899139404 -0.016722150146961212 0.02691398561000824 0.014838185161352158 0 0 0 0
2080645104 -0.06016695871949196 0.011050188913941383 0.02826753631234169 0.009970865212380886 0 0 0 0
2084367188 -0.03256972134113312 0.03448193520307541 0.02878797985613346 0.005888412706553936 0 0 0 0
2088089272 -0.0013848375529050827 0.051790185272693634 0.02900354191660881 0.0018699942156672478 0 0 0 0
2091811356 0.031714316457509995 0.06429702788591385 0.029780007898807526 -0.0018556639552116394 0 0 0 0
2095533440 0.06765465438365936 0.0695103257894516 0.029946496710181236 -0.006962217390537262 0 0 0 0
2099255524 0.10224728286266327 0.07074552029371262 0.029105952009558678 -0.012357558123767376 0 0 0 0
2102977608 0.13729172945022583 0.06595256179571152 0.026897504925727844 -0.018079090863466263 0 0 0 0
2106699692 0.17037686705589294 0.05530901253223419 0.022959856316447258 -0.0235038623213768 0 0 0 0
2110421776 0.20228925347328186 0.04028480127453804 0.017993154004216194 -0.027344372123479843 0 0 0 0
2114143860 0.23079323768615723 0.019330944865942 0.01221438217908144 -0.03037847764790058 0 0 0 0
2117865944 0.2556596100330353 -0.006924077868461609 0.006365997716784477 -0.032112911343574524 0 0 0 0
2121588028 0.2746366858482361 -0.03388335555791855 -1.714564859867096e-05 -0.03281913325190544 0 0 0 0
2125310112 0.2896720767021179 -0.06409826874732971 -0.0068789292126894 -0.032098621129989624 0 0 0 0
2129032196 0.2994360327720642 -0.09785211831331253 -0.013074947521090508 -0.029471663758158684 0 0 0 0
2132754280 0.30541619658470154 -0.1299738585948944 -0.01829385571181774 -0.025273697450757027 0 0 0 0
2136476364 0.3037109673023224 -0.16558325290679932 -0.02219461463391781 -0.02043340913951397 0 0 0 0
2140198448 0.2970578968524933 -0.19764859974384308 -0.024285202845931053 -0.015040522441267967 0 0 0 0
2143920532 0.28494957089424133 -0.22749382257461548 -0.025175398215651512 -0.01040518656373024 0 0 0 0
2147642616 0.2688435912132263 -0.2559325695037842 -0.02545223757624626 -0.005917882546782494 0 0 0 0
2151364700 0.24902570247650146 -0.27979856729507446 -0.02499379776418209 -0.0017409967258572578 0 0 0 0
2155086784 0.22542041540145874 -0.30103233456611633 -0.024378158152103424 0.0017399303615093231 0 0 0 0
2158808868 0.19853466749191284 -0.3177475333213806 -0.023652173578739166 0.004925085231661797 0 0 0 0
2162530952 0.16972346603870392 -0.32988378405570984 -0.022383665665984154 0.008513753302395344 0 0 0 0
2166253036 0.14098234474658966 -0.33610641956329346 -0.020468365401029587 0.011377479881048203 0 0 0 0
2169975120 0.10757987946271896 -0.33980831503868103 -0.01867121458053589 0.014151042327284813 0 0 0 0
2173697204 0.08205629885196686 -0.3372969925403595 -0.01691834256052971 0.016946449875831604 0 0 0 0
2177419288 0.052853673696517944 -0.3323829472064972 -0.014183485880494118 0.019813738763332367 0 0 0 0
2181141372 0.027172163128852844 -0.3215884864330292 -0.01056588627398014 0.02204127609729767 0 0 0 0
2184863456 0.0009591430425643921 -0.3080170154571533 -0.006792306900024414 0.023614272475242615 0 0 0 0
2188585540 -0.024543218314647675 -0.28920772671699524 -0.002543439157307148 0.02453307993710041 0 0 0 0
2192307624 -0.04346410930156708 -0.2666079103946686 0.00154169462621212 0.02487080730497837 0 0 0 0
2196029708 -0.0602075532078743 -0.24134230613708496 0.006365763023495674 0.02450259029865265 0 0 0 0
2199751792 -0.07113873958587646 -0.21449071168899536 0.011188876815140247 0.022879362106323242 0 0 0 0
2203473876 -0.07968223094940186 -0.18442058563232422 0.015535167418420315 0.01967676170170307 0 0 0 0
2207195960 -0.0819578766822815 -0.15554389357566833 0.018780307844281197 0.01609201915562153 0 0 0 0
2210918044 -0.07779167592525482 -0.12656036019325256 0.02097593992948532 0.011679382994771004 0 0 0 0
2214640128 -0.07192257046699524 -0.09693926572799683 0.022188348695635796 0.007210514508187771 0 0 0 0
2218362212 -0.06035993620753288 -0.06964221596717834 0.02213272824883461 0.002507515251636505 0 0 0 0
2222084296 -0.04270683228969574 -0.045593395829200745 0.02102521061897278 -0.0015076464042067528 0 0 0 0
2225806380 -0.02273719571530819 -0.02328840270638466 0.019590279087424278 -0.004698040895164013 0 0 0 0
2229528464 0.0020436877384781837 -0.0056164925917983055 0.018041042611002922 -0.0074150338768959045 0 0 0 0
2233250548 0.029384054243564606 0.0072965724393725395 0.016140619292855263 -0.010111557319760323 0 0 0 0
2236972632 0.058257460594177246 0.014314642176032066 0.014169378206133842 -0.01249312050640583 0 0 0 0
2240694716 0.08786842972040176 0.016354596242308617 0.011408125050365925 -0.014772658236324787 0 0 0 0
2244416800 0.11617307364940643 0.010525763034820557 0.008338948711752892 -0.01626543514430523 0 0 0 0
2248138884 0.1418478637933731 0.0013702698051929474 0.005160778760910034 -0.017070462927222252 0 0 0 0
2251860968 0.1656769961118698 -0.008590169250965118 0.0018889270722866058 -0.017462141811847687 0 0 0 0
2255583052 0.18664821982383728 -0.023088231682777405 -0.0012993952259421349 -0.017082933336496353 0 0 0 0
2259305136 0.2038181573152542 -0.04578171670436859 -0.004143286496400833 -0.016061875969171524 0 0 0 0
2263027220 0.21877557039260864 -0.06276124715805054 -0.006210314109921455 -0.01494213379919529 0 0 0 0
2266749304 0.22821301221847534 -0.08465079963207245 -0.008428482338786125 -0.013371290639042854 0 0 0 0
2270471388 0.23283059895038605 -0.11364375054836273 -0.01066737249493599 -0.011461249552667141 0 0 0 0
2274193472 0.2374427318572998 -0.13462042808532715 -0.012071510776877403 -0.009489345364272594 0 0 0 0
2277915556 0.2313506156206131 -0.1632377654314041 -0.013203928247094154 -0.007167791947722435 0 0 0 0
2281637640 0.22441503405570984 -0.1870645135641098 -0.013708112761378288 -0.005036291666328907 0 0 0 0
2285359724 0.2181602120399475 -0.20276141166687012 -0.013995278626680374 -0.003183129243552685 0 0 0 0
2289081808 0.19706200063228607 -0.22461649775505066 -0.014148148708045483 -0.0008727163076400757 0 0 0 0
2292803892 0.17936387658119202 -0.2404448688030243 -0.013761009089648724 0.0013001468032598495 0 0 0 0
2296525976 0.16156485676765442 -0.24871563911437988 -0.013163410127162933 0.003131435252726078 0 0 0 0
2300248060 0.14107543230056763 -0.2568597197532654 -0.012542817741632462 0.004947454668581486 0 0 0 0
2303970144 0.11941938102245331 -0.264149934053421 -0.011262034997344017 0.006630920805037022 0 0 0 0
2307692228 0.10064668953418732 -0.26100099086761475 -0.010113948956131935 0.008206467144191265 0 0 0 0
2311414312 0.06802873313426971 -0.2622411251068115 -0.008238389156758785 0.009714014828205109 0 0 0 0
2315136396 0.05015571042895317 -0.25440308451652527 -0.006277164444327354 0.010172856971621513 0 0 0 0
2318858480 0.03319897502660751 -0.2448427975177765 -0.004630743525922298 0.00991178210824728 0 0 0 0
2322580564 0.00972999632358551 -0.23068693280220032 -0.002944481559097767 0.009825022891163826 0 0 0 0
2326302648 -0.008019132539629936 -0.21179139614105225 -0.0017857067286968231 0.009495822712779045 0 0 0 0
2330024732 -0.018137700855731964 -0.19230031967163086 -0.0007673101499676704 0.009005357511341572 0 0 0 0
2333746816 -0.030791208148002625 -0.16858479380607605 -9.723939001560211e-06 0.008648602291941643 0 0 0 0
2337468900 -0.03442873805761337 -0.1436978131532669 0.0010389424860477448 0.008268236182630062 0 0 0 0
2341190984 -0.035820089280605316 -0.11751382052898407 0.0019270963966846466 0.007709444500505924 0 0 0 0
2344913068 -0.03203265368938446 -0.09023240208625793 0.0025729071348905563 0.0068555185571312904 0 0 0 0
2348635152 -0.024089952930808067 -0.06384796649217606 0.003150687552988529 0.005838476121425629 0 0 0 0
2352357236 -0.010749361477792263 -0.04033608362078667 0.003282364457845688 0.005121709778904915 0 0 0 0
2356079320 0.007570518180727959 -0.019418761134147644 0.0030804648995399475 0.004381249658763409 0 0 0 0
2359801404 0.029032476246356964 -0.0012820539996027946 0.0029905810952186584 0.004040911793708801 0 0 0 0
2363523488 0.05341127887368202 0.013023651205003262 0.002897045575082302 0.0036758463829755783 0 0 0 0
2367245572 0.08080056309700012 0.02286110818386078 0.0030018361285328865 0.003305305726826191 0 0 0 0
2370967656 0.10898385941982269 0.02649771235883236 0.002908487804234028 0.0031159669160842896 0 0 0 0
2374689740 0.13795965909957886 0.02650252729654312 0.0028270892798900604 0.002947479486465454 0 0 0 0
2378411824 0.16625380516052246 0.019307471811771393 0.002956829033792019 0.0027852756902575493 0 0 0 0
2382133908 0.19141283631324768 0.01015549898147583 0.0030654044821858406 0.002497287467122078 0 0 0 0
2385855992 0.21626776456832886 -0.00532793253660202 0.00306656863540411 0.0021566515788435936 0 0 0 0
2389578076 0.23762373626232147 -0.022511549293994904 0.0028509562835097313 0.001930687576532364 0 0 0 0
2393300160 0.254971981048584 -0.04256316274404526 0.0023758932948112488 0.002035532146692276 0 0 0 0
2397022244 0.26921510696411133 -0.0656711757183075 0.002459992654621601 0.002828526310622692 0 0 0 0
2400744328 0.2795167863368988 -0.0946681797504425 0.003105216659605503 0.0033704135566949844 0 0 0 0
2404466412 0.2860162854194641 -0.11920039355754852 0.004527423530817032 0.0036135902628302574 0 0 0 0
2408188496 0.2880244255065918 -0.14738351106643677 0.005846370942890644 0.002865474671125412 0 0 0 0
2411910580 0.28677108883857727 -0.1717044860124588 0.006920461542904377 0.00157878827303648 0 0 0 0
2415632664 0.28063517808914185 -0.20096533000469208 0.0074733542278409 0.00026908982545137405 0 0 0 0
2419354748 0.2683909237384796 -0.22616976499557495 0.007699939422309399 -0.0014421576634049416 0 0 0 0
2423076832 0.2560109794139862 -0.24759386479854584 0.007688089273869991 -0.002945356070995331 0 0 0 0
2426798916 0.2346738576889038 -0.2721613943576813 0.006902012974023819 -0.004528099671006203 0 0 0 0
2430521000 0.21391978859901428 -0.28987622261047363 0.005902523174881935 -0.0057075731456279755 0 0 0 0
2434243084 0.1926928162574768 -0.30411794781684875 0.0048637790605425835 -0.006448682397603989 0 0 0 0
2437965168 0.16745291650295258 -0.31502825021743774 0.00422288104891777 -0.007082132622599602 0 0 0 0
2441687252 0.1418781727552414 -0.32367339730262756 0.003097817301750183 -0.007727845571935177 0 0 0 0
2445409336 0.11161814630031586 -0.3287608027458191 0.002168084494769573 -0.00817224569618702 0 0 0 0
2449131420 0.08652292937040329 -0.3256293535232544 0.0012328233569860458 -0.008870439603924751 0 0 0 0
2452853504 0.05691058188676834 -0.3219955265522003 1.4244578778743744e-05 -0.009278441779315472 0 0 0 0
2456575588 0.027328602969646454 -0.3116796612739563 -0.0011841170489788055 -0.009549110196530819 0 0 0 0
2460297672 0.0036940276622772217 -0.29737603664398193 -0.002616521902382374 -0.009951625019311905 0 0 0 0
2464019756 -0.020370565354824066 -0.2809358835220337 -0.004317981190979481 -0.010120284743607044 0 0 0 0
2467741840 -0.039105985313653946 -0.26027747988700867 -0.006139218807220459 -0.00993853248655796 0 0 0 0
2471463924 -0.0549994632601738 -0.23823025822639465 -0.008137967437505722 -0.00918994378298521 0 0 0 0
2475186008 -0.06912222504615784 -0.2145814299583435 -0.00979391299188137 -0.00838299747556448 0 0 0 0
2478908092 -0.0786861777305603 -0.18659883737564087 -0.011642318218946457 -0.007089119404554367 0 0 0 0
2482630176 -0.08625142276287079 -0.15809650719165802 -0.013319514691829681 -0.005145663395524025 0 0 0 0
2486352260 -0.08713564276695251 -0.12819290161132812 -0.014676311053335667 -0.0028545353561639786 0 0 0 0
2490074344 -0.08464580029249191 -0.09867044538259506 -0.015644988045096397 -0.0005066953599452972 0 0 0 0
2493796428 -0.07669801265001297 -0.06864073872566223 -0.01589847356081009 0.002438722178339958 0 0 0 0
2497518512 -0.06452390551567078 -0.04126105457544327 -0.015452847816050053 0.0056770676746964455 0 0 0 0
2501240596 -0.04775375500321388 -0.01487205270677805 -0.014183850027620792 0.008110081776976585 0 0 0 0
2504962680 -0.026794737204909325 0.0070401765406131744 -0.012930955737829208 0.010283121839165688 0 0 0 0
2508684764 -0.002635654993355274 0.026047486811876297 -0.011126456782221794 0.01271637063473463 0 0 0 0
2512406848 0.023850809782743454 0.041135288774967194 -0.00893760472536087 0.015028377063572407 0 0 0 0
2516128932 0.05318713188171387 0.051562581211328506 -0.006252845749258995 0.016852116212248802 0 0 0 0
2519851016 0.0838664174079895 0.05691166967153549 -0.0026645520702004433 0.01786033622920513 0 0 0 0
2523573100 0.11450988054275513 0.05620685592293739 0.0010836897417902946 0.017675358802080154 0 0 0 0
2527295184 0.14491327106952667 0.049070537090301514 0.004225951619446278 0.01694846712052822 0 0 0 0
2531017268 0.17305025458335876 0.038748979568481445 0.007254333235323429 0.015885362401604652 0 0 0 0
2534739352 0.19643014669418335 0.022229202091693878 0.010026136413216591 0.014163713902235031 0 0 0 0
2538461436 0.21721622347831726 0.0045947059988975525 0.012776766903698444 0.0118658896535635 0 0 0 0
2542183520 0.2337159961462021 -0.01562999002635479 0.014959177933633327 0.008828739635646343 0 0 0 0
2545905604 0.24645009636878967 -0.038246817886829376 0.016278555616736412 0.005018264055252075 0 0 0 0
2549627688 0.25694364309310913 -0.06163567304611206 0.016611408442258835 0.0014227628707885742 0 0 0 0
2553349772 0.261943519115448 -0.08446361124515533 0.01609206572175026 -0.002331227995455265 0 0 0 0
2557071856 0.2618078589439392 -0.10742782801389694 0.014181843027472496 -0.005731189623475075 0 0 0 0
2560793940 0.2609993815422058 -0.13062022626399994 0.01185085903853178 -0.00802898220717907 0 0 0 0
2564516024 0.256008118391037 -0.15037260949611664 0.009281414560973644 -0.009377317503094673 0 0 0 0
2568238108 0.2506629526615143 -0.16906067728996277 0.007015334442257881 -0.009975304827094078 0 0 0 0
2571960192 0.23983730375766754 -0.18813303112983704 0.005029495805501938 -0.010384198278188705 0 0 0 0
2575682276 0.2277846783399582 -0.2036186307668686 0.0033671436831355095 -0.01026492565870285 0 0 0 0
2579404360 0.2148987054824829 -0.21813461184501648 0.0017564520239830017 -0.010352103970944881 0 0 0 0
2583126444 0.201901376247406 -0.22855770587921143 0.00045461859554052353 -0.010275080800056458 0 0 0 0
2586848528 0.18736255168914795 -0.23823878169059753 -0.0010259654372930527 -0.010138088837265968 0 0 0 0
2590570612 0.17308038473129272 -0.24457833170890808 -0.0027700914070010185 -0.009780758991837502 0 0 0 0
2594292696 0.15216819941997528 -0.2530050277709961 -0.004468626342713833 -0.008792148903012276 0 0 0 0
2598014780 0.1366722732782364 -0.25499624013900757 -0.005345232784748077 -0.007822096347808838 0 0 0 0
2601736864 0.11941614001989365 -0.2560235261917114 -0.006495516747236252 -0.006638324819505215 0 0 0 0
2605458948 0.10098197311162949 -0.25281044840812683 -0.007315180264413357 -0.005098301917314529 0 0 0 0
2609181032 0.0847451239824295 -0.24628013372421265 -0.0075731296092271805 -0.00363896694034338 0 0 0 0
2612903116 0.06698519736528397 -0.2387704849243164 -0.007534290663897991 -0.002184564247727394 0 0 0 0
2616625200 0.05491241067647934 -0.22708483040332794 -0.0072405291721224785 -0.0008529070764780045 0 0 0 0
2620347284 0.044731296598911285 -0.21618148684501648 -0.006473668850958347 0.00016651209443807602 0 0 0 0
2624069368 0.03744814172387123 -0.203130304813385 -0.005517149344086647 0.0006264606490731239 0 0 0 0
2627791452 0.030062196776270866 -0.18908971548080444 -0.0050643933936953545 0.000884505920112133 0 0 0 0
2631513536 0.02754369005560875 -0.17487776279449463 -0.004830891266465187 0.0010149311274290085 0 0 0 0
2635235620 0.02755752019584179 -0.16042518615722656 -0.00487764086574316 0.0014901012182235718 0 0 0 0
2638957704 0.02761409431695938 -0.14724695682525635 -0.004466773942112923 0.001894904300570488 0 0 0 0
2642679788 0.032257117331027985 -0.1359660029411316 -0.004164782352745533 0.0021003177389502525 0 0 0 0
2646401872 0.036457303911447525 -0.12495666742324829 -0.003522546961903572 0.0026043280959129333 0 0 0 0
2650123956 0.04362327978014946 -0.11473588645458221 -0.0029189977794885635 0.002638579346239567 0 0 0 0
2653846040 0.05224477872252464 -0.10621882975101471 -0.002282976172864437 0.0022638291120529175 0 0 0 0
2657568124 0.06258240342140198 -0.10002221167087555 -0.0020740218460559845 0.0019005658105015755 0 0 0 0
2661290208 0.07454337179660797 -0.09674446284770966 -0.0026142429560422897 0.0017808843404054642 0 0 0 0
2665012292 0.0866631418466568 -0.09557753801345825 -0.00299826730042696 0.001973525620996952 0 0 0 0
2668734376 0.09406505525112152 -0.10049215704202652 -0.0029375795274972916 0.002572653815150261 0 0 0 0
2672456460 0.10497239977121353 -0.1034424751996994 -0.002752719447016716 0.003244956023991108 0 0 0 0
2676178544 0.11231490969657898 -0.10904570668935776 -0.002333437092602253 0.003738023340702057 0 0 0 0
2679900628 0.11744881421327591 -0.11660624295473099 -0.0017267102375626564 0.004433188587427139 0 0 0 0
2683622712 0.12223289906978607 -0.12424357980489731 -0.0008586971089243889 0.0050045279785990715 0 0 0 0
2687344796 0.12337194383144379 -0.13224494457244873 0.0002609267830848694 0.005141923204064369 0 0 0 0
2691066880 0.12506265938282013 -0.13996830582618713 0.0013481257483363152 0.0048384759575128555 0 0 0 0
2694788964 0.12099151313304901 -0.14998242259025574 0.002300325781106949 0.004451102577149868 0 0 0 0
2698511048 0.11829604208469391 -0.15679755806922913 0.003117459826171398 0.004169388674199581 0 0 0 0
2702233132 0.11556980758905411 -0.16438663005828857 0.004115588963031769 0.003283882513642311 0 0 0 0
2705955216 0.10873450338840485 -0.172048419713974 0.0046764397993683815 0.0020080218091607094 0 0 0 0
2709677300 0.1032177060842514 -0.17728975415229797 0.004754049703478813 0.0006892532110214233 0 0 0 0
2713399384 0.09325147420167923 -0.18339677155017853 0.0044540539383888245 -0.000432085245847702 0 0 0 0
2717121468 0.07992134243249893 -0.18598099052906036 0.004019836895167828 -0.0013433415442705154 0 0 0 0
2720843552 0.07042626291513443 -0.18737603724002838 0.0033641699701547623 -0.0019466374069452286 0 0 0 0
2724565636 0.05588266998529434 -0.18531706929206848 0.002797454595565796 -0.002362338826060295 0 0 0 0
2728287720 0.04414937645196915 -0.18100836873054504 0.0021515386179089546 -0.0023700976744294167 0 0 0 0
2732009804 0.03111010044813156 -0.1732385754585266 0.0016977377235889435 -0.0024487795308232307 0 0 0 0
2735731888 0.022040098905563354 -0.16346922516822815 0.0015768054872751236 -0.0026536276564002037 0 0 0 0
2739453972 0.016251392662525177 -0.15260761976242065 0.0012590326368808746 -0.002783658914268017 0 0 0 0
2743176056 0.005869053304195404 -0.13939176499843597 0.0008355025202035904 -0.0028368541970849037 0 0 0 0
2746898140 0.002284429967403412 -0.124790720641613 0.0007101567462086678 -0.002964479848742485 0 0 0 0
2750620224 -0.0002872869372367859 -0.1091650053858757 0.00048746634274721146 -0.003061225637793541 0 0 0 0
2754342308 0.0005628224462270737 -0.09314506500959396 0.000141083262860775 -0.0032861288636922836 0 0 0 0
2758064392 0.003467022441327572 -0.07757285237312317 -0.0004936140030622482 -0.0035414500162005424 0 0 0 0
2761786476 0.0097267497330904 -0.06134163588285446 -0.0010770643129944801 -0.003543522208929062 0 0 0 0
2765508560 0.018196409568190575 -0.045374199748039246 -0.0018123993650078773 -0.003109527751803398 0 0 0 0
2769230644 0.030265582725405693 -0.030716311186552048 -0.002269294112920761 -0.0025351447984576225 0 0 0 0
2772952728 0.0445367656648159 -0.019223913550376892 -0.0023428648710250854 -0.0018834816291928291 0 0 0 0
2776674812 0.06124491989612579 -0.009607832878828049 -0.0022647306323051453 -0.0016736416146159172 0 0 0 0
2780396896 0.07970989495515823 -0.0023769140243530273 -0.002351241186261177 -0.0015772245824337006 0 0 0 0
2784118980 0.09852869063615799 0.0012103524059057236 -0.0025793397799134254 -0.0013376353308558464 0 0 0 0
2787841064 0.11834602057933807 0.0029197633266448975 -0.0027936650440096855 -0.0005957698449492455 0 0 0 0
2791563148 0.13896970450878143 0.001894129440188408 -0.0026951078325510025 -5.673710256814957e-05 0 0 0 0
2795285232 0.16014079749584198 -0.0037868861109018326 -0.0023460928350687027 0.00047484785318374634 0 0 0 0
2799007316 0.18055462837219238 -0.014233395457267761 -0.001676495186984539 0.0008267303928732872 0 0 0 0
2802729400 0.19955575466156006 -0.026202112436294556 -0.00109200831502676 0.0006551332771778107 0 0 0 0
2806451484 0.21592065691947937 -0.04255211353302002 -0.000995027832686901 0.00030520185828208923 0 0 0 0
2810173568 0.2295556217432022 -0.05933433771133423 -0.0011845454573631287 0.00023886654525995255 0 0 0 0
2813895652 0.24104559421539307 -0.07907026261091232 -0.001231490634381771 0.00048093125224113464 0 0 0 0
2817617736 0.2481311857700348 -0.10355842113494873 -0.0010052509605884552 0.0008215103298425674 0 0 0 0
2821339820 0.2517735958099365 -0.1260058432817459 -0.0006520301103591919 0.0007502427324652672 0 0 0 0
2825061904 0.25445374846458435 -0.1473015546798706 -0.00030684471130371094 0.0006159897893667221 0 0 0 0
2828783988 0.2513558566570282 -0.16951632499694824 -0.00016538146883249283 0.0006284061819314957 0 0 0 0
2832506072 0.24488656222820282 -0.19318538904190063 -9.786803275346756e-05 0.00044489093124866486 0 0 0 0
2836228156 0.2360663264989853 -0.2158334106206894 -9.912718087434769e-05 0.0003775032237172127 0 0 0 0
2839950240 0.22542056441307068 -0.2353469282388687 1.759640872478485e-05 0.00028722919523715973 0 0 0 0
2843672324 0.21182090044021606 -0.2529270350933075 5.444511771202087e-06 0.0002282140776515007 0 0 0 0
2847394408 0.19569194316864014 -0.2702000141143799 -2.3057684302330017e-05 0.0002261381596326828 0 0 0 0
2851116492 0.17618584632873535 -0.2844626009464264 4.629511386156082e-05 0.00023926608264446259 0 0 0 0
2854838576 0.15572981536388397 -0.29731377959251404 0.00023861229419708252 0.0002600960433483124 0 0 0 0
2858560660 0.14004158973693848 -0.3054661154747009 0.0003703273832798004 -0.00010433141142129898 0 0 0 0
2862282744 0.11315380781888962 -0.31507256627082825 0.0004787920042872429 -6.830040365457535e-05 0 0 0 0
2866004828 0.08701762557029724 -0.31926828622817993 0.0007386188954114914 -0.0001410171389579773 0 0 0 0
2869726912 0.06704340875148773 -0.3199635446071625 0.0008695032447576523 -0.0003130771219730377 0 0 0 0
2873448996 0.0416778028011322 -0.3171950876712799 0.001023697666823864 -0.0006340034306049347 0 0 0 0
2877171080 0.015225660055875778 -0.3122974634170532 0.0009263968095183372 -0.0009913826361298561 0 0 0 0
2880893164 -0.00976485013961792 -0.3034690022468567 0.0006782198324799538 -0.0012361938133835793 0 0 0 0
2884615248 -0.03197311982512474 -0.291228324174881 0.00040797609835863113 -0.0013682562857866287 0 0 0 0
2888337332 -0.04986229166388512 -0.2768506705760956 0.00011449679732322693 -0.0012366874143481255 0 0 0 0
2892059416 -0.0733872726559639 -0.2583056092262268 -1.339893788099289e-05 -0.0012127608060836792 0 0 0 0
2895781500 -0.08909580856561661 -0.2377026081085205 -0.00033590663224458694 -0.00103694386780262 0 0 0 0
2899503584 -0.10261964052915573 -0.21419326961040497 -0.0004330147057771683 -0.0008227983489632607 0 0 0 0
2903225668 -0.1148332953453064 -0.18979959189891815 -0.00033997371792793274 -0.0006409576162695885 0 0 0 0
2906947752 -0.1221480667591095 -0.1639273762702942 -0.0002671359106898308 -0.0004015229642391205 0 0 0 0
2910669836 -0.1259067803621292 -0.13562603294849396 -0.0001396751031279564 -0.00019935984164476395 0 0 0 0
2914391920 -0.12619128823280334 -0.10857593268156052 1.4981254935264587e-05 -0.00020637642592191696 0 0 0 0
2918114004 -0.12101062387228012 -0.0831913948059082 0.00011064950376749039 -0.0001417268067598343 0 0 0 0
2921836088 -0.11447619646787643 -0.05871286988258362 0.00017866678535938263 -0.0002628304064273834 0 0 0 0
2925558172 -0.1062474250793457 -0.03230506181716919 0.00028456561267375946 -0.000298413448035717 0 0 0 0
2929280256 -0.09320028871297836 -0.00963686965405941 0.00021130777895450592 -0.0002994965761899948 0 0 0 0
2933002340 -0.07664298266172409 0.012680098414421082 2.1746382117271423e-05 -0.00029038358479738235 0 0 0 0
2936724424 -0.05833909660577774 0.032188087701797485 -7.905717939138412e-05 -0.0002686828374862671 0 0 0 0
2940446508 -0.03770121559500694 0.04881647974252701 -0.00023007020354270935 -0.00011773686856031418 0 0 0 0
2944168592 -0.01452157273888588 0.063833087682724 -0.0002339715138077736 0.00011122878640890121 0 0 0 0
2947890676 0.011763930320739746 0.07533232867717743 -0.0001714807003736496 0.0005459552630782127 0 0 0 0
2951612760 0.03913579136133194 0.0831642597913742 0.0001575695350766182 0.0009546997025609016 0 0 0 0
2955334844 0.06696337461471558 0.08588983118534088 0.0007419651374220848 0.0012049628421664238 0 0 0 0
2959056928 0.09510012716054916 0.08513843268156052 0.0012192130088806152 0.0011822022497653961 0 0 0 0
2962779012 0.12230497598648071 0.0800798237323761 0.0017469124868512154 0.0012034494429826736 0 0 0 0
2966501096 0.14769268035888672 0.07151629030704498 0.0024768998846411705 0.0009670630097389221 0 0 0 0
2970223180 0.17168404161930084 0.05863255262374878 0.0030137961730360985 0.00023491587489843369 0 0 0 0
2973945264 0.19341431558132172 0.04586058482527733 0.0031141238287091255 -0.0007202047854661942 0 0 0 0
2977667348 0.21361051499843597 0.027054689824581146 0.0029119597747921944 -0.0014138100668787956 0 0 0 0
2981389432 0.23167705535888672 0.0074715688824653625 0.0025590574368834496 -0.0019100094214081764 0 0 0 0
2985111516 0.24549967050552368 -0.014254547655582428 0.00225799810141325 -0.0021443702280521393 0 0 0 0
2988833600 0.255256712436676 -0.03814473748207092 0.001696571707725525 -0.002481795847415924 0 0 0 0
2992555684 0.26402145624160767 -0.060050807893276215 0.0011557890102267265 -0.0028249286115169525 0 0 0 0
2996277768 0.26827117800712585 -0.08152082562446594 0.000585455447435379 -0.0028870897367596626 0 0 0 0
2999999852 0.270293265581131 -0.10769867897033691 9.40198078751564e-05 -0.0027631977573037148 0 0 0 0
