# HZ S RI R 50
1500000000 -0.15222401916980743 0.006558429449796677 0.07174910604953766 -0.03442230075597763 0 0 0 0
1503722084 -0.1257925182580948 0.04069431871175766 0.06321078538894653 -0.046794869005680084 0 0 0 0
1507444168 -0.09204152971506119 0.07030371576547623 0.050944454967975616 -0.05716415494680405 0 0 0 0
1511166252 -0.05383697897195816 0.09348050504922867 0.037824541330337524 -0.06390485167503357 0 0 0 0
1514888336 -0.009520094841718674 0.11000443249940872 0.023170309141278267 -0.06697018444538116 0 0 0 0
1518610420 0.0375068224966526 0.1188059151172638 0.009296920150518417 -0.06646957248449326 0 0 0 0
1522332504 0.08575816452503204 0.11900950968265533 -0.002155141904950142 -0.06337177753448486 0 0 0 0
1526054588 0.13389010727405548 0.11090709269046783 -0.01256177294999361 -0.0583709292113781 0 0 0 0
1529776672 0.1805785596370697 0.0956811010837555 -0.020418459549546242 -0.05222613364458084 0 0 0 0
1533498756 0.2256234586238861 0.07329002767801285 -0.02686682529747486 -0.045514047145843506 0 0 0 0
1537220840 0.26822948455810547 0.042725831270217896 -0.03163577988743782 -0.038228072226047516 0 0 0 0
1540942924 0.3055550158023834 0.0036527737975120544 -0.03452509641647339 -0.031293489038944244 0 0 0 0
1544665008 0.3362552225589752 -0.03918342664837837 -0.03611621633172035 -0.02488110214471817 0 0 0 0
1548387092 0.3599957823753357 -0.08965276181697845 -0.03736598789691925 -0.018751997500658035 0 0 0 0
1552109176 0.3752526044845581 -0.14109152555465698 -0.03793256729841232 -0.013063200749456882 0 0 0 0
1555831260 0.38297557830810547 -0.19657373428344727 -0.03774440661072731 -0.0069497982040047646 0 0 0 0
1559553344 0.38121527433395386 -0.25347965955734253 -0.036459825932979584 -0.0012858454138040543 0 0 0 0
1563275428 0.37156060338020325 -0.3102606236934662 -0.03435226529836655 0.003537205047905445 0 0 0 0
1566997512 0.3509616255760193 -0.36594322323799133 -0.03173132613301277 0.007553395815193653 0 0 0 0
1570719596 0.32500606775283813 -0.4162827730178833 -0.028972357511520386 0.010598268359899521 0 0 0 0
1574441680 0.28500840067863464 -0.46674227714538574 -0.02597675658762455 0.013301650062203407 0 0 0 0
1578163764 0.24611270427703857 -0.5063184499740601 -0.023611510172486305 0.015136320143938065 0 0 0 0
1581885848 0.19326403737068176 -0.5397120714187622 -0.021221447736024857 0.017155751585960388 0 0 0 0
1585607932 0.14080354571342468 -0.5663022994995117 -0.01865062490105629 0.01897197961807251 0 0 0 0
1589330016 0.08446764945983887 -0.5846577882766724 -0.01599278673529625 0.02018338069319725 0 0 0 0
1593052100 0.026884138584136963 -0.5957114696502686 -0.013653106056153774 0.021277913823723793 0 0 0 0
1596774184 -0.036746732890605927 -0.5971585512161255 -0.01178921852260828 0.022548381239175797 0 0 0 0
1600496268 -0.09453311562538147 -0.5913726687431335 -0.009682364761829376 0.024375561624765396 0 0 0 0
1604218352 -0.15470093488693237 -0.5748084187507629 -0.00618336908519268 0.02629878744482994 0 0 0 0
1607940436 -0.21511128544807434 -0.5487898588180542 -0.0019699009135365486 0.027548573911190033 0 0 0 0
1611662520 -0.26657724380493164 -0.5156983733177185 0.0023702867329120636 0.02766827680170536 0 0 0 0
1615384604 -0.3169925808906555 -0.47405731678009033 0.006866601295769215 0.026979397982358932 0 0 0 0
1619106688 -0.35637766122817993 -0.42957252264022827 0.010933073237538338 0.02580028958618641 0 0 0 0
1622828772 -0.3932322561740875 -0.37597736716270447 0.015050334855914116 0.02392057329416275 0 0 0 0
1626550856 -0.4230402410030365 -0.31830447912216187 0.019331343472003937 0.02115236222743988 0 0 0 0
1630272940 -0.4447358250617981 -0.2553812265396118 0.02278142049908638 0.017327167093753815 0 0 0 0
1633995024 -0.4595588445663452 -0.18996424973011017 0.025401975959539413 0.012716555967926979 0 0 0 0
1637717108 -0.4640289545059204 -0.11974713206291199 0.027057677507400513 0.007708408869802952 0 0 0 0
1641439192 -0.4583720862865448 -0.05185084044933319 0.027604255825281143 0.0025368966162204742 0 0 0 0
1645161276 -0.4417235255241394 0.01989680528640747 0.026979811489582062 -0.0025895610451698303 0 0 0 0
1648883360 -0.4138506352901459 0.0886867344379425 0.025490788742899895 -0.007336336188018322 0 0 0 0
1652605444 -0.3743831515312195 0.1536131203174591 0.02284270152449608 -0.011895990930497646 0 0 0 0
1656327528 -0.32491546869277954 0.21022355556488037 0.019518401473760605 -0.015277138911187649 0 0 0 0
1660049612 -0.26549211144447327 0.2610158920288086 0.015792611986398697 -0.017779149115085602 0 0 0 0
1663771696 -0.2008044421672821 0.30057966709136963 0.011788928881287575 -0.019509725272655487 0 0 0 0
1667493780 -0.13207973539829254 0.3318556547164917 0.00784172210842371 -0.020557114854454994 0 0 0 0
1671215864 -0.057234324514865875 0.3540984094142914 0.0034601138904690742 -0.020915810018777847 0 0 0 0
1674937948 0.021782161667943 0.3655467927455902 -0.0008761277422308922 -0.019793039187788963 0 0 0 0
1678660032 0.1075126975774765 0.36279889941215515 -0.00418873131275177 -0.017729846760630608 0 0 0 0
1682382116 0.1862403154373169 0.3476307988166809 -0.006452389992773533 -0.015709690749645233 0 0 0 0
1686104200 0.26495620608329773 0.3181113302707672 -0.008492936380207539 -0.01321091316640377 0 0 0 0
1689826284 0.33874383568763733 0.27454623579978943 -0.00974846538156271 -0.01048574224114418 0 0 0 0
1693548368 0.40167203545570374 0.22558118402957916 -0.010208480060100555 -0.008001720532774925 0 0 0 0
1697270452 0.4580395519733429 0.16104291379451752 -0.010137515142560005 -0.005843049846589565 0 0 0 0
1700992536 0.5021800994873047 0.09248195588588715 -0.009715650230646133 -0.0040474748238921165 0 0 0 0
1704714620 0.5346079468727112 0.01161108911037445 -0.009384511038661003 -0.0023918654769659042 0 0 0 0
1708436704 0.5539862513542175 -0.06767471134662628 -0.008750911802053452 -0.0009750491008162498 0 0 0 0
1712158788 0.5592703223228455 -0.14901180565357208 -0.007704444229602814 0.000294659286737442 0 0 0 0
1715880872 0.5555354952812195 -0.22600026428699493 -0.006523980759084225 0.0010054660961031914 0 0 0 0
1719602956 0.5361021757125854 -0.3058617115020752 -0.0053449952974915504 0.0012412779033184052 0 0 0 0
1723325040 0.5064364671707153 -0.3747539520263672 -0.004325089044868946 0.0011251410469412804 0 0 0 0
1727047124 0.46601587533950806 -0.441342830657959 -0.003720714710652828 0.0008069612085819244 0 0 0 0
1730769208 0.4167746603488922 -0.4991239607334137 -0.0035177208483219147 0.00035334285348653793 0 0 0 0
1734491292 0.3552504777908325 -0.551987886428833 -0.0035139601677656174 6.025005131959915e-05 0 0 0 0
1738213376 0.2942340672016144 -0.5909354090690613 -0.0036621978506445885 -0.000414418987929821 0 0 0 0
1741935460 0.22381769120693207 -0.6189039945602417 -0.004037912003695965 -0.0006545260548591614 0 0 0 0
1745657544 0.15810874104499817 -0.6349933743476868 -0.004627742804586887 -0.0007141651585698128 0 0 0 0
1749379628 0.08360886573791504 -0.6416471004486084 -0.005367071367800236 -0.000367077998816967 0 0 0 0
1753101712 0.010855555534362793 -0.6362496614456177 -0.005772978998720646 0.00011027324944734573 0 0 0 0
1756823796 -0.05499225854873657 -0.620604932308197 -0.006215402856469154 0.0005898475646972656 0 0 0 0
1760545880 -0.11633247137069702 -0.5954229235649109 -0.006677729077637196 0.0012400774285197258 0 0 0 0
1764267964 -0.17403006553649902 -0.5605692863464355 -0.007084151729941368 0.001964389346539974 0 0 0 0
1767990048 -0.2209823876619339 -0.5231652855873108 -0.007410632446408272 0.0028884876519441605 0 0 0 0
1771712132 -0.2665938138961792 -0.47398847341537476 -0.007761661894619465 0.003874940797686577 0 0 0 0
1775434216 -0.2999992072582245 -0.4224626123905182 -0.008177352137863636 0.004882887005805969 0 0 0 0
1779156300 -0.3282672166824341 -0.36810675263404846 -0.008525814861059189 0.006494429893791676 0 0 0 0
1782878384 -0.3459526002407074 -0.31337839365005493 -0.008690019138157368 0.00842495821416378 0 0 0 0
1786600468 -0.35602083802223206 -0.2566472291946411 -0.008388455025851727 0.010699707083404064 0 0 0 0
1790322552 -0.3597720265388489 -0.1971694678068161 -0.007315164431929588 0.013368550688028336 0 0 0 0
1794044636 -0.35525304079055786 -0.13719508051872253 -0.005664298310875893 0.015871839597821236 0 0 0 0
1797766720 -0.3408200144767761 -0.08246538043022156 -0.00356411375105381 0.01841665431857109 0 0 0 0
1801488804 -0.3199598789215088 -0.02815762162208557 -0.00035369303077459335 0.02102799341082573 0 0 0 0
1805210888 -0.2911578118801117 0.02355252206325531 0.004119770601391792 0.02317030541598797 0 0 0 0
1808932972 -0.2540031373500824 0.06915362924337387 0.01016094908118248 0.02398047037422657 0 0 0 0
1812655056 -0.20900851488113403 0.10853160917758942 0.016032615676522255 0.022426601499319077 0 0 0 0
1816377140 -0.15714465081691742 0.13885967433452606 0.02149462327361107 0.019732924178242683 0 0 0 0
1820099224 -0.10173402726650238 0.15883664786815643 0.027066335082054138 0.015211964026093483 0 0 0 0
1823821308 -0.04579026624560356 0.1688111126422882 0.0313255675137043 0.009529623202979565 0 0 0 0
1827543392 0.009070150554180145 0.1702256053686142 0.0336180254817009 0.0020214682444930077 0 0 0 0
1831265476 0.0604688823223114 0.1624077409505844 0.03401435911655426 -0.005300947465002537 0 0 0 0
1834987560 0.11027637124061584 0.1464494913816452 0.032143060117959976 -0.012929352931678295 0 0 0 0
1838709644 0.15535017848014832 0.1251453310251236 0.02900388091802597 -0.01917322725057602 0 0 0 0
1842431728 0.19569356739521027 0.09666749835014343 0.024246787652373314 -0.02462664246559143 0 0 0 0
1846153812 0.2282664179801941 0.06273919343948364 0.019061747938394547 -0.02836357243359089 0 0 0 0
1849875896 0.2544615566730499 0.026479318737983704 0.013471337966620922 -0.031002886593341827 0 0 0 0
1853597980 0.2746089696884155 -0.014077819883823395 0.007295130752027035 -0.03233494982123375 0 0 0 0
1857320064 0.2893480956554413 -0.0550239235162735 0.0019675176590681076 -0.032805535942316055 0 0 0 0
1861042148 0.2966291308403015 -0.09432290494441986 -0.002626020461320877 -0.03309061378240585 0 0 0 0
1864764232 0.29596954584121704 -0.13636422157287598 -0.008530158549547195 -0.03333613649010658 0 0 0 0
1868486316 0.28915709257125854 -0.17507922649383545 -0.014796599745750427 -0.031827278435230255 0 0 0 0
1872208400 0.27779000997543335 -0.21068120002746582 -0.020403943955898285 -0.028543643653392792 0 0 0 0
1875930484 0.2614353597164154 -0.2433149218559265 -0.025102252140641212 -0.024709364399313927 0 0 0 0
1879652568 0.23958337306976318 -0.2739154100418091 -0.02900412492454052 -0.019868534058332443 0 0 0 0
1883374652 0.21490603685379028 -0.29986295104026794 -0.03194208815693855 -0.01548806019127369 0 0 0 0
1887096736 0.18363699316978455 -0.32100632786750793 -0.034864407032728195 -0.010180122219026089 0 0 0 0
1890818820 0.15094807744026184 -0.3361141085624695 -0.03685268014669418 -0.003735113888978958 0 0 0 0
1894540904 0.11746474355459213 -0.34346744418144226 -0.03752730041742325 0.0026951832696795464 0 0 0 0
1898262988 0.08246689289808273 -0.34467095136642456 -0.037038277834653854 0.009679200127720833 0 0 0 0
1901985072 0.04893406480550766 -0.339813768863678 -0.034830108284950256 0.016712922602891922 0 0 0 0
1905707156 0.021771825850009918 -0.3311331868171692 -0.03130946680903435 0.022594062611460686 0 0 0 0
1909429240 -0.005457267165184021 -0.3153952658176422 -0.027252690866589546 0.027620024979114532 0 0 0 0
1913151324 -0.029275208711624146 -0.29772549867630005 -0.022327464073896408 0.032307207584381104 0 0 0 0
1916873408 -0.04684794694185257 -0.2774489223957062 -0.016701314598321915 0.036356668919324875 0 0 0 0
1920595492 -0.06266545504331589 -0.25374066829681396 -0.010047279298305511 0.03972257673740387 0 0 0 0
1924317576 -0.0743485614657402 -0.22808343172073364 -0.0017735706642270088 0.04163437336683273 0 0 0 0
1928039660 -0.08124265819787979 -0.20158100128173828 0.006797476671636105 0.04139351844787598 0 0 0 0
1931761744 -0.08496226370334625 -0.1752740740776062 0.015307927504181862 0.03879466652870178 0 0 0 0
1935483828 -0.08233268558979034 -0.14812807738780975 0.022314107045531273 0.03443903475999832 0 0 0 0
1939205912 -0.07739667594432831 -0.1218567043542862 0.027753520756959915 0.028544289991259575 0 0 0 0
1942927996 -0.06689925491809845 -0.09599902480840683 0.031429048627614975 0.022254930809140205 0 0 0 0
1946650080 -0.05187629163265228 -0.07197094708681107 0.03384523466229439 0.01633502170443535 0 0 0 0
1950372164 -0.0316922664642334 -0.050203341990709305 0.03548054024577141 0.010615167208015919 0 0 0 0
1954094248 -0.006873766891658306 -0.03405261039733887 0.037143271416425705 0.005119829438626766 0 0 0 0
1957816332 0.020356088876724243 -0.022396396845579147 0.0379314199090004 -0.0018441509455442429 0 0 0 0
1961538416 0.0492335706949234 -0.01641109772026539 0.037080317735672 -0.009030994959175587 0 0 0 0
1965260500 0.07848139107227325 -0.01640491932630539 0.03433842211961746 -0.016225606203079224 0 0 0 0
1968982584 0.1066579595208168 -0.02383645623922348 0.030723199248313904 -0.02185112237930298 0 0 0 0
1972704668 0.13320596516132355 -0.03452495113015175 0.02585849165916443 -0.026912538334727287 0 0 0 0
1976426752 0.1556246429681778 -0.050379518419504166 0.020582295954227448 -0.03151442110538483 0 0 0 0
1980148836 0.17581138014793396 -0.06843914836645126 0.014207519590854645 -0.034957051277160645 0 0 0 0
1983870920 0.19202269613742828 -0.09133876115083694 0.006947972811758518 -0.03690054267644882 0 0 0 0
1987593004 0.20261673629283905 -0.11761054396629333 -0.00046987179666757584 -0.03727659583091736 0 0 0 0
1991315088 0.20875796675682068 -0.14478324353694916 -0.007182931527495384 -0.03640838339924812 0 0 0 0
1995037172 0.20811420679092407 -0.17080114781856537 -0.014234634116292 -0.03355102986097336 0 0 0 0
1998759256 0.2053714394569397 -0.19624920189380646 -0.020255889743566513 -0.02950706146657467 0 0 0 0
2002481340 0.19667059183120728 -0.22179687023162842 -0.024277091026306152 -0.024515734985470772 0 0 0 0
2006203424 0.18439099192619324 -0.24398109316825867 -0.027491239830851555 -0.019689850509166718 0 0 0 0
2009925508 0.16644373536109924 -0.26316913962364197 -0.029977627098560333 -0.014919166453182697 0 0 0 0
2013647592 0.14941251277923584 -0.2791023850440979 -0.0316924974322319 -0.010164848528802395 0 0 0 0
2017369676 0.12609615921974182 -0.29364198446273804 -0.03321408852934837 -0.005061360076069832 0 0 0 0
2021091760 0.10340919345617294 -0.3032395839691162 -0.03432498127222061 0.0007651466876268387 0 0 0 0
2024813844 0.07769843935966492 -0.30881673097610474 -0.034052953124046326 0.0074590230360627174 0 0 0 0
2028535928 0.05094943195581436 -0.31035947799682617 -0.032116953283548355 0.013855641707777977 0 0 0 0
2032258012 0.025081142783164978 -0.3078276515007019 -0.0286698155105114 0.01973947137594223 0 0 0 0
2035980096 -0.00037138909101486206 -0.30141907930374146 -0.024126695469021797 0.02408844605088234 0 0 0 0
2039702180 -0.026005782186985016 -0.2896445691585541 -0.01957917958498001 0.027571046724915504 0 0 0 0
2043424264 -0.04975198954343796 -0.2719903886318207 -0.014099040068686008 0.029875876381993294 0 0 0 0
2047146348 -0.07013195008039474 -0.25224724411964417 -0.00881058070808649 0.03142134100198746 0 0 0 0
2050868432 -0.0871569961309433 -0.22839373350143433 -0.003505229949951172 0.031880155205726624 0 0 0 0
2054590516 -0.0995769128203392 -0.2019815891981125 0.0012130504474043846 0.03202228993177414 0 0 0 0
2058312600 -0.10831950604915619 -0.17338591814041138 0.006493370980024338 0.03167794272303581 0 0 0 0
2062034684 -0.11317398399114609 -0.14256176352500916 0.011950071901082993 0.0299802515655756 0 0 0 0
2065756768 -0.11348836869001389 -0.11121286451816559 0.016982218250632286 0.02729501761496067 0 0 0 0
2069478852 -0.10855680704116821 -0.08011037856340408 0.021429255604743958 0.023729752749204636 0 0 0 0
2073200936 -0.09727399051189423 -0.04934896528720856 0.02465941198170185 0.019258616492152214 0 0 0 0
2076923020 -0.0818568617105484 -0.018520504236221313 0.026653803884983063 0.014075241051614285 0 0 0 0
2080645104 -0.06033768504858017 0.009352089837193489 0.027764320373535156 0.0096431327983737 0 0 0 0
2084367188 -0.034307681024074554 0.03269387036561966 0.028442971408367157 0.005716544575989246 0 0 0 0
2088089272 -0.003295445814728737 0.05206959694623947 0.028498904779553413 0.00202835351228714 0 0 0 0
2091811356 0.030613113194704056 0.06496898084878922 0.029078789055347443 -0.0020344462245702744 0 0 0 0
2095533440 0.06635142862796783 0.07212838530540466 0.029412373900413513 -0.006532651372253895 0 0 0 0
2099255524 0.10309924930334091 0.07207785546779633 0.028614304959774017 -0.012078830972313881 0 0 0 0
2102977608 0.13772296905517578 0.06849582493305206 0.026625245809555054 -0.017618894577026367 0 0 0 0
2106699692 0.17267276346683502 0.05668974667787552 0.02245647832751274 -0.022841159254312515 0 0 0 0
2110421776 0.2035977691411972 0.042231060564517975 0.017714599147439003 -0.02659524977207184 0 0 0 0
2114143860 0.23364730179309845 0.020381003618240356 0.012594756670296192 -0.029110532253980637 0 0 0 0
2117865944 0.2585098147392273 -0.005465403199195862 0.0072819143533706665 -0.030834246426820755 0 0 0 0
2121588028 0.2777805030345917 -0.03601687401533127 0.001207919791340828 -0.03233345225453377 0 0 0 0
2125310112 0.29239964485168457 -0.06603852659463882 -0.005185053683817387 -0.03215884417295456 0 0 0 0
2129032196 0.3024979531764984 -0.09905506670475006 -0.011921707540750504 -0.03002837672829628 0 0 0 0
2132754280 0.3046789765357971 -0.1350618302822113 -0.01754191517829895 -0.026216084137558937 0 0 0 0
2136476364 0.30400580167770386 -0.16751615703105927 -0.02159183658659458 -0.021651841700077057 0 0 0 0
2140198448 0.2967553734779358 -0.19920524954795837 -0.024272199720144272 -0.016319451853632927 0 0 0 0
2143920532 0.2839541435241699 -0.2308325618505478 -0.025536667555570602 -0.01153617724776268 0 0 0 0
2147642616 0.2679812014102936 -0.2576199769973755 -0.026214363053441048 -0.00658310204744339 0 0 0 0
2151364700 0.24673162400722504 -0.282654345035553 -0.025826219469308853 -0.0019603241235017776 0 0 0 0
2155086784 0.2244020700454712 -0.3026958107948303 -0.024855313822627068 0.001561444252729416 0 0 0 0
2158808868 0.19801774621009827 -0.3179721236228943 -0.02380327507853508 0.004719611257314682 0 0 0 0
2162530952 0.16335511207580566 -0.3315083980560303 -0.022453300654888153 0.008009664714336395 0 0 0 0
2166253036 0.13553625345230103 -0.3365879952907562 -0.021150212734937668 0.010717594996094704 0 0 0 0
2169975120 0.10442228615283966 -0.338416188955307 -0.019708335399627686 0.013563504442572594 0 0 0 0
2173697204 0.07825161516666412 -0.3344120979309082 -0.01782149262726307 0.016720088198781013 0 0 0 0
2177419288 0.050870560109615326 -0.32811853289604187 -0.01507650688290596 0.01979702338576317 0 0 0 0
2181141372 0.02347000688314438 -0.31830593943595886 -0.011818045750260353 0.022278428077697754 0 0 0 0
2184863456 -0.0003671916201710701 -0.30371564626693726 -0.008007041178643703 0.024189677089452744 0 0 0 0
2188585540 -0.02163006365299225 -0.2853073179721832 -0.0037659257650375366 0.025730140507221222 0 0 0 0
2192307624 -0.04131024330854416 -0.2637459635734558 0.0010223817080259323 0.026555592194199562 0 0 0 0
2196029708 -0.05773777887225151 -0.2397933006286621 0.006392724812030792 0.026144109666347504 0 0 0 0
2199751792 -0.06758436560630798 -0.2138083279132843 0.011362060904502869 0.024095000699162483 0 0 0 0
2203473876 -0.0764717161655426 -0.1857224553823471 0.016136882826685905 0.02075912244617939 0 0 0 0
2207195960 -0.08292224258184433 -0.15479296445846558 0.018947407603263855 0.017173295840620995 0 0 0 0
2210918044 -0.07818201929330826 -0.12498870491981506 0.021629156544804573 0.012647973373532295 0 0 0 0
2214640128 -0.06964869797229767 -0.09604614973068237 0.023200521245598793 0.008408898487687111 0 0 0 0
2218362212 -0.05647735297679901 -0.06964793801307678 0.023734498769044876 0.0032285545021295547 0 0 0 0
2222084296 -0.038789793848991394 -0.0463828518986702 0.022771630436182022 -0.0012183040380477905 0 0 0 0
2225806380 -0.018515629693865776 -0.025624290108680725 0.021444929763674736 -0.005157229490578175 0 0 0 0
2229528464 0.005463805980980396 -0.01024015061557293 0.01926136389374733 -0.008690813556313515 0 0 0 0
2233250548 0.030333828181028366 0.0017401035875082016 0.016862284392118454 -0.011741132475435734 0 0 0 0
2236972632 0.056724078953266144 0.007691282778978348 0.0142316073179245 -0.013871805742383003 0 0 0 0
2240694716 0.08342736214399338 0.011068813502788544 0.011317436583340168 -0.015782633796334267 0 0 0 0
2244416800 0.1103704571723938 0.008177127689123154 0.00856777373701334 -0.01709265448153019 0 0 0 0
2248138884 0.13541527092456818 0.0021842913702130318 0.00532373134046793 -0.01815389283001423 0 0 0 0
2251860968 0.15967603027820587 -0.008549682796001434 0.0014390209689736366 -0.01874869130551815 0 0 0 0
2255583052 0.18197563290596008 -0.021325863897800446 -0.0021648528054356575 -0.018136799335479736 0 0 0 0
2259305136 0.20184852182865143 -0.038847677409648895 -0.0054231202229857445 -0.01661599986255169 0 0 0 0
2263027220 0.2156865894794464 -0.06299415975809097 -0.007673302665352821 -0.014724921435117722 0 0 0 0
2266749304 0.2263782024383545 -0.08469436317682266 -0.009540348313748837 -0.012703787535429 0 0 0 0
2270471388 0.23031185567378998 -0.11293695867061615 -0.011093820445239544 -0.01076795719563961 0 0 0 0
2274193472 0.2356826364994049 -0.12888899445533752 -0.012196380645036697 -0.009086281061172485 0 0 0 0
2277915556 0.2331819087266922 -0.15616650879383087 -0.013331559486687183 -0.0069646453484892845 0 0 0 0
2281637640 0.22527678310871124 -0.18110890686511993 -0.014027227647602558 -0.005083960480988026 0 0 0 0
2285359724 0.21456927061080933 -0.20117245614528656 -0.014510643668472767 -0.0029525524005293846 0 0 0 0
2289081808 0.20020288228988647 -0.218511700630188 -0.014752717688679695 -0.00035328883677721024 0 0 0 0
2292803892 0.1790662258863449 -0.23667584359645844 -0.014548679813742638 0.002122029662132263 0 0 0 0
2296525976 0.16456300020217896 -0.24352975189685822 -0.013613651506602764 0.004342367872595787 0 0 0 0
2300248060 0.14309071004390717 -0.25319740176200867 -0.012165365740656853 0.006248508580029011 0 0 0 0
2303970144 0.1256328821182251 -0.26148250699043274 -0.010429229587316513 0.007884861901402473 0 0 0 0
2307692228 0.10650961101055145 -0.26006993651390076 -0.009008577093482018 0.009027058258652687 0 0 0 0
2311414312 0.0796305239200592 -0.25995340943336487 -0.006858030334115028 0.010093821212649345 0 0 0 0
2315136396 0.052773021161556244 -0.25609147548675537 -0.0046791378408670425 0.010264760814607143 0 0 0 0
2318858480 0.032031361013650894 -0.2465682029724121 -0.0027281614020466805 0.009695439599454403 0 0 0 0
2322580564 0.01202557235956192 -0.2315569370985031 -0.0016506640240550041 0.008825401775538921 0 0 0 0
2326302648 -0.0058731809258461 -0.21355757117271423 -0.0007925517857074738 0.008277878165245056 0 0 0 0
2330024732 -0.015000265091657639 -0.1934203952550888 -0.0004555247724056244 0.00754937157034874 0 0 0 0
2333746816 -0.029257941991090775 -0.16912737488746643 0.00013520848006010056 0.007233753800392151 0 0 0 0
2337468900 -0.03261802718043327 -0.14464671909809113 0.0005190297961235046 0.007053885608911514 0 0 0 0
2341190984 -0.03190949931740761 -0.11960135400295258 0.0013944897800683975 0.006603366695344448 0 0 0 0
2344913068 -0.030893227085471153 -0.09251587092876434 0.0020207958295941353 0.0059493184089660645 0 0 0 0
2348635152 -0.022751374170184135 -0.06687775999307632 0.0019307751208543777 0.005288522690534592 0 0 0 0
2352357236 -0.009072484448552132 -0.04334632307291031 0.0019992059096693993 0.004729460924863815 0 0 0 0
2356079320 0.0086201261729002 -0.02210948057472706 0.0018121516332030296 0.004458516836166382 0 0 0 0
2359801404 0.02933175303041935 -0.0045694345608353615 0.0020634355023503304 0.004338589496910572 0 0 0 0
2363523488 0.0526471771299839 0.008951712399721146 0.002396855503320694 0.004195136949419975 0 0 0 0
2367245572 0.07808709889650345 0.018816068768501282 0.0025294888764619827 0.0038518328219652176 0 0 0 0
2370967656 0.10505496710538864 0.024059360846877098 0.002642248757183552 0.003648616373538971 0 0 0 0
2374689740 0.13383296132087708 0.02537863329052925 0.0029697762802243233 0.003415362909436226 0 0 0 0
2378411824 0.16123166680335999 0.019184131175279617 0.0033037113025784492 0.0029900427907705307 0 0 0 0
2382133908 0.18810340762138367 0.010486267507076263 0.0031432583928108215 0.0026750192046165466 0 0 0 0
2385855992 0.21238398551940918 -0.003320857882499695 0.0029269736260175705 0.002268213778734207 0 0 0 0
2389578076 0.23448628187179565 -0.018097124993801117 0.0027366196736693382 0.0022559836506843567 0 0 0 0
2393300160 0.2523273527622223 -0.04203607887029648 0.002573383040726185 0.0025465162470936775 0 0 0 0
2397022244 0.2667625844478607 -0.0642407014966011 0.0030405130237340927 0.0031178081408143044 0 0 0 0
2400744328 0.27803510427474976 -0.09214922040700912 0.004103995859622955 0.003652011975646019 0 0 0 0
2404466412 0.2850019633769989 -0.11776677519083023 0.0055548446252942085 0.003350059501826763 0 0 0 0
2408188496 0.28826695680618286 -0.14335152506828308 0.0066327424719929695 0.0022281724959611893 0 0 0 0
2411910580 0.28794625401496887 -0.17280817031860352 0.0073174526914954185 0.0009728251025080681 0 0 0 0
2415632664 0.2798709571361542 -0.199241504073143 0.007677042856812477 -0.0004546288400888443 0 0 0 0
2419354748 0.26861050724983215 -0.22368693351745605 0.007684159092605114 -0.0019102022051811218 0 0 0 0
2423076832 0.2548106014728546 -0.248917356133461 0.0076960064470767975 -0.0033383583649992943 0 0 0 0
2426798916 0.23853394389152527 -0.269349068403244 0.006863857619464397 -0.00516457948833704 0 0 0 0
2430521000 0.2149641066789627 -0.2887004613876343 0.005629613064229488 -0.00652485154569149 0 0 0 0
2434243084 0.19473709166049957 -0.30378827452659607 0.004370485432446003 -0.007110190577805042 0 0 0 0
2437965168 0.1690911501646042 -0.31579095125198364 0.0031593050807714462 -0.007484660483896732 0 0 0 0
2441687252 0.14428943395614624 -0.32315367460250854 0.0022182445973157883 -0.007635657675564289 0 0 0 0
2445409336 0.11351926624774933 -0.329058974981308 0.0014700982719659805 -0.007895490154623985 0 0 0 0
2449131420 0.08885474503040314 -0.3272586464881897 0.0009973561391234398 -0.008266285061836243 0 0 0 0
2452853504 0.05551675707101822 -0.32240116596221924 1.477077603340149e-05 -0.00879835244268179 0 0 0 0
2456575588 0.029739197343587875 -0.31399697065353394 -0.000920930877327919 -0.009602219797670841 0 0 0 0
2460297672 0.003137648105621338 -0.30000948905944824 -0.002500029280781746 -0.010326491668820381 0 0 0 0
2464019756 -0.021207628771662712 -0.2834727466106415 -0.004827207885682583 -0.010797052644193172 0 0 0 0
2467741840 -0.04076405614614487 -0.26334285736083984 -0.0070583513006567955 -0.010250917635858059 0 0 0 0
2471463924 -0.05961036682128906 -0.23980912566184998 -0.00911277998238802 -0.009282928891479969 0 0 0 0
2475186008 -0.07208649814128876 -0.2152334749698639 -0.0107277762144804 -0.008049731142818928 0 0 0 0
2478908092 -0.08299973607063293 -0.18587473034858704 -0.012456495314836502 -0.006376511417329311 0 0 0 0
2482630176 -0.08779266476631165 -0.15682317316532135 -0.013870533555746078 -0.004427469335496426 0 0 0 0
2486352260 -0.08965335041284561 -0.1274346560239792 -0.014932336285710335 -0.0022613676264882088 0 0 0 0
2490074344 -0.08587277680635452 -0.09768809378147125 -0.01572028174996376 2.56979838013649e-05 0 0 0 0
2493796428 -0.07757849991321564 -0.06785239279270172 -0.016001759096980095 0.0030827485024929047 0 0 0 0
2497518512 -0.06611095368862152 -0.03941332921385765 -0.015445996075868607 0.006157331168651581 0 0 0 0
2501240596 -0.04871299862861633 -0.013765668496489525 -0.014433056116104126 0.008788937702775002 0 0 0 0
2504962680 -0.02744179219007492 0.008998934179544449 -0.013154393993318081 0.011116687208414078 0 0 0 0
2508684764 -0.0022016167640686035 0.028155677020549774 -0.011384590528905392 0.013443916104733944 0 0 0 0
2512406848 0.0247194766998291 0.042714692652225494 -0.009107042104005814 0.016136225312948227 0 0 0 0
2516128932 0.05446910858154297 0.05236559733748436 -0.005873054265975952 0.018195630982518196 0 0 0 0
2519851016 0.08484835177659988 0.05723182111978531 -0.001879463903605938 0.019140273332595825 0 0 0 0
2523573100 0.11661101132631302 0.05431254580616951 0.0022659460082650185 0.018915798515081406 0 0 0 0
2527295184 0.145015150308609 0.04956863448023796 0.005585582926869392 0.017773859202861786 0 0 0 0
2531017268 0.17126183211803436 0.03673688322305679 0.008932116441428661 0.016033420339226723 0 0 0 0
2534739352 0.19453823566436768 0.022294234484434128 0.011685819365084171 0.01379578746855259 0 0 0 0
2538461436 0.21392512321472168 0.004322905093431473 0.013947111554443836 0.010848733596503735 0 0 0 0
2542183520 0.23025351762771606 -0.015839695930480957 0.01550436019897461 0.007901244796812534 0 0 0 0
2545905604 0.24379651248455048 -0.03685629740357399 0.01659340411424637 0.004481264390051365 0 0 0 0
2549627688 0.2536371350288391 -0.0586969368159771 0.017051318660378456 0.0011595943942666054 0 0 0 0
2553349772 0.2585263252258301 -0.08117476850748062 0.01652996614575386 -0.0029380694031715393 0 0 0 0
2557071856 0.2617056965827942 -0.10256032645702362 0.014581328257918358 -0.006273922510445118 0 0 0 0
2560793940 0.26295143365859985 -0.12196797877550125 0.012279817834496498 -0.008500074036419392 0 0 0 0
2564516024 0.2588643431663513 -0.14688348770141602 0.009708493947982788 -0.010133338160812855 0 0 0 0
2568238108 0.2535109519958496 -0.1653917133808136 0.006970270536839962 -0.011195593513548374 0 0 0 0
2571960192 0.2450849711894989 -0.18401047587394714 0.004593156278133392 -0.011434575542807579 0 0 0 0
2575682276 0.23515549302101135 -0.20148906111717224 0.0025804275646805763 -0.011169609613716602 0 0 0 0
2579404360 0.2223566323518753 -0.21700727939605713 0.0008900649845600128 -0.010694904252886772 0 0 0 0
2583126444 0.20682063698768616 -0.22883395850658417 -0.00028773583471775055 -0.010447612032294273 0 0 0 0
2586848528 0.19167441129684448 -0.2411765158176422 -0.0018253633752465248 -0.01025307271629572 0 0 0 0
2590570612 0.17403839528560638 -0.24942944943904877 -0.003596861846745014 -0.009634122252464294 0 0 0 0
2594292696 0.15452806651592255 -0.2549881935119629 -0.004911242052912712 -0.008594417944550514 0 0 0 0
2598014780 0.13669699430465698 -0.2592095732688904 -0.006041097454726696 -0.007445137947797775 0 0 0 0
2601736864 0.11972928792238235 -0.2582946717739105 -0.0070664044469594955 -0.006257850676774979 0 0 0 0
2605458948 0.09979245066642761 -0.2567715644836426 -0.007913202978670597 -0.0044995881617069244 0 0 0 0
2609181032 0.08542060106992722 -0.25137728452682495 -0.008010834455490112 -0.0028457418084144592 0 0 0 0
2612903116 0.06608504056930542 -0.24320447444915771 -0.007390337996184826 -0.0012673446908593178 0 0 0 0
2616625200 0.05512972176074982 -0.23194469511508942 -0.006689145229756832 -0.00018110871315002441 0 0 0 0
2620347284 0.04202227294445038 -0.22029143571853638 -0.006065436638891697 0.0004138574004173279 0 0 0 0
2624069368 0.030923202633857727 -0.20636925101280212 -0.005303301848471165 0.0011237086728215218 0 0 0 0
2627791452 0.025597497820854187 -0.1909300535917282 -0.004446922801434994 0.0010693296790122986 0 0 0 0
2631513536 0.02211824804544449 -0.17518319189548492 -0.004175005480647087 0.0010635582730174065 0 0 0 0
2635235620 0.02150891348719597 -0.1608446091413498 -0.004091859795153141 0.0013849558308720589 0 0 0 0
2638957704 0.02340485155582428 -0.14499497413635254 -0.0036494042724370956 0.0018231328576803207 0 0 0 0
2642679788 0.02795543149113655 -0.13249589502811432 -0.002894085831940174 0.0018896814435720444 0 0 0 0
2646401872 0.03378213569521904 -0.12093444168567657 -0.002411958761513233 0.0016183508560061455 0 0 0 0
2650123956 0.04236682876944542 -0.11070374399423599 -0.0023615173995494843 0.001250208355486393 0 0 0 0
2653846040 0.05218040570616722 -0.10237185657024384 -0.0023556454107165337 0.0010856743901968002 0 0 0 0
2657568124 0.06404835730791092 -0.09629495441913605 -0.0027015451341867447 0.0010482147336006165 0 0 0 0
2661290208 0.07589125633239746 -0.0943586528301239 -0.0029129646718502045 0.0013451473787426949 0 0 0 0
2665012292 0.08792652189731598 -0.09421499818563461 -0.003167100250720978 0.0018282411620020866 0 0 0 0
2668734376 0.09727528691291809 -0.09809888154268265 -0.0032204100862145424 0.002366333268582821 0 0 0 0
2672456460 0.10673785209655762 -0.10316698253154755 -0.002966472879052162 0.0030667856335639954 0 0 0 0
2676178544 0.11434943974018097 -0.10985106229782104 -0.00233481265604496 0.003665781579911709 0 0 0 0
2679900628 0.12048612534999847 -0.11751072108745575 -0.0017434526234865189 0.004165704362094402 0 0 0 0
2683622712 0.12393389642238617 -0.1262407749891281 -0.001042162999510765 0.004386000335216522 0 0 0 0
2687344796 0.12488524615764618 -0.1337818205356598 -0.0001666741445660591 0.004516986198723316 0 0 0 0
2691066880 0.1239815503358841 -0.14313006401062012 0.000708497129380703 0.004325180314481258 0 0 0 0
2694788964 0.12252739071846008 -0.1501387357711792 0.0012426748871803284 0.004178998991847038 0 0 0 0
2698511048 0.11874815076589584 -0.1582619994878769 0.0020612236112356186 0.0038544125854969025 0 0 0 0
2702233132 0.11277154088020325 -0.1656418889760971 0.002927490510046482 0.003448822535574436 0 0 0 0
2705955216 0.1094990074634552 -0.17119038105010986 0.003648003563284874 0.0027197403833270073 0 0 0 0
2709677300 0.10056383162736893 -0.17822185158729553 0.004200708121061325 0.0017274366691708565 0 0 0 0
2713399384 0.09055916219949722 -0.18247997760772705 0.004218835383653641 0.0005918433889746666 0 0 0 0
2717121468 0.07964126765727997 -0.18441899120807648 0.0039601633325219154 -0.00030564703047275543 0 0 0 0
2720843552 0.0691017135977745 -0.1856495887041092 0.0036929314956068993 -0.0008514607325196266 0 0 0 0
2724565636 0.05687403678894043 -0.18327218294143677 0.0034161172807216644 -0.001537153497338295 0 0 0 0
2728287720 0.04546673595905304 -0.17913024127483368 0.00281540397554636 -0.002083307132124901 0 0 0 0
2732009804 0.032717086374759674 -0.17277494072914124 0.0023925621062517166 -0.00225828867405653 0 0 0 0
2735731888 0.023245710879564285 -0.1625458151102066 0.0020676683634519577 -0.002284354530274868 0 0 0 0
2739453972 0.015709489583969116 -0.15271075069904327 0.0018238639459013939 -0.0025914637371897697 0 0 0 0
2743176056 0.00893338955938816 -0.13980752229690552 0.0014635231345891953 -0.002736462280154228 0 0 0 0
2746898140 0.0026048608124256134 -0.12538236379623413 0.0011856956407427788 -0.0028843609616160393 0 0 0 0
2750620224 0.0017258599400520325 -0.11022824048995972 0.0010935701429843903 -0.003032531589269638 0 0 0 0
2754342308 0.0015386994928121567 -0.09432057291269302 0.0008800094947218895 -0.0033313222229480743 0 0 0 0
2758064392 0.003734167665243149 -0.078864187002182 0.000371001660823822 -0.0038916291669011116 0 0 0 0
2761786476 0.010118717327713966 -0.06265471875667572 -0.0004290258511900902 -0.004196444526314735 0 0 0 0
2765508560 0.017618287354707718 -0.047248173505067825 -0.001468210481107235 -0.004115056246519089 0 0 0 0
2769230644 0.029684685170650482 -0.03318169713020325 -0.0022829603403806686 -0.0035216007381677628 0 0 0 0
2772952728 0.04344252869486809 -0.02100551687180996 -0.0028250478208065033 -0.0027579134330153465 0 0 0 0
2776674812 0.059121858328580856 -0.011301958933472633 -0.002839811146259308 -0.002287311479449272 0 0 0 0
2780396896 0.0773136243224144 -0.004160100594162941 -0.0030333874747157097 -0.0017940253019332886 0 0 0 0
2784118980 0.09608063101768494 0.0013315528631210327 -0.0032013310119509697 -0.0011863969266414642 0 0 0 0
2787841064 0.11542165279388428 0.0031230561435222626 -0.003074691630899906 -0.0003516385331749916 0 0 0 0
2791563148 0.13671618700027466 0.003630688413977623 -0.002760576084256172 0.00020278152078390121 0 0 0 0
2795285232 0.15761436522006989 -0.0016390904784202576 -0.0022906344383955 0.0004811761900782585 0 0 0 0
2799007316 0.179862380027771 -0.009866960346698761 -0.0018287543207406998 0.000828031450510025 0 0 0 0
2802729400 0.19873197376728058 -0.022682102397084236 -0.0013165762647986412 0.0006465045735239983 0 0 0 0
2806451484 0.21558475494384766 -0.04001417011022568 -0.0011757342144846916 0.00030513759702444077 0 0 0 0
2810173568 0.23015235364437103 -0.056049421429634094 -0.0014359140768647194 0.0002702223137021065 0 0 0 0
2813895652 0.24121882021427155 -0.07777239382266998 -0.0015545757487416267 0.0005915677174925804 0 0 0 0
2817617736 0.2505558729171753 -0.10077239573001862 -0.0013062460348010063 0.0009211236611008644 0 0 0 0
2821339820 0.2549130618572235 -0.12346074730157852 -0.0009038494899868965 0.0012112082913517952 0 0 0 0
2825061904 0.25410032272338867 -0.147649347782135 -0.0006036786362528801 0.00122043676674366 0 0 0 0
2828783988 0.2537103593349457 -0.17091834545135498 -0.0001529967412352562 0.0012753261253237724 0 0 0 0
2832506072 0.246876060962677 -0.1947634071111679 0.00023963116109371185 0.0011004796251654625 0 0 0 0
2836228156 0.23868855834007263 -0.21709099411964417 0.0004621315747499466 0.0008864477276802063 0 0 0 0
2839950240 0.22844064235687256 -0.23606550693511963 0.0006536925211548805 0.0005155326798558235 0 0 0 0
2843672324 0.2126605212688446 -0.2546731233596802 0.0007239114493131638 0.00010192394256591797 0 0 0 0
2847394408 0.19547206163406372 -0.27086973190307617 0.0005034767091274261 -8.413475006818771e-05 0 0 0 0
2851116492 0.17499665915966034 -0.28835946321487427 0.0004292847588658333 -0.00015114061534404755 0 0 0 0
2854838576 0.15709014236927032 -0.2983080744743347 0.00046221446245908737 -0.00010473653674125671 0 0 0 0
2858560660 0.13672634959220886 -0.307777464389801 0.0004560118541121483 -0.0005265418440103531 0 0 0 0
2862282744 0.1078026294708252 -0.31706610321998596 0.00041296519339084625 -0.0005408162251114845 0 0 0 0
2866004828 0.08891298621892929 -0.31887805461883545 0.00047751422971487045 -0.00043861567974090576 0 0 0 0
2869726912 0.06508982926607132 -0.320388525724411 0.0006383415311574936 -0.0005563106387853622 0 0 0 0
2873448996 0.03762194514274597 -0.3181028664112091 0.0006099902093410492 -0.0007626162841916084 0 0 0 0
2877171080 0.014172248542308807 -0.31153810024261475 0.0005504880100488663 -0.001001838594675064 0 0 0 0
2880893164 -0.010507658123970032 -0.3031724989414215 0.00046170689165592194 -0.0011452874168753624 0 0 0 0
2884615248 -0.03279758244752884 -0.2896658778190613 0.00023129209876060486 -0.0012949761003255844 0 0 0 0
2888337332 -0.05623067170381546 -0.2738554775714874 -8.234754204750061e-06 -0.0011841151863336563 0 0 0 0
2892059416 -0.07291357219219208 -0.2571273446083069 -0.00021874159574508667 -0.0010409923270344734 0 0 0 0
2895781500 -0.0913577750325203 -0.23524980247020721 -0.00040848366916179657 -0.0008569639176130295 0 0 0 0
2899503584 -0.1045275628566742 -0.21350538730621338 -0.0005379188805818558 -0.00048728566616773605 0 0 0 0
2903225668 -0.11516927182674408 -0.18704447150230408 -0.0003458317369222641 -0.00019156001508235931 0 0 0 0
2906947752 -0.12184298038482666 -0.16126534342765808 -0.0001949341967701912 -2.4595297873020172e-05 0 0 0 0
2910669836 -0.12457872182130814 -0.13372743129730225 0.000112202949821949 8.632242679595947e-05 0 0 0 0
2914391920 -0.12293075025081635 -0.10859978199005127 0.0004168301820755005 -0.00017557106912136078 0 0 0 0
2918114004 -0.11938583105802536 -0.08225724846124649 0.0007166182622313499 -0.0002500675618648529 0 0 0 0
2921836088 -0.11284013092517853 -0.05750151723623276 0.0005999663844704628 -0.0003651054576039314 0 0 0 0
2925558172 -0.10409349203109741 -0.03374229371547699 0.000661931000649929 -0.0005595600232481956 0 0 0 0
2929280256 -0.09119674563407898 -0.010297066532075405 0.0006076367571949959 -0.000828329473733902 0 0 0 0
2933002340 -0.07573821395635605 0.011425311677157879 0.0004328424111008644 -0.0009434670209884644 0 0 0 0
2936724424 -0.056675948202610016 0.031110860407352448 7.193535566329956e-06 -0.0008661327883601189 0 0 0 0
2940446508 -0.03644631803035736 0.04701146483421326 -0.00020595360547304153 -0.0008147228509187698 0 0 0 0
2944168592 -0.014058446511626244 0.061652183532714844 -0.0004554064944386482 -0.00044582318514585495 0 0 0 0
2947890676 0.010929432697594166 0.07289022952318192 -0.0004458623006939888 2.069864422082901e-05 0 0 0 0
2951612760 0.03732648491859436 0.08151455223560333 -0.00012067519128322601 0.0005244836211204529 0 0 0 0
2955334844 0.06575069576501846 0.08452370017766953 0.0002666730433702469 0.0008134348317980766 0 0 0 0
2959056928 0.09303506463766098 0.08421387523412704 0.0007019368931651115 0.0008612340316176414 0 0 0 0
2962779012 0.12087927758693695 0.08016273379325867 0.001169716939330101 0.0008966429159045219 0 0 0 0
2966501096 0.14755837619304657 0.07203832268714905 0.0016634855419397354 0.0009002946317195892 0 0 0 0
2970223180 0.1709475964307785 0.061152517795562744 0.0022159218788146973 0.0002734381705522537 0 0 0 0
2973945264 0.19380611181259155 0.04635075479745865 0.0023158984258770943 -0.00026961229741573334 0 0 0 0
2977667348 0.21473941206932068 0.029187895357608795 0.0024130800738930702 -0.00084714125841856 0 0 0 0
2981389432 0.23190250992774963 0.011604353785514832 0.0022313566878437996 -0.001383936032652855 0 0 0 0
2985111516 0.24670912325382233 -0.014846252277493477 0.0018673883751034737 -0.0017469096928834915 0 0 0 0
2988833600 0.2567283809185028 -0.03980559483170509 0.0013879993930459023 -0.0020776009187102318 0 0 0 0
2992555684 0.26389843225479126 -0.062192581593990326 0.0008829161524772644 -0.0021647950634360313 0 0 0 0
2996277768 0.2695672810077667 -0.08253049850463867 0.0005634715780615807 -0.002009032294154167 0 0 0 0
2999999852 0.27030691504478455 -0.11110034584999084 0.00015533622354269028 -0.0016392963007092476 0 0 0 0
