# HZ S RI R 50
1500000000 -0.13011765480041504 0.0037989215925335884 0.05247558280825615 -0.035010963678359985 0 0 0 0
1503722084 -0.10575442016124725 0.03339056298136711 0.04346080869436264 -0.041295602917671204 0 0 0 0
1507444168 -0.07569494843482971 0.05931171774864197 0.03426573425531387 -0.045715734362602234 0 0 0 0
1511166252 -0.03975318372249603 0.0802181214094162 0.025762423872947693 -0.04771624505519867 0 0 0 0
1514888336 -0.0001429542899131775 0.094912588596344 0.01742389239370823 -0.04845188185572624 0 0 0 0
1518610420 0.04207170009613037 0.10334444046020508 0.010302893817424774 -0.04842817783355713 0 0 0 0
1522332504 0.08728677779436111 0.10503572970628738 0.003220371901988983 -0.04802655428647995 0 0 0 0
1526054588 0.13301126658916473 0.10012751817703247 -0.003857657313346863 -0.04682696610689163 0 0 0 0
1529776672 0.17983898520469666 0.08566664159297943 -0.010532082058489323 -0.044517166912555695 0 0 0 0
1533498756 0.22559267282485962 0.06279140710830688 -0.01686033420264721 -0.04095356538891792 0 0 0 0
1537220840 0.26682987809181213 0.03107745200395584 -0.02197173610329628 -0.03643839806318283 0 0 0 0
1540942924 0.30231040716171265 -0.009371191263198853 -0.02588379941880703 -0.031260278075933456 0 0 0 0
1544665008 0.3302006125450134 -0.05279649794101715 -0.028813127428293228 -0.026567712426185608 0 0 0 0
1548387092 0.35128092765808105 -0.10103213787078857 -0.031279489398002625 -0.02147207222878933 0 0 0 0
1552109176 0.3651430308818817 -0.15088538825511932 -0.033088501542806625 -0.016033779829740524 0 0 0 0
1555831260 0.370387464761734 -0.2038644552230835 -0.0334390290081501 -0.01034997496753931 0 0 0 0
1559553344 0.3689434826374054 -0.2578846216201782 -0.03276818245649338 -0.005117829889059067 0 0 0 0
1563275428 0.35833683609962463 -0.3126332759857178 -0.03138387203216553 -0.0010027401149272919 0 0 0 0
1566997512 0.33898797631263733 -0.36576828360557556 -0.02965020388364792 0.002604813314974308 0 0 0 0
1570719596 0.3116101622581482 -0.4152018129825592 -0.028145726770162582 0.005312765948474407 0 0 0 0
1574441680 0.27397769689559937 -0.4607657194137573 -0.0267051812261343 0.008093106560409069 0 0 0 0
1578163764 0.23416364192962646 -0.49867668747901917 -0.025390109047293663 0.010647798888385296 0 0 0 0
1581885848 0.1812206208705902 -0.5319571495056152 -0.023750852793455124 0.013621808029711246 0 0 0 0
1585607932 0.1349746733903885 -0.5538933873176575 -0.02160821668803692 0.01603871025145054 0 0 0 0
1589330016 0.07753363996744156 -0.5716711282730103 -0.0193217471241951 0.018322166055440903 0 0 0 0
1593052100 0.019047141075134277 -0.5804723501205444 -0.01702587865293026 0.02058945968747139 0 0 0 0
1596774184 -0.036964595317840576 -0.5817136764526367 -0.014297672547399998 0.02280091866850853 0 0 0 0
1600496268 -0.09407038986682892 -0.5731382369995117 -0.010711580514907837 0.024571532383561134 0 0 0 0
1604218352 -0.14971823990345 -0.5587139129638672 -0.007143533788621426 0.0255719143897295 0 0 0 0
1607940436 -0.20415550470352173 -0.536400318145752 -0.003445122390985489 0.02579159289598465 0 0 0 0
1611662520 -0.2547060549259186 -0.5079058408737183 -0.00016119517385959625 0.025982901453971863 0 0 0 0
1615384604 -0.30320245027542114 -0.47088176012039185 0.0031366832554340363 0.026113633066415787 0 0 0 0
1619106688 -0.3450835645198822 -0.4253477454185486 0.007197963073849678 0.02590198628604412 0 0 0 0
1622828772 -0.3848336637020111 -0.37225431203842163 0.012018267065286636 0.025008026510477066 0 0 0 0
1626550856 -0.41243016719818115 -0.31686073541641235 0.01666179858148098 0.022670907899737358 0 0 0 0
1630272940 -0.43341928720474243 -0.25522372126579285 0.020925384014844894 0.01883627660572529 0 0 0 0
1633995024 -0.4476364254951477 -0.19041362404823303 0.024065086618065834 0.014214957132935524 0 0 0 0
1637717108 -0.4515863060951233 -0.12448915839195251 0.025794828310608864 0.009140100330114365 0 0 0 0
1641439192 -0.44723865389823914 -0.055136680603027344 0.02644796296954155 0.0038840407505631447 0 0 0 0
1645161276 -0.4309172034263611 0.015495091676712036 0.026083026081323624 -0.0011820122599601746 0 0 0 0
1648883360 -0.4030764102935791 0.08045022189617157 0.02489609643816948 -0.005761304870247841 0 0 0 0
1652605444 -0.3633577227592468 0.14683057367801666 0.022594036534428596 -0.010526519268751144 0 0 0 0
1656327528 -0.3170897364616394 0.2007674127817154 0.019298702478408813 -0.014132813550531864 0 0 0 0
1660049612 -0.2620507776737213 0.24676671624183655 0.015481279231607914 -0.01683012582361698 0 0 0 0
1663771696 -0.20007847249507904 0.28824615478515625 0.011422433890402317 -0.018500730395317078 0 0 0 0
1667493780 -0.13242937624454498 0.3205017149448395 0.007167961448431015 -0.019174158573150635 0 0 0 0
1671215864 -0.058490827679634094 0.34392058849334717 0.0032431604340672493 -0.01884634792804718 0 0 0 0
1674937948 0.01872110366821289 0.3541390001773834 -8.06739553809166e-05 -0.01793700084090233 0 0 0 0
1678660032 0.09885067492723465 0.35307571291923523 -0.003307085484266281 -0.01654195226728916 0 0 0 0
1682382116 0.17906400561332703 0.3390832245349884 -0.006191998720169067 -0.014534941874444485 0 0 0 0
1686104200 0.25629788637161255 0.311206579208374 -0.008330401964485645 -0.011599032208323479 0 0 0 0
1689826284 0.32732680439949036 0.27340224385261536 -0.009120861999690533 -0.008309321478009224 0 0 0 0
1693548368 0.39258408546447754 0.22299063205718994 -0.008597678504884243 -0.005636774934828281 0 0 0 0
1697270452 0.448618620634079 0.1616690754890442 -0.007767814211547375 -0.003772059455513954 0 0 0 0
1700992536 0.4955430030822754 0.09181676805019379 -0.006907805800437927 -0.0023077968508005142 0 0 0 0
1704714620 0.529114842414856 0.013801202178001404 -0.005577560514211655 -0.0013785995543003082 0 0 0 0
1708436704 0.5501418113708496 -0.06095293164253235 -0.004364682361483574 -0.001168789342045784 0 0 0 0
1712158788 0.5565138459205627 -0.14409109950065613 -0.0032959021627902985 -0.001496506854891777 0 0 0 0
1715880872 0.5514818429946899 -0.22077587246894836 -0.002880020998418331 -0.0021959850564599037 0 0 0 0
1719602956 0.5315657258033752 -0.30196434259414673 -0.0031387247145175934 -0.002641376107931137 0 0 0 0
1723325040 0.5024174451828003 -0.37353307008743286 -0.003507831133902073 -0.0029426123946905136 0 0 0 0
1727047124 0.4627925753593445 -0.4385525584220886 -0.0037837810814380646 -0.002925073727965355 0 0 0 0
1730769208 0.41154003143310547 -0.4981047809123993 -0.003995688632130623 -0.002770001068711281 0 0 0 0
1734491292 0.3541536331176758 -0.547543466091156 -0.004020716063678265 -0.0029020151123404503 0 0 0 0
1738213376 0.2933138608932495 -0.5838230848312378 -0.004310845397412777 -0.0034808609634637833 0 0 0 0
1741935460 0.22830070555210114 -0.6112553477287292 -0.00509529747068882 -0.004047499969601631 0 0 0 0
1745657544 0.15224403142929077 -0.6295410394668579 -0.006636188365519047 -0.004255136474967003 0 0 0 0
1749379628 0.08638308942317963 -0.6356289982795715 -0.008250396698713303 -0.0035750577226281166 0 0 0 0
1753101712 0.015158988535404205 -0.6297352910041809 -0.009643454104661942 -0.0027107102796435356 0 0 0 0
1756823796 -0.05510503053665161 -0.6161049604415894 -0.010967034846544266 -0.0011974480003118515 0 0 0 0
1760545880 -0.11032536625862122 -0.591533362865448 -0.012036840431392193 0.0005842475220561028 0 0 0 0
1764267964 -0.16994863748550415 -0.5579030513763428 -0.012423811480402946 0.0026964042335748672 0 0 0 0
1767990048 -0.21696361899375916 -0.5206167697906494 -0.012539980933070183 0.004564511589705944 0 0 0 0
1771712132 -0.26107093691825867 -0.4729197919368744 -0.012667612172663212 0.0062982309609651566 0 0 0 0
1775434216 -0.29672038555145264 -0.420946329832077 -0.012963972054421902 0.008833029307425022 0 0 0 0
1779156300 -0.32234352827072144 -0.366421639919281 -0.012413992546498775 0.01205882616341114 0 0 0 0
1782878384 -0.3404545485973358 -0.3104226589202881 -0.010581367649137974 0.01522286981344223 0 0 0 0
1786600468 -0.3499012589454651 -0.25337350368499756 -0.008246340788900852 0.017764944583177567 0 0 0 0
1790322552 -0.35190296173095703 -0.19762857258319855 -0.005659923888742924 0.019843414425849915 0 0 0 0
1794044636 -0.3466877341270447 -0.1410377025604248 -0.002857309766113758 0.021667560562491417 0 0 0 0
1797766720 -0.3342277407646179 -0.08637220412492752 0.0005681868642568588 0.02359948679804802 0 0 0 0
1801488804 -0.3142625689506531 -0.03456740081310272 0.004731371067464352 0.025358177721500397 0 0 0 0
1805210888 -0.2870749831199646 0.013399122282862663 0.010165546089410782 0.026292508468031883 0 0 0 0
1808932972 -0.25166910886764526 0.060970909893512726 0.016462408006191254 0.025504346936941147 0 0 0 0
1812655056 -0.2087448537349701 0.10054819285869598 0.02241656184196472 0.02300138957798481 0 0 0 0
1816377140 -0.15941442549228668 0.13222792744636536 0.028013605624437332 0.018898770213127136 0 0 0 0
1820099224 -0.10518541932106018 0.15375059843063354 0.03305301070213318 0.013479810208082199 0 0 0 0
1823821308 -0.0511745810508728 0.1644245833158493 0.03676090016961098 0.006858488544821739 0 0 0 0
1827543392 0.004712916910648346 0.166819766163826 0.03860587254166603 -0.0011064354330301285 0 0 0 0
1831265476 0.05619359761476517 0.15907232463359833 0.039083514362573624 -0.009195764549076557 0 0 0 0
1834987560 0.10519306361675262 0.14439839124679565 0.037116825580596924 -0.017858270555734634 0 0 0 0
1838709644 0.14929655194282532 0.1233338713645935 0.03258698433637619 -0.025959033519029617 0 0 0 0
1842431728 0.18966536223888397 0.0958574116230011 0.026416489854454994 -0.03207830339670181 0 0 0 0
1846153812 0.22335153818130493 0.0644264742732048 0.020403539761900902 -0.036355454474687576 0 0 0 0
1849875896 0.25051480531692505 0.02769073098897934 0.012766768224537373 -0.03999911621212959 0 0 0 0
1853597980 0.2721349596977234 -0.009691432118415833 0.004856657236814499 -0.04168969392776489 0 0 0 0
1857320064 0.28648263216018677 -0.05099194496870041 -0.0032565388828516006 -0.04173263907432556 0 0 0 0
1861042148 0.2925078868865967 -0.09390485286712646 -0.01052926853299141 -0.040447331964969635 0 0 0 0
1864764232 0.2926398515701294 -0.13195130228996277 -0.01761590503156185 -0.037700142711400986 0 0 0 0
1868486316 0.28697991371154785 -0.17098180949687958 -0.024061087518930435 -0.03409314900636673 0 0 0 0
1872208400 0.2777441740036011 -0.20573067665100098 -0.029479829594492912 -0.029522327706217766 0 0 0 0
1875930484 0.26288488507270813 -0.23972368240356445 -0.035417791455984116 -0.022579416632652283 0 0 0 0
1879652568 0.24170637130737305 -0.27134424448013306 -0.0388944111764431 -0.016934145241975784 0 0 0 0
1883374652 0.21581068634986877 -0.29808783531188965 -0.04208749160170555 -0.010457968339323997 0 0 0 0
1887096736 0.1856553852558136 -0.319020539522171 -0.04437074065208435 -0.0027659647166728973 0 0 0 0
1890818820 0.15205694735050201 -0.33389365673065186 -0.044661443680524826 0.005394825711846352 0 0 0 0
1894540904 0.12028159201145172 -0.3415122330188751 -0.04332911968231201 0.013816725462675095 0 0 0 0
1898262988 0.08510954678058624 -0.3435390591621399 -0.04061677306890488 0.022000692784786224 0 0 0 0
1901985072 0.05344916880130768 -0.3395426869392395 -0.035598788410425186 0.030008025467395782 0 0 0 0
1905707156 0.02540954202413559 -0.3313313126564026 -0.029081599786877632 0.035583723336458206 0 0 0 0
1909429240 -0.0021385792642831802 -0.3164878785610199 -0.02219267562031746 0.03947445750236511 0 0 0 0
1913151324 -0.026048555970191956 -0.30029240250587463 -0.015423783101141453 0.04266532510519028 0 0 0 0
1916873408 -0.046978794038295746 -0.2792629599571228 -0.0082439836114645 0.04560476541519165 0 0 0 0
1920595492 -0.0640527680516243 -0.25484326481819153 0.0007918737828731537 0.047813646495342255 0 0 0 0
1924317576 -0.07427384704351425 -0.2291053682565689 0.010615851730108261 0.0473540723323822 0 0 0 0
1928039660 -0.08190326392650604 -0.20242802798748016 0.02029881626367569 0.044262491166591644 0 0 0 0
1931761744 -0.0837971419095993 -0.17683818936347961 0.02864949032664299 0.038683705031871796 0 0 0 0
1935483828 -0.08228272199630737 -0.15002548694610596 0.03508139029145241 0.03172586113214493 0 0 0 0
1939205912 -0.07717186212539673 -0.12406430393457413 0.039497580379247665 0.024365801364183426 0 0 0 0
1942927996 -0.06740890443325043 -0.09749237447977066 0.04308018088340759 0.01699492707848549 0 0 0 0
1946650080 -0.05292391777038574 -0.07268207520246506 0.046116843819618225 0.008451364934444427 0 0 0 0
1950372164 -0.032568641006946564 -0.05063602328300476 0.0471491813659668 -0.0007522096857428551 0 0 0 0
1954094248 -0.007906541228294373 -0.03331480547785759 0.04590851813554764 -0.01046618353575468 0 0 0 0
1957816332 0.0198675487190485 -0.021180864423513412 0.04217417910695076 -0.020076703280210495 0 0 0 0
1961538416 0.04931860789656639 -0.01615968532860279 0.03576681390404701 -0.027892373502254486 0 0 0 0
1965260500 0.07888442277908325 -0.016102559864521027 0.028380323201417923 -0.033438436686992645 0 0 0 0
1968982584 0.10815891623497009 -0.021846216171979904 0.021521009504795074 -0.036976318806409836 0 0 0 0
1972704668 0.13592788577079773 -0.033640146255493164 0.014502309262752533 -0.039486370980739594 0 0 0 0
1976426752 0.15953071415424347 -0.05048704892396927 0.006839245557785034 -0.04132036864757538 0 0 0 0
1980148836 0.17933881282806396 -0.07192909717559814 -0.0011990219354629517 -0.041764743626117706 0 0 0 0
1983870920 0.19359171390533447 -0.0965958759188652 -0.009666023775935173 -0.04066752269864082 0 0 0 0
1987593004 0.20249199867248535 -0.12214376032352448 -0.017629869282245636 -0.0374123677611351 0 0 0 0
1991315088 0.20544487237930298 -0.14895588159561157 -0.024945713579654694 -0.032175712287425995 0 0 0 0
1995037172 0.20343433320522308 -0.17358553409576416 -0.0296403206884861 -0.025058157742023468 0 0 0 0
1998759256 0.20170171558856964 -0.19759930670261383 -0.03247758746147156 -0.01834344118833542 0 0 0 0
2002481340 0.19334155321121216 -0.22170209884643555 -0.03416305407881737 -0.012094441801309586 0 0 0 0
2006203424 0.18154537677764893 -0.24383333325386047 -0.03537178784608841 -0.006013038568198681 0 0 0 0
2009925508 0.1629992127418518 -0.26329582929611206 -0.03516114130616188 0.0009949514642357826 0 0 0 0
2013647592 0.1484394371509552 -0.276697039604187 -0.03336000442504883 0.007278826087713242 0 0 0 0
2017369676 0.12575984001159668 -0.291984885931015 -0.030488325282931328 0.013172367587685585 0 0 0 0
2021091760 0.10258124023675919 -0.30236437916755676 -0.02640424482524395 0.01809735596179962 0 0 0 0
2024813844 0.0788983404636383 -0.3082096576690674 -0.022171765565872192 0.02100013568997383 0 0 0 0
2028535928 0.05106879770755768 -0.3093165159225464 -0.01778240315616131 0.023195767775177956 0 0 0 0
2032258012 0.02354314923286438 -0.3068007826805115 -0.014062821865081787 0.025136277079582214 0 0 0 0
2035980096 -0.003853127360343933 -0.2977766990661621 -0.009919137693941593 0.02644779346883297 0 0 0 0
2039702180 -0.028237417340278625 -0.2844935655593872 -0.005793328396975994 0.027795886620879173 0 0 0 0
2043424264 -0.05063972994685173 -0.26697537302970886 -0.000743095763027668 0.02813718654215336 0 0 0 0
2047146348 -0.06961440294981003 -0.24623769521713257 0.004550081677734852 0.027159370481967926 0 0 0 0
2050868432 -0.08543980866670609 -0.22192208468914032 0.008580002933740616 0.02519812248647213 0 0 0 0
2054590516 -0.09528891742229462 -0.19450458884239197 0.01204674132168293 0.023140568286180496 0 0 0 0
2058312600 -0.10323677211999893 -0.1648632138967514 0.01553899236023426 0.020358622074127197 0 0 0 0
2062034684 -0.10333431512117386 -0.1371345967054367 0.01875453069806099 0.01718733459711075 0 0 0 0
2065756768 -0.09997281432151794 -0.10953142493963242 0.021346189081668854 0.013246520422399044 0 0 0 0
2069478852 -0.09434632211923599 -0.08237547427415848 0.02227201499044895 0.008594214916229248 0 0 0 0
2073200936 -0.08526577800512314 -0.05373683199286461 0.02222805842757225 0.004125023260712624 0 0 0 0
2076923020 -0.07120253145694733 -0.028327805921435356 0.021389581263065338 0.0009924601763486862 0 0 0 0
2080645104 -0.05302903801202774 -0.0034510213881731033 0.02053062990307808 -0.0016394658014178276 0 0 0 0
2084367188 -0.029714778065681458 0.0185856930911541 0.01950010471045971 -0.00426175631582737 0 0 0 0
2088089272 -0.0035125156864523888 0.03651389479637146 0.01912982016801834 -0.007002213969826698 0 0 0 0
2091811356 0.026224805042147636 0.05010484158992767 0.017903804779052734 -0.010533246211707592 0 0 0 0
2095533440 0.057375602424144745 0.059591010212898254 0.015232117846608162 -0.013850247487425804 0 0 0 0
2099255524 0.09060921519994736 0.06398485600948334 0.011921043507754803 -0.01589205302298069 0 0 0 0
2102977608 0.12559448182582855 0.0631079375743866 0.008487813174724579 -0.017054541036486626 0 0 0 0
2106699692 0.15947765111923218 0.05650712922215462 0.005262152291834354 -0.017290225252509117 0 0 0 0
2110421776 0.19211961328983307 0.043048083782196045 0.0023795804008841515 -0.017185542732477188 0 0 0 0
2114143860 0.22264160215854645 0.023369979113340378 -0.00042662397027015686 -0.016865886747837067 0 0 0 0
2117865944 0.2490263432264328 0.00045182928442955017 -0.0030060401186347008 -0.016237623989582062 0 0 0 0
2121588028 0.2714415192604065 -0.028888344764709473 -0.00561169721186161 -0.015076560899615288 0 0 0 0
2125310112 0.28766974806785583 -0.059200383722782135 -0.007356460206210613 -0.013449814170598984 0 0 0 0
2129032196 0.2983028292655945 -0.0916672870516777 -0.00901247188448906 -0.01202385313808918 0 0 0 0
2132754280 0.3011152446269989 -0.12679767608642578 -0.010663451626896858 -0.010294041596353054 0 0 0 0
2136476364 0.30001792311668396 -0.16025637090206146 -0.012138321064412594 -0.008494631387293339 0 0 0 0
2140198448 0.2949105501174927 -0.19078736007213593 -0.013330924324691296 -0.006167630665004253 0 0 0 0
2143920532 0.28263044357299805 -0.2210100293159485 -0.014008630998432636 -0.003766019828617573 0 0 0 0
2147642616 0.2681047320365906 -0.2487340122461319 -0.014250868931412697 -0.0010795798152685165 0 0 0 0
2151364700 0.25193652510643005 -0.2716929316520691 -0.013839219696819782 0.001536315307021141 0 0 0 0
2155086784 0.22926324605941772 -0.2944255471229553 -0.012574414722621441 0.0039694346487522125 0 0 0 0
2158808868 0.20415616035461426 -0.31282326579093933 -0.011001639999449253 0.005945995450019836 0 0 0 0
2162530952 0.17960506677627563 -0.3248286843299866 -0.009171618148684502 0.007194679230451584 0 0 0 0
2166253036 0.14937901496887207 -0.33527982234954834 -0.007336903363466263 0.007970975711941719 0 0 0 0
2169975120 0.12044500559568405 -0.3398822546005249 -0.005440836772322655 0.008211025036871433 0 0 0 0
2173697204 0.09096155315637589 -0.3398633599281311 -0.003705156035721302 0.007955203764140606 0 0 0 0
2177419288 0.05740300565958023 -0.335622102022171 -0.0026051225140690804 0.007367095910012722 0 0 0 0
2181141372 0.030567962676286697 -0.32629770040512085 -0.0016826903447508812 0.007054099813103676 0 0 0 0
2184863456 0.004639856517314911 -0.31111443042755127 -0.0010443078354001045 0.0067166294902563095 0 0 0 0
2188585540 -0.018533140420913696 -0.2926635146141052 4.398822784423828e-05 0.006034418009221554 0 0 0 0
2192307624 -0.03920203447341919 -0.27055874466896057 0.0006685489788651466 0.0048041800037026405 0 0 0 0
2196029708 -0.05562581121921539 -0.24711090326309204 0.0002428172156214714 0.003522663377225399 0 0 0 0
2199751792 -0.06900668889284134 -0.22129972279071808 -0.0009178360924124718 0.0030668694525957108 0 0 0 0
2203473876 -0.07759319245815277 -0.19428062438964844 -0.0022571589797735214 0.003616888076066971 0 0 0 0
2207195960 -0.07953602075576782 -0.16711914539337158 -0.003274250775575638 0.0049055712297558784 0 0 0 0
2210918044 -0.08310973644256592 -0.1349378079175949 -0.0033434461802244186 0.007069620303809643 0 0 0 0
2214640128 -0.07686461508274078 -0.10691867768764496 -0.0018740445375442505 0.00924745388329029 0 0 0 0
2218362212 -0.06704733520746231 -0.07834412902593613 0.00033684074878692627 0.010665887035429478 0 0 0 0
2222084296 -0.052548594772815704 -0.04983773082494736 0.003132120706140995 0.010900734923779964 0 0 0 0
2225806380 -0.03236103057861328 -0.026265757158398628 0.005715048871934414 0.01011610310524702 0 0 0 0
2229528464 -0.008581170812249184 -0.007143598981201649 0.007787605747580528 0.008555912412703037 0 0 0 0
2233250548 0.018156809732317924 0.0075858402997255325 0.00894885417073965 0.007015742361545563 0 0 0 0
2236972632 0.046665556728839874 0.018093448132276535 0.009767672047019005 0.005217511206865311 0 0 0 0
2240694716 0.07693566381931305 0.021915066987276077 0.01032192911952734 0.0034865308552980423 0 0 0 0
2244416800 0.10768715292215347 0.018020637333393097 0.010599964298307896 0.0018818769603967667 0 0 0 0
2248138884 0.1350598782300949 0.01568128727376461 0.010570685379207134 0.0005336729809641838 0 0 0 0
2251860968 0.16267168521881104 0.0001404285430908203 0.009895370341837406 -0.0015748217701911926 0 0 0 0
2255583052 0.18699690699577332 -0.014414310455322266 0.01023524347692728 -0.002637258730828762 0 0 0 0
2259305136 0.20711594820022583 -0.0313093438744545 0.010668662376701832 -0.004207032732665539 0 0 0 0
2263027220 0.22251181304454803 -0.054814938455820084 0.010783407837152481 -0.006294596008956432 0 0 0 0
2266749304 0.2338855266571045 -0.0792115181684494 0.01014730241149664 -0.009096034802496433 0 0 0 0
2270471388 0.2423388510942459 -0.10128360241651535 0.00836236122995615 -0.011635785922408104 0 0 0 0
2274193472 0.24159982800483704 -0.13480940461158752 0.00569550134241581 -0.013636669144034386 0 0 0 0
2277915556 0.24189478158950806 -0.15540245175361633 0.0032036881893873215 -0.014537842944264412 0 0 0 0
2281637640 0.23717664182186127 -0.17987075448036194 0.0004898514598608017 -0.015013249590992928 0 0 0 0
2285359724 0.22538048028945923 -0.20455683767795563 -0.001604580320417881 -0.01487021055072546 0 0 0 0
2289081808 0.20980529487133026 -0.22575640678405762 -0.003913448192179203 -0.015137944370508194 0 0 0 0
2292803892 0.19435112178325653 -0.24323099851608276 -0.006475936621427536 -0.015115471556782722 0 0 0 0
2296525976 0.170791357755661 -0.257731169462204 -0.009490691125392914 -0.014764983206987381 0 0 0 0
2300248060 0.14692741632461548 -0.26919373869895935 -0.012573592364788055 -0.013614099472761154 0 0 0 0
2303970144 0.13035735487937927 -0.2757064402103424 -0.016053814440965652 -0.011577708646655083 0 0 0 0
2307692228 0.09159620106220245 -0.2771815061569214 -0.01796993985772133 -0.008456820622086525 0 0 0 0
2311414312 0.07209191471338272 -0.2712065279483795 -0.01952498033642769 -0.005334355868399143 0 0 0 0
2315136396 0.047390930354595184 -0.2622806429862976 -0.02080988511443138 -0.0020467815920710564 0 0 0 0
2318858480 0.024083241820335388 -0.2519637942314148 -0.021205361932516098 0.0020230580121278763 0 0 0 0
2322580564 0.006696775555610657 -0.2367703914642334 -0.020725179463624954 0.00586953479796648 0 0 0 0
2326302648 -0.013211335055530071 -0.21809574961662292 -0.01913895457983017 0.009445910342037678 0 0 0 0
2330024732 -0.02711695432662964 -0.1974143236875534 -0.017216110602021217 0.01234343834221363 0 0 0 0
2333746816 -0.03808368742465973 -0.17242877185344696 -0.014771430753171444 0.01486515998840332 0 0 0 0
2337468900 -0.04488511383533478 -0.1451660543680191 -0.012055578641593456 0.017126072198152542 0 0 0 0
2341190984 -0.04820610582828522 -0.11470090597867966 -0.009330992586910725 0.01838204637169838 0 0 0 0
2344913068 -0.04143667221069336 -0.08614613860845566 -0.006006116978824139 0.019362647086381912 0 0 0 0
2348635152 -0.03333960473537445 -0.05642949044704437 -0.002780066803097725 0.01951608620584011 0 0 0 0
2352357236 -0.017169009894132614 -0.030598146840929985 9.002257138490677e-05 0.01917501725256443 0 0 0 0
2356079320 0.0034499391913414 -0.007146712392568588 0.0024953503161668777 0.018276650458574295 0 0 0 0
2359801404 0.028352854773402214 0.01114854495972395 0.004653633572161198 0.017695831134915352 0 0 0 0
2363523488 0.056451402604579926 0.024989362806081772 0.006983832456171513 0.017053520306944847 0 0 0 0
2367245572 0.08689726144075394 0.03227851539850235 0.009249955415725708 0.016043083742260933 0 0 0 0
2370967656 0.11700423061847687 0.03374851867556572 0.01159637700766325 0.014756008051335812 0 0 0 0
2374689740 0.14601348340511322 0.03090568259358406 0.01393051352351904 0.013231839053332806 0 0 0 0
2378411824 0.17370805144309998 0.023792989552021027 0.016507120802998543 0.010722091421484947 0 0 0 0
2382133908 0.20072519779205322 0.010208724066615105 0.018212225288152695 0.0070189218968153 0 0 0 0
2385855992 0.2232683002948761 -0.004691969603300095 0.019390802830457687 0.0035055680200457573 0 0 0 0
2389578076 0.24528148770332336 -0.02338721603155136 0.019551917910575867 -0.00041315890848636627 0 0 0 0
2393300160 0.26263129711151123 -0.04556752368807793 0.01878950744867325 -0.004288394935429096 0 0 0 0
2397022244 0.2763613760471344 -0.07178878784179688 0.017077147960662842 -0.008153541013598442 0 0 0 0
2400744328 0.2852397859096527 -0.09917958080768585 0.014207553118467331 -0.011322136037051678 0 0 0 0
2404466412 0.289700448513031 -0.1297774612903595 0.010658422484993935 -0.013302195817232132 0 0 0 0
2408188496 0.28874924778938293 -0.15862512588500977 0.0072861602529883385 -0.014120806008577347 0 0 0 0
2411910580 0.28579452633857727 -0.18560610711574554 0.004293693229556084 -0.014262917451560497 0 0 0 0
2415632664 0.2756595313549042 -0.21170176565647125 0.0012558968737721443 -0.013868693262338638 0 0 0 0
2419354748 0.26341283321380615 -0.2348620593547821 -0.0008864477276802063 -0.012886633165180683 0 0 0 0
2423076832 0.24710604548454285 -0.2555254101753235 -0.002875552512705326 -0.01157202199101448 0 0 0 0
2426798916 0.2252635359764099 -0.27801448106765747 -0.004185107536613941 -0.0101022869348526 0 0 0 0
2430521000 0.20301637053489685 -0.29236656427383423 -0.0052352286875247955 -0.008708612062036991 0 0 0 0
2434243084 0.18006494641304016 -0.30345940589904785 -0.006021270528435707 -0.007583035156130791 0 0 0 0
2437965168 0.1562231183052063 -0.3107571005821228 -0.0065185874700546265 -0.0063644275069236755 0 0 0 0
2441687252 0.1320430338382721 -0.31486058235168457 -0.006785403937101364 -0.005221044644713402 0 0 0 0
2445409336 0.10788491368293762 -0.31845125555992126 -0.007053571753203869 -0.004159032367169857 0 0 0 0
2449131420 0.08258581161499023 -0.31687045097351074 -0.007280772551894188 -0.003510691225528717 0 0 0 0
2452853504 0.05497300624847412 -0.3124921917915344 -0.007534554228186607 -0.002266642637550831 0 0 0 0
2456575588 0.028269000351428986 -0.3040269911289215 -0.007237490266561508 -0.0010663168504834175 0 0 0 0
2460297672 0.005495801568031311 -0.2908436954021454 -0.007527134381234646 -0.00024650339037179947 0 0 0 0
2464019756 -0.016413934528827667 -0.2734576463699341 -0.006961098872125149 0.0009438581764698029 0 0 0 0
2467741840 -0.03756019473075867 -0.25253748893737793 -0.0065302299335598946 0.0017303237691521645 0 0 0 0
2471463924 -0.05033675581216812 -0.23105397820472717 -0.006005859933793545 0.002546966075897217 0 0 0 0
2475186008 -0.06452788412570953 -0.20632070302963257 -0.00500432588160038 0.0032739704474806786 0 0 0 0
2478908092 -0.07239597290754318 -0.18102644383907318 -0.0038343677297234535 0.0035217618569731712 0 0 0 0
2482630176 -0.0768624097108841 -0.15278835594654083 -0.002929108217358589 0.003202374093234539 0 0 0 0
2486352260 -0.0775405764579773 -0.12477025389671326 -0.0024876669049263 0.002840464934706688 0 0 0 0
2490074344 -0.07431439310312271 -0.09577981382608414 -0.0022722482681274414 0.0025808094069361687 0 0 0 0
2493796428 -0.06416815519332886 -0.0693025216460228 -0.002147412858903408 0.002330261282622814 0 0 0 0
2497518512 -0.05150998383760452 -0.04393177852034569 -0.0018978305160999298 0.0022170227020978928 0 0 0 0
2501240596 -0.034703996032476425 -0.022028950974345207 -0.001933039166033268 0.002220790833234787 0 0 0 0
2504962680 -0.01522517204284668 -0.0033546434715390205 -0.0018219519406557083 0.0023257220163941383 0 0 0 0
2508684764 0.0070260753855109215 0.012862998992204666 -0.001460048370063305 0.0022138385102152824 0 0 0 0
2512406848 0.031213779002428055 0.024433953687548637 -0.0010898690670728683 0.0019543329253792763 0 0 0 0
2516128932 0.056283071637153625 0.03216243162751198 -0.0011987658217549324 0.0015858085826039314 0 0 0 0
2519851016 0.08166664838790894 0.036408793181180954 -0.0016280459240078926 0.0013526156544685364 0 0 0 0
2523573100 0.10715598613023758 0.03539174050092697 -0.0019071456044912338 0.0014551952481269836 0 0 0 0
2527295184 0.1315394788980484 0.03354348614811897 -0.002368491142988205 0.0012743212282657623 0 0 0 0
2531017268 0.15492947399616241 0.026139091700315475 -0.002868584357202053 0.001790076494216919 0 0 0 0
2534739352 0.17644309997558594 0.015083082020282745 -0.0033092116937041283 0.002568255178630352 0 0 0 0
2538461436 0.19718274474143982 0.001639239490032196 -0.0033082133159041405 0.003406766802072525 0 0 0 0
2542183520 0.21487557888031006 -0.011951372027397156 -0.003017672337591648 0.004301073029637337 0 0 0 0
2545905604 0.22931814193725586 -0.0325932577252388 -0.0027108490467071533 0.005283289588987827 0 0 0 0
2549627688 0.2399221807718277 -0.05212055519223213 -0.0021533388644456863 0.006435000337660313 0 0 0 0
2553349772 0.24721388518810272 -0.07329057157039642 -0.0008936002850532532 0.007820026949048042 0 0 0 0
2557071856 0.25075531005859375 -0.09337800741195679 0.0010652728378772736 0.008523169904947281 0 0 0 0
2560793940 0.25445494055747986 -0.1118677407503128 0.0032865526154637337 0.008655454963445663 0 0 0 0
2564516024 0.25437131524086 -0.1330091506242752 0.005649413913488388 0.007861011661589146 0 0 0 0
2568238108 0.2515277862548828 -0.1511680632829666 0.00720761064440012 0.0063626328483223915 0 0 0 0
2571960192 0.24694737792015076 -0.16844649612903595 0.00828512292355299 0.0046705640852451324 0 0 0 0
2575682276 0.2381996214389801 -0.18957826495170593 0.008993368595838547 0.002868184819817543 0 0 0 0
2579404360 0.22858074307441711 -0.2050131857395172 0.009382066316902637 0.0011912733316421509 0 0 0 0
2583126444 0.2152203917503357 -0.22166189551353455 0.00945407897233963 -0.00046578701585531235 0 0 0 0
2586848528 0.20080254971981049 -0.23615959286689758 0.009455031715333462 -0.0019425787031650543 0 0 0 0
2590570612 0.18352465331554413 -0.24657584726810455 0.009266218170523643 -0.003653617575764656 0 0 0 0
2594292696 0.16532409191131592 -0.25266578793525696 0.009053274989128113 -0.005297506228089333 0 0 0 0
2598014780 0.14653527736663818 -0.2571363151073456 0.008474708534777164 -0.007292834110558033 0 0 0 0
2601736864 0.12946198880672455 -0.25798720121383667 0.007180503569543362 -0.009091847576200962 0 0 0 0
2605458948 0.11014608293771744 -0.25609344244003296 0.00559513084590435 -0.010516509413719177 0 0 0 0
2609181032 0.09246137738227844 -0.2540314793586731 0.0037629203870892525 -0.011941169388592243 0 0 0 0
2612903116 0.07819439470767975 -0.2472725510597229 0.0017448030412197113 -0.012729750946164131 0 0 0 0
2616625200 0.06017191335558891 -0.23954208195209503 -0.0005578938871622086 -0.013604197651147842 0 0 0 0
2620347284 0.04777918756008148 -0.22919942438602448 -0.0033810930326581 -0.013976924121379852 0 0 0 0
2624069368 0.036835432052612305 -0.2161366492509842 -0.006416573189198971 -0.013159891590476036 0 0 0 0
2627791452 0.03019942343235016 -0.20141169428825378 -0.008690264075994492 -0.011801887303590775 0 0 0 0
2631513536 0.02295100688934326 -0.1868278682231903 -0.010749123059213161 -0.010036982595920563 0 0 0 0
2635235620 0.019598007202148438 -0.1718880832195282 -0.012244259007275105 -0.008031337521970272 0 0 0 0
2638957704 0.021326124668121338 -0.15838848054409027 -0.013540570624172688 -0.005918888375163078 0 0 0 0
2642679788 0.02029401808977127 -0.14338251948356628 -0.014466868713498116 -0.0031391019001603127 0 0 0 0
2646401872 0.026962831616401672 -0.12979069352149963 -0.014803032390773296 -0.0007992107421159744 0 0 0 0
2650123956 0.03281138092279434 -0.11773093789815903 -0.014815520495176315 0.002001287415623665 0 0 0 0
2653846040 0.040068209171295166 -0.10821781307458878 -0.01413181982934475 0.004644681699573994 0 0 0 0
2657568124 0.050666358321905136 -0.10066144168376923 -0.012895825318992138 0.0073460061103105545 0 0 0 0
2661290208 0.06220966950058937 -0.09532558917999268 -0.01111435703933239 0.009451414458453655 0 0 0 0
2665012292 0.07181967794895172 -0.09320218861103058 -0.008889651857316494 0.011057252064347267 0 0 0 0
2668734376 0.08237346261739731 -0.09156378358602524 -0.006427298299968243 0.012300554662942886 0 0 0 0
2672456460 0.09300661832094193 -0.09189437329769135 -0.00418650358915329 0.013033343479037285 0 0 0 0
2676178544 0.10321348160505295 -0.09522745758295059 -0.0016946187242865562 0.01354291196912527 0 0 0 0
2679900628 0.1122996062040329 -0.10167112201452255 0.0012317337095737457 0.013496710918843746 0 0 0 0
2683622712 0.1208200603723526 -0.10738213360309601 0.004020193591713905 0.012396781705319881 0 0 0 0
2687344796 0.12683847546577454 -0.1153264045715332 0.006450425833463669 0.010915175080299377 0 0 0 0
2691066880 0.1301412731409073 -0.12545841932296753 0.008142337203025818 0.008895865641534328 0 0 0 0
2694788964 0.13110753893852234 -0.13550685346126556 0.009359576739370823 0.00646666344255209 0 0 0 0
2698511048 0.13364717364311218 -0.1450382024049759 0.009896675124764442 0.004043612629175186 0 0 0 0
2702233132 0.1299126148223877 -0.15684980154037476 0.009731365367770195 0.0018394812941551208 0 0 0 0
2705955216 0.12403739988803864 -0.16687875986099243 0.009217243641614914 0.0001017330214381218 0 0 0 0
2709677300 0.11577359586954117 -0.17570346593856812 0.008643729612231255 -0.0013543004170060158 0 0 0 0
2713399384 0.10643963515758514 -0.18335020542144775 0.007771946489810944 -0.0025199465453624725 0 0 0 0
2717121468 0.09497030079364777 -0.18936413526535034 0.006843359209597111 -0.003329586237668991 0 0 0 0
2720843552 0.08527547121047974 -0.19118690490722656 0.0062741441652178764 -0.0037844041362404823 0 0 0 0
2724565636 0.06826362758874893 -0.1932394653558731 0.005972947925329208 -0.004530065692961216 0 0 0 0
2728287720 0.054204054176807404 -0.1907637119293213 0.0055475374683737755 -0.005416509695351124 0 0 0 0
2732009804 0.04193062335252762 -0.18536806106567383 0.005241105332970619 -0.006681370548903942 0 0 0 0
2735731888 0.02727567031979561 -0.1771465688943863 0.003963642753660679 -0.008164829574525356 0 0 0 0
2739453972 0.017856724560260773 -0.16754741966724396 0.0022578686475753784 -0.009184790775179863 0 0 0 0
2743176056 0.00563434511423111 -0.15397386252880096 0.0001668957993388176 -0.00978505052626133 0 0 0 0
2746898140 -0.002128925174474716 -0.1389874517917633 -0.002144533209502697 -0.009656047448515892 0 0 0 0
2750620224 -0.006694253534078598 -0.12220233678817749 -0.0042659817263484 -0.008837315253913403 0 0 0 0
2754342308 -0.009436387568712234 -0.10469198226928711 -0.006020877510309219 -0.007403586991131306 0 0 0 0
2758064392 -0.008832544088363647 -0.08597548305988312 -0.007197660394012928 -0.005725405178964138 0 0 0 0
2761786476 -0.003243928775191307 -0.06681462377309799 -0.007737577892839909 -0.003835504874587059 0 0 0 0
2765508560 0.005260190926492214 -0.04732808470726013 -0.007898520678281784 -0.002058223821222782 0 0 0 0
2769230644 0.017082633450627327 -0.03119099698960781 -0.007769839838147163 -0.00043705012649297714 0 0 0 0
2772952728 0.03164604306221008 -0.016616012901067734 -0.007209166884422302 0.0013213073834776878 0 0 0 0
2776674812 0.04957294836640358 -0.003582727164030075 -0.00641405675560236 0.0022883983328938484 0 0 0 0
2780396896 0.0695270523428917 0.005535310134291649 -0.0054277824237942696 0.0031784530729055405 0 0 0 0
2784118980 0.09102455526590347 0.011683734133839607 -0.004460149444639683 0.004109004512429237 0 0 0 0
2787841064 0.11393065750598907 0.012666739523410797 -0.0032136766240000725 0.004687962122261524 0 0 0 0
2791563148 0.13729429244995117 0.010165028274059296 -0.0018744077533483505 0.004977469332516193 0 0 0 0
2795285232 0.1595909297466278 0.004545256495475769 -0.000783408060669899 0.004696455784142017 0 0 0 0
2799007316 0.180179625749588 -0.006664391607046127 0.00017561949789524078 0.004347742535173893 0 0 0 0
2802729400 0.19955655932426453 -0.01853007823228836 0.0010199537500739098 0.0040765199810266495 0 0 0 0
2806451484 0.21679793298244476 -0.032864853739738464 0.0018736319616436958 0.0035617630928754807 0 0 0 0
2810173568 0.23122146725654602 -0.04967927187681198 0.002503877505660057 0.00289127416908741 0 0 0 0
2813895652 0.24443139135837555 -0.0706494078040123 0.002995411865413189 0.002192562445998192 0 0 0 0
2817617736 0.25311750173568726 -0.09309641271829605 0.0032725417986512184 0.0013531018048524857 0 0 0 0
2821339820 0.2598402798175812 -0.11783203482627869 0.0035725245252251625 0.0006191320717334747 0 0 0 0
2825061904 0.26380157470703125 -0.14279142022132874 0.0036885039880871773 -0.00013211555778980255 0 0 0 0
2828783988 0.26320675015449524 -0.1662112921476364 0.003648115321993828 -0.0009985687211155891 0 0 0 0
2832506072 0.2573770582675934 -0.19221146404743195 0.003317362628877163 -0.0018914416432380676 0 0 0 0
2836228156 0.2468065619468689 -0.21762153506278992 0.002702317200601101 -0.0026038996875286102 0 0 0 0
2839950240 0.23252761363983154 -0.24121299386024475 0.0018694447353482246 -0.0031779827550053596 0 0 0 0
2843672324 0.2199476659297943 -0.258945494890213 0.0012453077360987663 -0.003392782062292099 0 0 0 0
2847394408 0.20194309949874878 -0.27676987648010254 0.0007125800475478172 -0.0034267008304595947 0 0 0 0
2851116492 0.18180014193058014 -0.2933776378631592 -4.832260310649872e-05 -0.0035673649981617928 0 0 0 0
2854838576 0.15944555401802063 -0.3065558969974518 -0.0005992604419589043 -0.00345485657453537 0 0 0 0
2858560660 0.14040307700634003 -0.3186061680316925 -0.0010684952139854431 -0.0035494286566972733 0 0 0 0
2862282744 0.11040312051773071 -0.32523757219314575 -0.0016605965793132782 -0.003045095130801201 0 0 0 0
2866004828 0.08594740927219391 -0.3283969759941101 -0.0019287271425127983 -0.002676638774573803 0 0 0 0
2869726912 0.05873356759548187 -0.3284606635570526 -0.0020732106640934944 -0.002213185653090477 0 0 0 0
2873448996 0.03254784643650055 -0.32441920042037964 -0.0021745869889855385 -0.001970509998500347 0 0 0 0
2877171080 0.006688348948955536 -0.3173186480998993 -0.002416638657450676 -0.0018390733748674393 0 0 0 0
2880893164 -0.018283292651176453 -0.3088744580745697 -0.002707487903535366 -0.0016012312844395638 0 0 0 0
2884615248 -0.041536979377269745 -0.29381513595581055 -0.0030469372868537903 -0.00118991918861866 0 0 0 0
2888337332 -0.06560929864645004 -0.2753535211086273 -0.0033878209069371223 -0.0005472013726830482 0 0 0 0
2892059416 -0.08164537698030472 -0.25682443380355835 -0.003583052195608616 0.000199844129383564 0 0 0 0
2895781500 -0.09762988239526749 -0.23376305401325226 -0.003470919094979763 0.0011461004614830017 0 0 0 0
2899503584 -0.10978719592094421 -0.2090092897415161 -0.003218015655875206 0.0019887033849954605 0 0 0 0
2903225668 -0.11999305337667465 -0.18409015238285065 -0.0026846565306186676 0.002870408818125725 0 0 0 0
2906947752 -0.1263445019721985 -0.15798009932041168 -0.0019383002072572708 0.00366347748786211 0 0 0 0
2910669836 -0.1295739710330963 -0.13077899813652039 -0.0008338931947946548 0.004112205468118191 0 0 0 0
2914391920 -0.1275266855955124 -0.10329762101173401 0.00038826558738946915 0.004160171374678612 0 0 0 0
2918114004 -0.12265526503324509 -0.07670467346906662 0.0014790091663599014 0.003994450904428959 0 0 0 0
2921836088 -0.11597523838281631 -0.049036137759685516 0.0022718962281942368 0.003499826416373253 0 0 0 0
2925558172 -0.10358908772468567 -0.023279305547475815 0.0030340272933244705 0.0028884299099445343 0 0 0 0
2929280256 -0.08882689476013184 -5.155801773071289e-06 0.00363075640052557 0.0022887587547302246 0 0 0 0
2933002340 -0.07027221471071243 0.019837496802210808 0.003960843198001385 0.0014900807291269302 0 0 0 0
2936724424 -0.04971860349178314 0.038675177842378616 0.004265869036316872 0.0008092308416962624 0 0 0 0
2940446508 -0.026773681864142418 0.05335010215640068 0.004234163090586662 -2.2531487047672272e-05 0 0 0 0
2944168592 -0.0016743876039981842 0.06484835594892502 0.0041666701436042786 -0.0008048871532082558 0 0 0 0
2947890676 0.023301195353269577 0.0727139487862587 0.004046429879963398 -0.0014000767841935158 0 0 0 0
2951612760 0.05043639987707138 0.0762583315372467 0.0036318423226475716 -0.0019948668777942657 0 0 0 0
2955334844 0.07445696741342545 0.0779818519949913 0.0031366292387247086 -0.0023640189319849014 0 0 0 0
2959056928 0.09938883036375046 0.0757899284362793 0.0027243075892329216 -0.002555576153099537 0 0 0 0
2962779012 0.12414249777793884 0.06977201998233795 0.0022509945556521416 -0.002584063448011875 0 0 0 0
2966501096 0.1470407247543335 0.06127240136265755 0.0021758899092674255 -0.0028005922213196754 0 0 0 0
2970223180 0.1700773537158966 0.050881482660770416 0.0017156843096017838 -0.003024585545063019 0 0 0 0
2973945264 0.19038169085979462 0.03790473937988281 0.0014682188630104065 -0.003264930099248886 0 0 0 0
2977667348 0.2095767706632614 0.019609622657299042 0.001175643876194954 -0.00336400605738163 0 0 0 0
2981389432 0.22573497891426086 0.0037916256114840508 0.0008732900023460388 -0.0036953845992684364 0 0 0 0
2985111516 0.23837989568710327 -0.01625201478600502 3.877934068441391e-05 -0.0037729712203145027 0 0 0 0
2988833600 0.24944576621055603 -0.03921616077423096 -0.0005705282092094421 -0.0036088507622480392 0 0 0 0
2992555684 0.2579214572906494 -0.0620323047041893 -0.001455835998058319 -0.0032810820266604424 0 0 0 0
2996277768 0.26192277669906616 -0.08261820673942566 -0.001540476456284523 -0.0028510596603155136 0 0 0 0
2999999852 0.26347461342811584 -0.10586100816726685 -0.002071150578558445 -0.0023698369041085243 0 0 0 0
