# HZ S RI R 50
1500000000 -0.1522391140460968 0.008511170744895935 0.07255477458238602 -0.03550390154123306 0 0 0 0
1503722084 -0.12462914735078812 0.04212940111756325 0.06303928047418594 -0.04793020337820053 0 0 0 0
1507444168 -0.09077160060405731 0.07038510590791702 0.051474083214998245 -0.05752874165773392 0 0 0 0
1511166252 -0.05206657573580742 0.09350704401731491 0.03735697269439697 -0.06473062187433243 0 0 0 0
1514888336 -0.008354384452104568 0.10965793579816818 0.022470835596323013 -0.06788776069879532 0 0 0 0
1518610420 0.03803897649049759 0.11818965524435043 0.008884191513061523 -0.06705394387245178 0 0 0 0
1522332504 0.08675545454025269 0.11785164475440979 -0.003399820998311043 -0.06362154334783554 0 0 0 0
1526054588 0.13385996222496033 0.11009518057107925 -0.0137912817299366 -0.05822402983903885 0 0 0 0
1529776672 0.18030564486980438 0.09505681693553925 -0.021265648305416107 -0.05195559933781624 0 0 0 0
1533498756 0.2255793660879135 0.07199323922395706 -0.027831582352519035 -0.04429096356034279 0 0 0 0
1537220840 0.26779910922050476 0.04120393097400665 -0.031826697289943695 -0.03704008832573891 0 0 0 0
1540942924 0.3048163056373596 0.00356418639421463 -0.03443446382880211 -0.029907897114753723 0 0 0 0
1544665008 0.33503228425979614 -0.03895794600248337 -0.035651497542858124 -0.02382170781493187 0 0 0 0
1548387092 0.35796448588371277 -0.09197861701250076 -0.036728449165821075 -0.018291357904672623 0 0 0 0
1552109176 0.37460407614707947 -0.14104381203651428 -0.037423647940158844 -0.012723860330879688 0 0 0 0
1555831260 0.38043075799942017 -0.1986187845468521 -0.03725816681981087 -0.0068403081968426704 0 0 0 0
1559553344 0.37855085730552673 -0.2549474537372589 -0.036108337342739105 -0.001327337697148323 0 0 0 0
1563275428 0.3695855140686035 -0.3097374439239502 -0.03406887501478195 0.0033326102420687675 0 0 0 0
1566997512 0.35186052322387695 -0.3642078638076782 -0.03169878199696541 0.007344502955675125 0 0 0 0
1570719596 0.3261694610118866 -0.4152843654155731 -0.02884645201265812 0.010547392070293427 0 0 0 0
1574441680 0.28992706537246704 -0.46412205696105957 -0.025924034416675568 0.013054104521870613 0 0 0 0
1578163764 0.24421438574790955 -0.5066736936569214 -0.02356581576168537 0.015106444247066975 0 0 0 0
1581885848 0.19462773203849792 -0.5397278070449829 -0.021202122792601585 0.017031321302056313 0 0 0 0
1585607932 0.13968788087368011 -0.5659617781639099 -0.018315348774194717 0.01895657181739807 0 0 0 0
1589330016 0.08043685555458069 -0.5855380892753601 -0.015580214560031891 0.02030196413397789 0 0 0 0
1593052100 0.027265962213277817 -0.5960123538970947 -0.013516105711460114 0.021104730665683746 0 0 0 0
1596774184 -0.03322410583496094 -0.5979030132293701 -0.011352657340466976 0.022284777835011482 0 0 0 0
1600496268 -0.09608468413352966 -0.5904774069786072 -0.009463558904826641 0.02396903745830059 0 0 0 0
1604218352 -0.15648572146892548 -0.5730254054069519 -0.00609386432915926 0.025747155770659447 0 0 0 0
1607940436 -0.21635572612285614 -0.5467441082000732 -0.002271072007715702 0.026976091787219048 0 0 0 0
1611662520 -0.2667234539985657 -0.5158585906028748 0.0018688635900616646 0.027452941983938217 0 0 0 0
1615384604 -0.3139953017234802 -0.47521746158599854 0.006209687329828739 0.026942243799567223 0 0 0 0
1619106688 -0.35674381256103516 -0.42843878269195557 0.010468815453350544 0.025769628584384918 0 0 0 0
1622828772 -0.3927094042301178 -0.37563979625701904 0.01461919117718935 0.024093022570014 0 0 0 0
1626550856 -0.4215683043003082 -0.319726824760437 0.0189131461083889 0.02152743563055992 0 0 0 0
1630272940 -0.44425728917121887 -0.25785255432128906 0.02261984720826149 0.01746388152241707 0 0 0 0
1633995024 -0.4605449140071869 -0.19064375758171082 0.025288088247179985 0.012992555275559425 0 0 0 0
1637717108 -0.4647183418273926 -0.12316056340932846 0.02693265490233898 0.008416681550443172 0 0 0 0
1641439192 -0.4599091410636902 -0.05052143335342407 0.027773691341280937 0.0030736206099390984 0 0 0 0
1645161276 -0.44274646043777466 0.019741758704185486 0.027276314795017242 -0.00228837039321661 0 0 0 0
1648883360 -0.41371747851371765 0.08968248963356018 0.02572581171989441 -0.007083260454237461 0 0 0 0
1652605444 -0.37459275126457214 0.15424373745918274 0.02329166606068611 -0.011570188216865063 0 0 0 0
1656327528 -0.32545748353004456 0.21143868565559387 0.02007400244474411 -0.01526676956564188 0 0 0 0
1660049612 -0.2655869424343109 0.26199719309806824 0.016301726922392845 -0.018058571964502335 0 0 0 0
1663771696 -0.20126508176326752 0.30138832330703735 0.012159792706370354 -0.019820408895611763 0 0 0 0
1667493780 -0.1320127248764038 0.3327118158340454 0.0081214290112257 -0.020977530628442764 0 0 0 0
1671215864 -0.05320987105369568 0.3545633554458618 0.00349543709307909 -0.02133958972990513 0 0 0 0
1674937948 0.02336966246366501 0.365500807762146 -0.0006612483412027359 -0.020370719954371452 0 0 0 0
1678660032 0.10554894804954529 0.3630663752555847 -0.004173852503299713 -0.01850782334804535 0 0 0 0
1682382116 0.18744423985481262 0.3463629186153412 -0.007014650851488113 -0.01637156493961811 0 0 0 0
1686104200 0.26515763998031616 0.3174585700035095 -0.009364228695631027 -0.013677245005965233 0 0 0 0
1689826284 0.3373209834098816 0.27793678641319275 -0.010671869851648808 -0.010532427579164505 0 0 0 0
1693548368 0.4028065800666809 0.22312530875205994 -0.01103677973151207 -0.007497227750718594 0 0 0 0
1697270452 0.45765912532806396 0.16024111211299896 -0.010527145117521286 -0.004962053149938583 0 0 0 0
1700992536 0.5016067624092102 0.09026173502206802 -0.009738229215145111 -0.0032304152846336365 0 0 0 0
1704714620 0.5342272520065308 0.010746389627456665 -0.009052146226167679 -0.0017850399017333984 0 0 0 0
1708436704 0.5539249777793884 -0.06492256373167038 -0.008220384828746319 -0.0006326138973236084 0 0 0 0
1712158788 0.5596681833267212 -0.1465281844139099 -0.007098168134689331 0.0002502351999282837 0 0 0 0
1715880872 0.5542608499526978 -0.22762377560138702 -0.006148332729935646 0.0007196255028247833 0 0 0 0
1719602956 0.5327259302139282 -0.3059995770454407 -0.00514762569218874 0.0010306481271982193 0 0 0 0
1723325040 0.5070629715919495 -0.37394770979881287 -0.0043037086725234985 0.0009204661473631859 0 0 0 0
1727047124 0.46669843792915344 -0.44168171286582947 -0.003708205185830593 0.0005000671371817589 0 0 0 0
1730769208 0.41309574246406555 -0.502034604549408 -0.0035348832607269287 -7.3267146944999695e-06 0 0 0 0
1734491292 0.3551468551158905 -0.5515974760055542 -0.0036543309688568115 -0.00033721234649419785 0 0 0 0
1738213376 0.29314300417900085 -0.5926461219787598 -0.0040677450597286224 -0.0005762828513979912 0 0 0 0
1741935460 0.22368967533111572 -0.6202055215835571 -0.004361867904663086 -0.0005645593628287315 0 0 0 0
1745657544 0.15526071190834045 -0.6356720924377441 -0.004877182655036449 -0.0005973633378744125 0 0 0 0
1749379628 0.08409951627254486 -0.6421620845794678 -0.005534621886909008 -0.0001934906467795372 0 0 0 0
1753101712 0.01185491681098938 -0.6364774703979492 -0.005985591560602188 0.00040720775723457336 0 0 0 0
1756823796 -0.053502216935157776 -0.6213261485099792 -0.006325453519821167 0.00090022012591362 0 0 0 0
1760545880 -0.11716878414154053 -0.5941618084907532 -0.0067638494074344635 0.001554303802549839 0 0 0 0
1764267964 -0.17409949004650116 -0.5600025653839111 -0.006946519948542118 0.0024353740736842155 0 0 0 0
1767990048 -0.22605936229228973 -0.5190992951393127 -0.007032157853245735 0.00335047859698534 0 0 0 0
1771712132 -0.26335370540618896 -0.475455105304718 -0.007248579524457455 0.003906744532287121 0 0 0 0
1775434216 -0.298997700214386 -0.42305630445480347 -0.007669195532798767 0.004716301336884499 0 0 0 0
1779156300 -0.32473671436309814 -0.3701901137828827 -0.00823406782001257 0.00599035806953907 0 0 0 0
1782878384 -0.34506601095199585 -0.31375056505203247 -0.00878044031560421 0.007854273542761803 0 0 0 0
1786600468 -0.3571545481681824 -0.2545005977153778 -0.0084718968719244 0.010565733537077904 0 0 0 0
1790322552 -0.3580275774002075 -0.2003394365310669 -0.007674574851989746 0.013101596385240555 0 0 0 0
1794044636 -0.3544100821018219 -0.13742028176784515 -0.005819498561322689 0.015769781544804573 0 0 0 0
1797766720 -0.34092089533805847 -0.08113175630569458 -0.003442005254328251 0.01826578564941883 0 0 0 0
1801488804 -0.31916868686676025 -0.028070278465747833 -0.00047260895371437073 0.020816124975681305 0 0 0 0
1805210888 -0.29036569595336914 0.02462559938430786 0.004104239866137505 0.022887423634529114 0 0 0 0
1808932972 -0.2534542679786682 0.06922746449708939 0.00975799560546875 0.02378704771399498 0 0 0 0
1812655056 -0.2086218297481537 0.10899759829044342 0.015804631635546684 0.022761601954698563 0 0 0 0
1816377140 -0.1564931571483612 0.139076367020607 0.021626625210046768 0.020060010254383087 0 0 0 0
1820099224 -0.10143020749092102 0.15881815552711487 0.027095990255475044 0.01597430929541588 0 0 0 0
1823821308 -0.045783691108226776 0.16855990886688232 0.0316733717918396 0.009660901501774788 0 0 0 0
1827543392 0.008379276841878891 0.16954970359802246 0.03398154675960541 0.0022398224100470543 0 0 0 0
1831265476 0.06000770255923271 0.16151094436645508 0.03413120284676552 -0.005717212334275246 0 0 0 0
1834987560 0.10935412347316742 0.14605556428432465 0.03204458951950073 -0.01314538437873125 0 0 0 0
1838709644 0.15448078513145447 0.12449982017278671 0.02818591520190239 -0.0193590447306633 0 0 0 0
1842431728 0.1939355731010437 0.09652018547058105 0.023862499743700027 -0.02405003271996975 0 0 0 0
1846153812 0.22762320935726166 0.061771929264068604 0.018695078790187836 -0.027971936389803886 0 0 0 0
1849875896 0.25381219387054443 0.02710014581680298 0.013527978211641312 -0.03042544052004814 0 0 0 0
1853597980 0.27492669224739075 -0.012882379814982414 0.007687394507229328 -0.03197271749377251 0 0 0 0
1857320064 0.2893756926059723 -0.05250541865825653 0.0025082211941480637 -0.032521333545446396 0 0 0 0
1861042148 0.2957569658756256 -0.09504570811986923 -0.002441403456032276 -0.03277037292718887 0 0 0 0
1864764232 0.2944716215133667 -0.13609053194522858 -0.0077688442543148994 -0.032865580171346664 0 0 0 0
1868486316 0.288213849067688 -0.17424438893795013 -0.014021895825862885 -0.031653646379709244 0 0 0 0
1872208400 0.2771056294441223 -0.21031078696250916 -0.019550273194909096 -0.028991756960749626 0 0 0 0
1875930484 0.2617727518081665 -0.2427775263786316 -0.02462966926395893 -0.0252146665006876 0 0 0 0
1879652568 0.23897330462932587 -0.2733839154243469 -0.02870931476354599 -0.020687101408839226 0 0 0 0
1883374652 0.2143927365541458 -0.30023616552352905 -0.03213147819042206 -0.01611209288239479 0 0 0 0
1887096736 0.1834043562412262 -0.32182207703590393 -0.035327084362506866 -0.010848598554730415 0 0 0 0
1890818820 0.1517711579799652 -0.33529162406921387 -0.037602029740810394 -0.004357399418950081 0 0 0 0
1894540904 0.11858408898115158 -0.3436160683631897 -0.038640096783638 0.0023231366649270058 0 0 0 0
1898262988 0.0846429243683815 -0.3450656533241272 -0.038096945732831955 0.009999760426580906 0 0 0 0
1901985072 0.04940112680196762 -0.34060007333755493 -0.035534199327230453 0.01730293780565262 0 0 0 0
1905707156 0.019917652010917664 -0.32985708117485046 -0.03129717707633972 0.023349754512310028 0 0 0 0
1909429240 -0.006856679916381836 -0.3159341812133789 -0.02692960575222969 0.028354838490486145 0 0 0 0
1913151324 -0.029086925089359283 -0.2984532415866852 -0.02219458669424057 0.03276260197162628 0 0 0 0
1916873408 -0.0499928742647171 -0.2771439552307129 -0.016030384227633476 0.03682773932814598 0 0 0 0
1920595492 -0.06473875790834427 -0.2534118890762329 -0.009297569282352924 0.03992496430873871 0 0 0 0
1924317576 -0.07439713925123215 -0.22772645950317383 -0.0014257291331887245 0.04147518053650856 0 0 0 0
1928039660 -0.08053620904684067 -0.2014535516500473 0.006989782676100731 0.04097619280219078 0 0 0 0
1931761744 -0.08361062407493591 -0.1750408113002777 0.014785263687372208 0.03834863752126694 0 0 0 0
1935483828 -0.08311662822961807 -0.14806637167930603 0.022050973027944565 0.03413688763976097 0 0 0 0
1939205912 -0.07695545256137848 -0.12134508788585663 0.027388598769903183 0.0287432000041008 0 0 0 0
1942927996 -0.06601281464099884 -0.09507277607917786 0.031114941462874413 0.02251824550330639 0 0 0 0
1946650080 -0.051015421748161316 -0.0713934525847435 0.03377185016870499 0.016767585650086403 0 0 0 0
1950372164 -0.03067159652709961 -0.05087381601333618 0.035541463643312454 0.011356670409440994 0 0 0 0
1954094248 -0.006997452117502689 -0.034557368606328964 0.03751832991838455 0.0052634477615356445 0 0 0 0
1957816332 0.019953260198235512 -0.02297840267419815 0.03851468116044998 -0.001562553457915783 0 0 0 0
1961538416 0.04910753667354584 -0.01661658100783825 0.03769534081220627 -0.009128408506512642 0 0 0 0
1965260500 0.07828430831432343 -0.016352642327547073 0.035009853541851044 -0.01601909101009369 0 0 0 0
1968982584 0.10698676854372025 -0.023149654269218445 0.030899817124009132 -0.022442296147346497 0 0 0 0
1972704668 0.13281865417957306 -0.03468051552772522 0.02616247721016407 -0.02749619260430336 0 0 0 0
1976426752 0.1563619077205658 -0.04955793172121048 0.020529333502054214 -0.03200530260801315 0 0 0 0
1980148836 0.17592644691467285 -0.06885556876659393 0.014170320704579353 -0.03573565185070038 0 0 0 0
1983870920 0.19237279891967773 -0.09164430946111679 0.006588133983314037 -0.037303753197193146 0 0 0 0
1987593004 0.2031129002571106 -0.11706843972206116 -0.0011022798717021942 -0.037642933428287506 0 0 0 0
1991315088 0.20810838043689728 -0.144566148519516 -0.008247875608503819 -0.036276668310165405 0 0 0 0
1995037172 0.20870384573936462 -0.17118807137012482 -0.015212959609925747 -0.033395711332559586 0 0 0 0
1998759256 0.20445121824741364 -0.19725309312343597 -0.020666567608714104 -0.028804033994674683 0 0 0 0
2002481340 0.19706584513187408 -0.2214774340391159 -0.02455020882189274 -0.02387736551463604 0 0 0 0
2006203424 0.18327462673187256 -0.24412569403648376 -0.027299238368868828 -0.019235415384173393 0 0 0 0
2009925508 0.16653966903686523 -0.26296764612197876 -0.029854485765099525 -0.014666748233139515 0 0 0 0
2013647592 0.15048757195472717 -0.27799201011657715 -0.03144504129886627 -0.010064135305583477 0 0 0 0
2017369676 0.12704777717590332 -0.29305699467658997 -0.03315070644021034 -0.0051317159086465836 0 0 0 0
2021091760 0.10261279344558716 -0.3026518225669861 -0.034158337861299515 0.001080373302102089 0 0 0 0
2024813844 0.07995712757110596 -0.3086372911930084 -0.03378919139504433 0.0074874358251690865 0 0 0 0
2028535928 0.05066277086734772 -0.3116634786128998 -0.031468119472265244 0.014169528149068356 0 0 0 0
2032258012 0.025626733899116516 -0.30843397974967957 -0.028414100408554077 0.01961318776011467 0 0 0 0
2035980096 -0.00011343508958816528 -0.300718754529953 -0.023981304839253426 0.024033449590206146 0 0 0 0
2039702180 -0.027674436569213867 -0.2887142300605774 -0.019013017416000366 0.027284687384963036 0 0 0 0
2043424264 -0.04895932227373123 -0.2721753418445587 -0.013912418857216835 0.029491400346159935 0 0 0 0
2047146348 -0.06776095926761627 -0.2522871494293213 -0.00893750786781311 0.030829783529043198 0 0 0 0
2050868432 -0.08762118965387344 -0.2281932681798935 -0.0035036038607358932 0.03163261339068413 0 0 0 0
2054590516 -0.10047759115695953 -0.20191261172294617 0.0011726915836334229 0.031687960028648376 0 0 0 0
2058312600 -0.109676294028759 -0.17317965626716614 0.006171759217977524 0.03120514005422592 0 0 0 0
2062034684 -0.11355378478765488 -0.14233513176441193 0.011324520222842693 0.02980095148086548 0 0 0 0
2065756768 -0.1132141724228859 -0.11226394027471542 0.016460081562399864 0.027327436953783035 0 0 0 0
2069478852 -0.1086958646774292 -0.0801062136888504 0.02081058919429779 0.02398102357983589 0 0 0 0
2073200936 -0.09873198717832565 -0.0483601912856102 0.024246130138635635 0.019481033086776733 0 0 0 0
2076923020 -0.08201716840267181 -0.018117109313607216 0.02643498033285141 0.014731578528881073 0 0 0 0
2080645104 -0.06075199320912361 0.00942507479339838 0.027811625972390175 0.010177288204431534 0 0 0 0
2084367188 -0.03391828387975693 0.033406808972358704 0.02863258868455887 0.005938513204455376 0 0 0 0
2088089272 -0.002171095460653305 0.052118610590696335 0.028846779838204384 0.0018437569960951805 0 0 0 0
2091811356 0.03105086088180542 0.06495977938175201 0.029227236285805702 -0.0018893461674451828 0 0 0 0
2095533440 0.06689540296792984 0.07141582667827606 0.029384257271885872 -0.006960463710129261 0 0 0 0
2099255524 0.10246748477220535 0.07266699522733688 0.028726721182465553 -0.011939781717956066 0 0 0 0
2102977608 0.13806822896003723 0.0677649974822998 0.02674807794392109 -0.01788982003927231 0 0 0 0
2106699692 0.17158427834510803 0.057290367782115936 0.022767532616853714 -0.022932566702365875 0 0 0 0
2110421776 0.20487286150455475 0.04112239181995392 0.018257780000567436 -0.026958493515849113 0 0 0 0
2114143860 0.23443728685379028 0.019633911550045013 0.012780333869159222 -0.029708275571465492 0 0 0 0
2117865944 0.2589649558067322 -0.0067357271909713745 0.007204770110547543 -0.03169979900121689 0 0 0 0
2121588028 0.2771707773208618 -0.0342315211892128 0.0009822426363825798 -0.03282742202281952 0 0 0 0
2125310112 0.29198938608169556 -0.067112497985363 -0.005928360857069492 -0.03233393281698227 0 0 0 0
2129032196 0.3020821213722229 -0.10049170255661011 -0.012331170961260796 -0.029859600588679314 0 0 0 0
2132754280 0.3046785593032837 -0.1336057186126709 -0.01791473664343357 -0.025791354477405548 0 0 0 0
2136476364 0.30152133107185364 -0.16934990882873535 -0.02188241481781006 -0.02087893709540367 0 0 0 0
2140198448 0.29557889699935913 -0.20006880164146423 -0.024185029789805412 -0.015620832331478596 0 0 0 0
2143920532 0.285064160823822 -0.2292148768901825 -0.02531048096716404 -0.01110294833779335 0 0 0 0
2147642616 0.26764819025993347 -0.25697311758995056 -0.02560732699930668 -0.006307775154709816 0 0 0 0
2151364700 0.24722632765769958 -0.2807334065437317 -0.025333013385534286 -0.0023450106382369995 0 0 0 0
2155086784 0.22095638513565063 -0.30427223443984985 -0.024686940014362335 0.0013317763805389404 0 0 0 0
2158808868 0.19587738811969757 -0.31851354241371155 -0.023868491873145103 0.0046462006866931915 0 0 0 0
2162530952 0.16714176535606384 -0.32889723777770996 -0.022468483075499535 0.007807900197803974 0 0 0 0
2166253036 0.137024387717247 -0.33576276898384094 -0.020916331559419632 0.01066503394395113 0 0 0 0
2169975120 0.10644102096557617 -0.3373718559741974 -0.019567396491765976 0.01332155242562294 0 0 0 0
2173697204 0.08131005614995956 -0.3337322473526001 -0.01791868545114994 0.016338666900992393 0 0 0 0
2177419288 0.0503222718834877 -0.32839372754096985 -0.015282837674021721 0.019699256867170334 0 0 0 0
2181141372 0.024915948510169983 -0.31770452857017517 -0.011759383603930473 0.022209560498595238 0 0 0 0
2184863456 0.0010133981704711914 -0.30350610613822937 -0.008183739148080349 0.024135718122124672 0 0 0 0
2188585540 -0.021294130012392998 -0.2860602140426636 -0.0038599204272031784 0.02565772645175457 0 0 0 0
2192307624 -0.04065626114606857 -0.2640611529350281 0.0009584873914718628 0.026444505900144577 0 0 0 0
2196029708 -0.05630321055650711 -0.2404245287179947 0.0064169131219387054 0.025908181443810463 0 0 0 0
2199751792 -0.06873032450675964 -0.21540698409080505 0.011265583336353302 0.024152450263500214 0 0 0 0
2203473876 -0.07540979236364365 -0.18683451414108276 0.015393873676657677 0.02130439504981041 0 0 0 0
2207195960 -0.07804153859615326 -0.15883734822273254 0.019155316054821014 0.017235707491636276 0 0 0 0
2210918044 -0.0767107754945755 -0.1274460107088089 0.021410515531897545 0.013164905831217766 0 0 0 0
2214640128 -0.07219302654266357 -0.09597042202949524 0.023124244064092636 0.008486831560730934 0 0 0 0
2218362212 -0.056987084448337555 -0.07124920189380646 0.023619964718818665 0.003609958104789257 0 0 0 0
2222084296 -0.040564436465501785 -0.045847468078136444 0.023006413131952286 -0.0008480781689286232 0 0 0 0
2225806380 -0.019702386111021042 -0.025388341397047043 0.021450620144605637 -0.0051103923469781876 0 0 0 0
2229528464 0.004284648224711418 -0.009328015148639679 0.019753150641918182 -0.008329268544912338 0 0 0 0
2233250548 0.02952861227095127 0.0019518239423632622 0.01752021536231041 -0.011196857318282127 0 0 0 0
2236972632 0.056115418672561646 0.009090826846659184 0.01465020515024662 -0.014014936983585358 0 0 0 0
2240694716 0.08355015516281128 0.011785700917243958 0.011794607155025005 -0.01595773734152317 0 0 0 0
2244416800 0.11032623052597046 0.009701697155833244 0.008530027233064175 -0.017570529133081436 0 0 0 0
2248138884 0.1362636238336563 0.003460538573563099 0.004828859120607376 -0.0184731874614954 0 0 0 0
2251860968 0.160648375749588 -0.004470193758606911 0.0012151394039392471 -0.01867763139307499 0 0 0 0
2255583052 0.18311519920825958 -0.021198011934757233 -0.0025693923234939575 -0.01799604669213295 0 0 0 0
2259305136 0.20186308026313782 -0.04232140630483627 -0.005731851793825626 -0.016412604600191116 0 0 0 0
2263027220 0.21546120941638947 -0.06536854803562164 -0.007997021079063416 -0.014371831901371479 0 0 0 0
2266749304 0.22588323056697845 -0.08648025989532471 -0.009807576425373554 -0.012191425077617168 0 0 0 0
2270471388 0.233676940202713 -0.10719503462314606 -0.010661361739039421 -0.010400176048278809 0 0 0 0
2274193472 0.2348622977733612 -0.13254687190055847 -0.01202930137515068 -0.008657209575176239 0 0 0 0
2277915556 0.2351667881011963 -0.15688636898994446 -0.012857506051659584 -0.006934156641364098 0 0 0 0
2281637640 0.22663328051567078 -0.18258912861347198 -0.01377052627503872 -0.00464607123285532 0 0 0 0
2285359724 0.21591466665267944 -0.20136436820030212 -0.01417907327413559 -0.0029094209894537926 0 0 0 0
2289081808 0.20007437467575073 -0.21935386955738068 -0.014383046887814999 -0.00043637771159410477 0 0 0 0
2292803892 0.18098047375679016 -0.23527421057224274 -0.014062479138374329 0.00210536178201437 0 0 0 0
2296525976 0.1602102518081665 -0.24616149067878723 -0.013127049431204796 0.004334783181548119 0 0 0 0
2300248060 0.14270064234733582 -0.253935843706131 -0.012195316143333912 0.006045599468052387 0 0 0 0
2303970144 0.12343649566173553 -0.2611582279205322 -0.010524515062570572 0.007656114175915718 0 0 0 0
2307692228 0.10127037018537521 -0.261044442653656 -0.00917428731918335 0.008976445533335209 0 0 0 0
2311414312 0.08042469620704651 -0.25997984409332275 -0.007032147608697414 0.010052589699625969 0 0 0 0
2315136396 0.05118521675467491 -0.25550249218940735 -0.004495920613408089 0.01027948223054409 0 0 0 0
2318858480 0.03249094635248184 -0.24612005054950714 -0.0029127895832061768 0.009553407318890095 0 0 0 0
2322580564 0.016270078718662262 -0.23040467500686646 -0.0018623610958456993 0.008670699782669544 0 0 0 0
2326302648 -0.005189776420593262 -0.21276311576366425 -0.0010400163009762764 0.008010038174688816 0 0 0 0
2330024732 -0.016462501138448715 -0.1924271136522293 -0.0005980310961604118 0.007512584328651428 0 0 0 0
2333746816 -0.026635978370904922 -0.16899961233139038 -0.0004355432465672493 0.007191916927695274 0 0 0 0
2337468900 -0.033906158059835434 -0.1421985924243927 0.000132756307721138 0.007268356159329414 0 0 0 0
2341190984 -0.03379262983798981 -0.11690708994865417 0.001058422029018402 0.007051018066704273 0 0 0 0
2344913068 -0.028604142367839813 -0.09107676893472672 0.001668849028646946 0.006383856758475304 0 0 0 0
2348635152 -0.021033495664596558 -0.06557369977235794 0.0019324133172631264 0.005682105198502541 0 0 0 0
2352357236 -0.007218429818749428 -0.04335615783929825 0.002092433162033558 0.005129174329340458 0 0 0 0
2356079320 0.009956690482795238 -0.02251405268907547 0.0022370675578713417 0.00493202917277813 0 0 0 0
2359801404 0.029631245881319046 -0.006417275406420231 0.002637033350765705 0.004521641880273819 0 0 0 0
2363523488 0.05324995890259743 0.008060813881456852 0.002811276353895664 0.004223213531076908 0 0 0 0
2367245572 0.07899020612239838 0.01855568401515484 0.0028478065505623817 0.0036225151270627975 0 0 0 0
2370967656 0.10641076415777206 0.022931527346372604 0.0027815885841846466 0.0035253306850790977 0 0 0 0
2374689740 0.13389813899993896 0.023680318146944046 0.0030187424272298813 0.0033182865008711815 0 0 0 0
2378411824 0.16082763671875 0.017411328852176666 0.003309883177280426 0.0029292749240994453 0 0 0 0
2382133908 0.18810170888900757 0.01044677197933197 0.003375076688826084 0.0024026110768318176 0 0 0 0
2385855992 0.2118833214044571 -0.004707179963588715 0.003230505622923374 0.002163529396057129 0 0 0 0
2389578076 0.23355485498905182 -0.022386658936738968 0.002934526652097702 0.0021672705188393593 0 0 0 0
2393300160 0.2506445646286011 -0.04327869415283203 0.0026861093938350677 0.0024167513474822044 0 0 0 0
2397022244 0.2645905613899231 -0.06540066003799438 0.003122437745332718 0.0029968293383717537 0 0 0 0
2400744328 0.2758176922798157 -0.08946419507265091 0.004043903201818466 0.0034225964918732643 0 0 0 0
2404466412 0.282919317483902 -0.11774910241365433 0.005387637764215469 0.003093581646680832 0 0 0 0
2408188496 0.286624550819397 -0.144155353307724 0.006269576959311962 0.002131194807589054 0 0 0 0
2411910580 0.2865549325942993 -0.16867735981941223 0.006973122246563435 0.001073293387889862 0 0 0 0
2415632664 0.27704712748527527 -0.19932949542999268 0.007306096144020557 -0.0003518117591738701 0 0 0 0
2419354748 0.26909396052360535 -0.2229727804660797 0.0075603388249874115 -0.0017421524971723557 0 0 0 0
2423076832 0.2551339864730835 -0.2464262694120407 0.0074195656925439835 -0.00334092415869236 0 0 0 0
2426798916 0.23809891939163208 -0.26949384808540344 0.006902441382408142 -0.0051184725016355515 0 0 0 0
2430521000 0.21884527802467346 -0.28649377822875977 0.005756991915404797 -0.006327521055936813 0 0 0 0
2434243084 0.19541651010513306 -0.3038371801376343 0.004415387287735939 -0.006972169503569603 0 0 0 0
2437965168 0.17106181383132935 -0.31375840306282043 0.003185954876244068 -0.0071543436497449875 0 0 0 0
2441687252 0.14571210741996765 -0.3227306604385376 0.00234339851886034 -0.007385113276541233 0 0 0 0
2445409336 0.11376700550317764 -0.32908958196640015 0.0015862323343753815 -0.007755383849143982 0 0 0 0
2449131420 0.08796018362045288 -0.3305588662624359 0.0010540643706917763 -0.00808520708233118 0 0 0 0
2452853504 0.05693802982568741 -0.3237806260585785 0.0002570226788520813 -0.008779780007898808 0 0 0 0
2456575588 0.02708674967288971 -0.31512731313705444 -0.0008572787046432495 -0.009702444076538086 0 0 0 0
2460297672 0.005111886188387871 -0.3004576563835144 -0.0023747719824314117 -0.010455948300659657 0 0 0 0
2464019756 -0.01900925114750862 -0.28403833508491516 -0.004679570905864239 -0.010777987539768219 0 0 0 0
2467741840 -0.041228849440813065 -0.2635120153427124 -0.006882473826408386 -0.010348436422646046 0 0 0 0
2471463924 -0.05820333957672119 -0.24016165733337402 -0.00870766956359148 -0.009289855137467384 0 0 0 0
2475186008 -0.07337606698274612 -0.214249849319458 -0.01064147986471653 -0.008202919736504555 0 0 0 0
2478908092 -0.08257323503494263 -0.18661707639694214 -0.012312864884734154 -0.0066862162202596664 0 0 0 0
2482630176 -0.08757123351097107 -0.15823021531105042 -0.013901295140385628 -0.004892796277999878 0 0 0 0
2486352260 -0.08960439264774323 -0.12775106728076935 -0.014990498311817646 -0.0025784941390156746 0 0 0 0
2490074344 -0.08793088793754578 -0.09653624892234802 -0.015939127653837204 0.00020530540496110916 0 0 0 0
2493796428 -0.07908574491739273 -0.06736883521080017 -0.01613559015095234 0.0031601665541529655 0 0 0 0
2497518512 -0.06703556329011917 -0.03924446552991867 -0.015552829951047897 0.006250916048884392 0 0 0 0
2501240596 -0.04971285164356232 -0.012681625783443451 -0.014205572195351124 0.008926949463784695 0 0 0 0
2504962680 -0.02799353003501892 0.00985797680914402 -0.012935982085764408 0.011023109778761864 0 0 0 0
2508684764 -0.003006589598953724 0.02890724316239357 -0.011491132900118828 0.013424137607216835 0 0 0 0
2512406848 0.02503771334886551 0.0433889776468277 -0.009103422984480858 0.016074955463409424 0 0 0 0
2516128932 0.05465734377503395 0.05341792851686478 -0.006063817068934441 0.018135588616132736 0 0 0 0
2519851016 0.08573347330093384 0.057278670370578766 -0.0017049424350261688 0.019322484731674194 0 0 0 0
2523573100 0.11622390896081924 0.05627161264419556 0.001980460248887539 0.018952444195747375 0 0 0 0
2527295184 0.1454552561044693 0.04952250421047211 0.0055416421964764595 0.017736000940203667 0 0 0 0
2531017268 0.17238213121891022 0.03692232444882393 0.008638864383101463 0.016246680170297623 0 0 0 0
2534739352 0.19510789215564728 0.0211406871676445 0.011728601530194283 0.014027707278728485 0 0 0 0
2538461436 0.21517562866210938 0.003879595547914505 0.014015455730259418 0.011207887902855873 0 0 0 0
2542183520 0.22993412613868713 -0.014339424669742584 0.015781275928020477 0.008028137497603893 0 0 0 0
2545905604 0.24345183372497559 -0.03710685670375824 0.01688634417951107 0.004596887156367302 0 0 0 0
2549627688 0.2523121237754822 -0.05826879292726517 0.017209898680448532 0.0010019894689321518 0 0 0 0
2553349772 0.2597039043903351 -0.07876604795455933 0.016612229868769646 -0.0028506238013505936 0 0 0 0
2557071856 0.26454317569732666 -0.10320688784122467 0.014867770485579967 -0.006450816057622433 0 0 0 0
2560793940 0.2646216154098511 -0.12285348773002625 0.012244302779436111 -0.008775530382990837 0 0 0 0
2564516024 0.25945737957954407 -0.14793455600738525 0.009686430916190147 -0.010300684720277786 0 0 0 0
2568238108 0.25409889221191406 -0.16612447798252106 0.007096311077475548 -0.011201918125152588 0 0 0 0
2571960192 0.24504491686820984 -0.18413817882537842 0.004709430038928986 -0.01163133792579174 0 0 0 0
2575682276 0.23559805750846863 -0.2011348456144333 0.002501996234059334 -0.01140609011054039 0 0 0 0
2579404360 0.22226259112358093 -0.21633200347423553 0.000700637698173523 -0.010808849707245827 0 0 0 0
2583126444 0.2086506485939026 -0.2285090833902359 -0.0004643229767680168 -0.010426940396428108 0 0 0 0
2586848528 0.19185751676559448 -0.23984050750732422 -0.0020111659541726112 -0.01007593423128128 0 0 0 0
2590570612 0.17471925914287567 -0.24810414016246796 -0.0035833511501550674 -0.009532768279314041 0 0 0 0
2594292696 0.15652123093605042 -0.2546563446521759 -0.004828384146094322 -0.008594855666160583 0 0 0 0
2598014780 0.1360105276107788 -0.2581249475479126 -0.005993934348225594 -0.0074492888525128365 0 0 0 0
2601736864 0.12244831025600433 -0.2580753266811371 -0.006845420226454735 -0.006418328732252121 0 0 0 0
2605458948 0.0999344065785408 -0.2553642988204956 -0.0076927728950977325 -0.0046591246500611305 0 0 0 0
2609181032 0.08339270949363708 -0.25040560960769653 -0.008037080056965351 -0.002892330288887024 0 0 0 0
2612903116 0.06713158637285233 -0.2424638867378235 -0.007668797858059406 -0.0012289825826883316 0 0 0 0
2616625200 0.053037457168102264 -0.2319181263446808 -0.0069532981142401695 6.735045462846756e-05 0 0 0 0
2620347284 0.042016323655843735 -0.21999548375606537 -0.006004738621413708 0.000688609667122364 0 0 0 0
2624069368 0.0322890430688858 -0.20630107820034027 -0.005195909179747105 0.0011787982657551765 0 0 0 0
2627791452 0.026905208826065063 -0.1913372278213501 -0.004264731891453266 0.001287892460823059 0 0 0 0
2631513536 0.024020761251449585 -0.17571288347244263 -0.004090800881385803 0.0010309861972928047 0 0 0 0
2635235620 0.020872950553894043 -0.16161313652992249 -0.004070829600095749 0.001219925470650196 0 0 0 0
2638957704 0.02308359369635582 -0.14574365317821503 -0.0038267802447080612 0.0016369931399822235 0 0 0 0
2642679788 0.027746355161070824 -0.13349807262420654 -0.003129473887383938 0.0019129440188407898 0 0 0 0
2646401872 0.03353021293878555 -0.12178873270750046 -0.0026597222313284874 0.0019245101138949394 0 0 0 0
2650123956 0.04200570285320282 -0.11120616644620895 -0.002176709473133087 0.0016864156350493431 0 0 0 0
2653846040 0.052130021154880524 -0.10187141597270966 -0.0022081509232521057 0.001271781511604786 0 0 0 0
2657568124 0.06301838904619217 -0.09614171087741852 -0.0025269435718655586 0.001243353821337223 0 0 0 0
2661290208 0.07562366127967834 -0.09412607550621033 -0.0027616405859589577 0.00126738753169775 0 0 0 0
2665012292 0.08765559643507004 -0.0939585492014885 -0.002844821661710739 0.0016840668395161629 0 0 0 0
2668734376 0.09791616350412369 -0.09712415188550949 -0.0031235022470355034 0.0019853152334690094 0 0 0 0
2672456460 0.1068432480096817 -0.10364656895399094 -0.002949255518615246 0.0025771353393793106 0 0 0 0
2676178544 0.11415616422891617 -0.10975637286901474 -0.0027173804119229317 0.00344229768961668 0 0 0 0
2679900628 0.11972896009683609 -0.11730881780385971 -0.0020385924726724625 0.00403230357915163 0 0 0 0
2683622712 0.12466380000114441 -0.12442193180322647 -0.0014414265751838684 0.004390660673379898 0 0 0 0
2687344796 0.12427182495594025 -0.13436159491539001 -0.0005176160484552383 0.00454727653414011 0 0 0 0
2691066880 0.12417225539684296 -0.14383353292942047 0.00037859100848436356 0.004512961022555828 0 0 0 0
2694788964 0.12172827869653702 -0.15090179443359375 0.0010904744267463684 0.004488454200327396 0 0 0 0
2698511048 0.12029808759689331 -0.1576017439365387 0.0019691409543156624 0.0043008700013160706 0 0 0 0
2702233132 0.1142064705491066 -0.16501286625862122 0.0030880747362971306 0.004018532112240791 0 0 0 0
2705955216 0.10774680972099304 -0.17230311036109924 0.0040297312662005424 0.0029819076880812645 0 0 0 0
2709677300 0.10068532824516296 -0.17710265517234802 0.004667192697525024 0.0016942387446761131 0 0 0 0
2713399384 0.09204612672328949 -0.1814509928226471 0.004745589569211006 0.0004644552245736122 0 0 0 0
2717121468 0.08091715723276138 -0.18370027840137482 0.004269080236554146 -0.0005439072847366333 0 0 0 0
2720843552 0.06909043341875076 -0.18522712588310242 0.003835241310298443 -0.0013708323240280151 0 0 0 0
2724565636 0.056832849979400635 -0.18404972553253174 0.003222190774977207 -0.0019402140751481056 0 0 0 0
2728287720 0.043491970747709274 -0.17985984683036804 0.0026434632018208504 -0.002174263820052147 0 0 0 0
2732009804 0.035640668123960495 -0.1727498322725296 0.002201213501393795 -0.0022863922640681267 0 0 0 0
2735731888 0.023659277707338333 -0.16323450207710266 0.001919267699122429 -0.0023354561999440193 0 0 0 0
2739453972 0.015413842163980007 -0.15320433676242828 0.0016832686960697174 -0.0025132615119218826 0 0 0 0
2743176056 0.00771297886967659 -0.13992071151733398 0.0014179879799485207 -0.002603054977953434 0 0 0 0
2746898140 0.0030906014144420624 -0.12547990679740906 0.0011982573196291924 -0.0029159067198634148 0 0 0 0
2750620224 0.0004546605050563812 -0.11020570993423462 0.000992732122540474 -0.0030193226411938667 0 0 0 0
2754342308 0.0010360293090343475 -0.09442558884620667 0.0008034240454435349 -0.003424227237701416 0 0 0 0
2758064392 0.004549968987703323 -0.07868795841932297 0.00034510158002376556 -0.004007418639957905 0 0 0 0
2761786476 0.009376352652907372 -0.06247676908969879 -0.0005508065223693848 -0.004091653041541576 0 0 0 0
2765508560 0.017649708315730095 -0.04663195461034775 -0.0015168488025665283 -0.00394547451287508 0 0 0 0
2769230644 0.02944820374250412 -0.03239534795284271 -0.002244122326374054 -0.0034126434475183487 0 0 0 0
2772952728 0.04371503368020058 -0.02035933919250965 -0.00268456619232893 -0.0027486393228173256 0 0 0 0
2776674812 0.05993428826332092 -0.009631423279643059 -0.002787620760500431 -0.0022483346983790398 0 0 0 0
2780396896 0.07772927731275558 -0.0036100223660469055 -0.0029149483889341354 -0.0016793403774499893 0 0 0 0
2784118980 0.09619446843862534 0.0011871233582496643 -0.0030567897483706474 -0.001147630624473095 0 0 0 0
2787841064 0.1159769594669342 0.0025138072669506073 -0.0030765067785978317 -0.00047076307237148285 0 0 0 0
2791563148 0.13713793456554413 0.0018712114542722702 -0.0027162842452526093 -4.821456968784332e-05 0 0 0 0
2795285232 0.15745526552200317 -0.00237119197845459 -0.0023455824702978134 0.00041578710079193115 0 0 0 0
2799007316 0.1785045564174652 -0.01045704260468483 -0.001797509379684925 0.000690782442688942 0 0 0 0
2802729400 0.19808870553970337 -0.023429065942764282 -0.0013537872582674026 0.00041874032467603683 0 0 0 0
2806451484 0.21514318883419037 -0.03911825641989708 -0.0012822914868593216 0.00022638775408267975 0 0 0 0
2810173568 0.23011159896850586 -0.05477885901927948 -0.00144966971129179 0.00024291127920150757 0 0 0 0
2813895652 0.24332930147647858 -0.07603894919157028 -0.0015487512573599815 0.0005737412720918655 0 0 0 0
2817617736 0.25035667419433594 -0.09766525030136108 -0.0014320416375994682 0.0009705349802970886 0 0 0 0
2821339820 0.25429803133010864 -0.12553444504737854 -0.001006278209388256 0.001302114687860012 0 0 0 0
2825061904 0.254278302192688 -0.14756296575069427 -0.00045402999967336655 0.0013621458783745766 0 0 0 0
2828783988 0.25347936153411865 -0.16980502009391785 -7.701199501752853e-05 0.0012295292690396309 0 0 0 0
2832506072 0.24687886238098145 -0.19360144436359406 0.0002212468534708023 0.0009258938953280449 0 0 0 0
2836228156 0.2393585443496704 -0.21508261561393738 0.0004458446055650711 0.0007234020158648491 0 0 0 0
2839950240 0.22623193264007568 -0.23803704977035522 0.0005399025976657867 0.00048672035336494446 0 0 0 0
2843672324 0.21200993657112122 -0.2550921142101288 0.0006451867520809174 0.00020806025713682175 0 0 0 0
2847394408 0.19620220363140106 -0.27258020639419556 0.0005628447979688644 1.992844045162201e-05 0 0 0 0
2851116492 0.17615239322185516 -0.28797388076782227 0.0004288041964173317 -0.00022869929671287537 0 0 0 0
2854838576 0.15577518939971924 -0.2989243268966675 0.00027946848422288895 -0.0001889001578092575 0 0 0 0
2858560660 0.13927718997001648 -0.3072211444377899 0.0003085499629378319 -0.0005183350294828415 0 0 0 0
2862282744 0.10988035798072815 -0.31689131259918213 0.0002422630786895752 -0.00038200244307518005 0 0 0 0
2866004828 0.08633790165185928 -0.3197614848613739 0.00035686884075403214 -0.00038826558738946915 0 0 0 0
2869726912 0.06556297838687897 -0.32040083408355713 0.0005699498578906059 -0.0004229750484228134 0 0 0 0
2873448996 0.03673010692000389 -0.31807011365890503 0.0007684389129281044 -0.0006053559482097626 0 0 0 0
2877171080 0.015856511890888214 -0.31174591183662415 0.0006647501140832901 -0.0008468395099043846 0 0 0 0
2880893164 -0.009966909885406494 -0.302894651889801 0.0005508819594979286 -0.001109084114432335 0 0 0 0
2884615248 -0.032902322709560394 -0.28975698351860046 0.00030082836747169495 -0.0012640831992030144 0 0 0 0
2888337332 -0.052597418427467346 -0.2746812105178833 3.413856029510498e-05 -0.0010655280202627182 0 0 0 0
2892059416 -0.07278158515691757 -0.25683921575546265 -8.195638656616211e-05 -0.0009786076843738556 0 0 0 0
2895781500 -0.08853814005851746 -0.23691686987876892 -0.00036263279616832733 -0.000855129212141037 0 0 0 0
2899503584 -0.10415033996105194 -0.21351203322410583 -0.000419076532125473 -0.0005499618127942085 0 0 0 0
2903225668 -0.11569222807884216 -0.1869419515132904 -0.0003012940287590027 -0.00016573816537857056 0 0 0 0
2906947752 -0.122355155646801 -0.16007328033447266 3.555230796337128e-05 -5.645770579576492e-05 0 0 0 0
2910669836 -0.12327244132757187 -0.1351219266653061 0.0003284625709056854 -5.6694261729717255e-05 0 0 0 0
2914391920 -0.12304770946502686 -0.10815879702568054 0.0004820413887500763 -0.000314970500767231 0 0 0 0
2918114004 -0.11914321780204773 -0.0824662446975708 0.0005707954987883568 -0.00036264676600694656 0 0 0 0
2921836088 -0.11185221374034882 -0.059060800820589066 0.0005726832896471024 -0.00042768847197294235 0 0 0 0
2925558172 -0.10431972146034241 -0.034155696630477905 0.0006546154618263245 -0.0006898380815982819 0 0 0 0
2929280256 -0.09149862825870514 -0.010121135972440243 0.000453718937933445 -0.0009037693962454796 0 0 0 0
2933002340 -0.07563325017690659 0.011012660339474678 0.0002505416050553322 -0.0009167157113552094 0 0 0 0
2936724424 -0.05691478028893471 0.030992474406957626 -6.807036697864532e-05 -0.0008245706558227539 0 0 0 0
2940446508 -0.0364672914147377 0.04731136932969093 -0.0003636656329035759 -0.0006204601377248764 0 0 0 0
2944168592 -0.014332341030240059 0.06182657554745674 -0.00047992635518312454 -0.00037883128970861435 0 0 0 0
2947890676 0.010612284764647484 0.0733407661318779 -0.0004290277138352394 0.00024127215147018433 0 0 0 0
2951612760 0.0374600775539875 0.08189169317483902 -0.00016647204756736755 0.00054954644292593 0 0 0 0
2955334844 0.06659138947725296 0.08557038009166718 0.00021309871226549149 0.0007716231048107147 0 0 0 0
2959056928 0.09367820620536804 0.08481350541114807 0.0006787767633795738 0.000995725393295288 0 0 0 0
2962779012 0.12178099900484085 0.07958941906690598 0.001208711415529251 0.0009935582056641579 0 0 0 0
2966501096 0.14688706398010254 0.07091498374938965 0.001758970320224762 0.0008539566770195961 0 0 0 0
2970223180 0.17204314470291138 0.059644829481840134 0.0022924859076738358 0.0002496326342225075 0 0 0 0
2973945264 0.19369439780712128 0.046847060322761536 0.002492286264896393 -0.0003564758226275444 0 0 0 0
2977667348 0.21499061584472656 0.0281127467751503 0.0023788511753082275 -0.0009367689490318298 0 0 0 0
2981389432 0.23260900378227234 0.008039519190788269 0.002202077768743038 -0.0012270277366042137 0 0 0 0
2985111516 0.24679821729660034 -0.013098709285259247 0.0018428126350045204 -0.0016374187543988228 0 0 0 0
2988833600 0.25741398334503174 -0.03698888421058655 0.0014390386641025543 -0.0020284894853830338 0 0 0 0
2992555684 0.26479920744895935 -0.06066830828785896 0.0010239463299512863 -0.002040524035692215 0 0 0 0
2996277768 0.2688523828983307 -0.08420159667730331 0.0006059277802705765 -0.002001384273171425 0 0 0 0
2999999852 0.2715446650981903 -0.10853814333677292 0.00029851868748664856 -0.0019698580726981163 0 0 0 0
