# HZ S RI R 50
1500000000 -0.1506567746400833 0.0037275999784469604 0.07235356420278549 -0.03552529588341713 0 0 0 0
1503722084 -0.12596867978572845 0.03689762204885483 0.0635347068309784 -0.04808736592531204 0 0 0 0
1507444168 -0.09438356757164001 0.06696256995201111 0.05131809040904045 -0.05835513025522232 0 0 0 0
1511166252 -0.05606450140476227 0.09172362834215164 0.03730536624789238 -0.06554755568504333 0 0 0 0
1514888336 -0.0131748728454113 0.10944190621376038 0.022349052131175995 -0.06806354224681854 0 0 0 0
1518610420 0.03478758782148361 0.11974451690912247 0.00799256470054388 -0.06715717166662216 0 0 0 0
1522332504 0.08468680083751678 0.12072734534740448 -0.0038916580379009247 -0.06350669264793396 0 0 0 0
1526054588 0.13346219062805176 0.11350565403699875 -0.013860499486327171 -0.058017343282699585 0 0 0 0
1529776672 0.1814957857131958 0.09957151859998703 -0.021513748914003372 -0.052106790244579315 0 0 0 0
1533498756 0.2280658483505249 0.07484493404626846 -0.02821957692503929 -0.04460291191935539 0 0 0 0
1537220840 0.27098992466926575 0.04230423644185066 -0.03288588672876358 -0.036935389041900635 0 0 0 0
1540942924 0.30784088373184204 0.0019284412264823914 -0.03502184525132179 -0.029686082154512405 0 0 0 0
1544665008 0.33765730261802673 -0.042571134865283966 -0.03622656315565109 -0.02328474260866642 0 0 0 0
1548387092 0.3601568043231964 -0.09278763830661774 -0.03694627806544304 -0.01775949075818062 0 0 0 0
1552109176 0.37456268072128296 -0.14492478966712952 -0.037503279745578766 -0.012067314237356186 0 0 0 0
1555831260 0.3812754154205322 -0.20033623278141022 -0.03729552775621414 -0.006075597368180752 0 0 0 0
1559553344 0.37978431582450867 -0.255500853061676 -0.035837311297655106 -0.0009325705468654633 0 0 0 0
1563275428 0.3687209486961365 -0.31226199865341187 -0.033730633556842804 0.0038126427680253983 0 0 0 0
1566997512 0.3503420948982239 -0.3656116724014282 -0.031100213527679443 0.007686981000006199 0 0 0 0
1570719596 0.32244575023651123 -0.4172504246234894 -0.0282204058021307 0.010786816477775574 0 0 0 0
1574441680 0.28455454111099243 -0.46595510840415955 -0.025368666276335716 0.01317742932587862 0 0 0 0
1578163764 0.24497583508491516 -0.5063189268112183 -0.023135816678404808 0.014994809404015541 0 0 0 0
1581885848 0.19139200448989868 -0.5401720404624939 -0.020861901342868805 0.016944769769906998 0 0 0 0
1585607932 0.1400727778673172 -0.5652688145637512 -0.01819467544555664 0.018798736855387688 0 0 0 0
1589330016 0.0850595235824585 -0.584223747253418 -0.015481075271964073 0.020053423941135406 0 0 0 0
1593052100 0.02297326922416687 -0.5945397615432739 -0.01329424511641264 0.021025098860263824 0 0 0 0
1596774184 -0.03634856268763542 -0.5953047871589661 -0.011199469678103924 0.022243989631533623 0 0 0 0
1600496268 -0.09790146350860596 -0.5887678265571594 -0.008846752345561981 0.02400621771812439 0 0 0 0
1604218352 -0.15640011429786682 -0.5722348690032959 -0.005684652365744114 0.025723520666360855 0 0 0 0
1607940436 -0.21343496441841125 -0.5463321805000305 -0.0018538841977715492 0.0267459899187088 0 0 0 0
1611662520 -0.2653331160545349 -0.5139228105545044 0.0023170551285147667 0.026924921199679375 0 0 0 0
1615384604 -0.3129124939441681 -0.47429314255714417 0.006434382870793343 0.026430252939462662 0 0 0 0
1619106688 -0.3545638918876648 -0.4277117848396301 0.010638969950377941 0.025269214063882828 0 0 0 0
1622828772 -0.3933302164077759 -0.37509632110595703 0.01491454616189003 0.023537294939160347 0 0 0 0
1626550856 -0.41988450288772583 -0.3190135359764099 0.018960963934659958 0.020868804305791855 0 0 0 0
1630272940 -0.44058579206466675 -0.25948837399482727 0.022494666278362274 0.017195764929056168 0 0 0 0
1633995024 -0.45763951539993286 -0.19075633585453033 0.02506989613175392 0.012682076543569565 0 0 0 0
1637717108 -0.46174323558807373 -0.12291781604290009 0.02682005614042282 0.007494722492992878 0 0 0 0
1641439192 -0.4575428366661072 -0.053616225719451904 0.027155060321092606 0.002009660005569458 0 0 0 0
1645161276 -0.4413967430591583 0.017949044704437256 0.02633776143193245 -0.0027679037302732468 0 0 0 0
1648883360 -0.4131907820701599 0.08516006916761398 0.024776889011263847 -0.0072199515998363495 0 0 0 0
1652605444 -0.3745085299015045 0.15159812569618225 0.02252824604511261 -0.011376522481441498 0 0 0 0
1656327528 -0.3246239423751831 0.210720956325531 0.01934690587222576 -0.014857029542326927 0 0 0 0
1660049612 -0.2680305242538452 0.258192777633667 0.015864292159676552 -0.017508599907159805 0 0 0 0
1663771696 -0.20284074544906616 0.30044445395469666 0.012073986232280731 -0.019294332712888718 0 0 0 0
1667493780 -0.13143010437488556 0.3331938087940216 0.008031534031033516 -0.020656784996390343 0 0 0 0
1671215864 -0.05577210336923599 0.3550693392753601 0.0036054737865924835 -0.021281331777572632 0 0 0 0
1674937948 0.023448869585990906 0.3652547597885132 -0.001128663308918476 -0.020319996401667595 0 0 0 0
1678660032 0.10578357428312302 0.36272990703582764 -0.0047728875651955605 -0.018381254747509956 0 0 0 0
1682382116 0.1867169439792633 0.3461415767669678 -0.007483433000743389 -0.015843117609620094 0 0 0 0
1686104200 0.26527100801467896 0.3175942003726959 -0.009572125971317291 -0.01311781257390976 0 0 0 0
1689826284 0.3372168242931366 0.2762168049812317 -0.010722801089286804 -0.010011235252022743 0 0 0 0
1693548368 0.40197253227233887 0.22305791079998016 -0.010926979593932629 -0.007077340967953205 0 0 0 0
1697270452 0.4572046399116516 0.16004155576229095 -0.01046195812523365 -0.004535151645541191 0 0 0 0
1700992536 0.501545786857605 0.09000781178474426 -0.009564412757754326 -0.0028210533782839775 0 0 0 0
1704714620 0.5334299802780151 0.014569997787475586 -0.008740263059735298 -0.0013629505410790443 0 0 0 0
1708436704 0.5529336333274841 -0.06583546102046967 -0.007720699533820152 -0.00013593584299087524 0 0 0 0
1712158788 0.5600531697273254 -0.14617078006267548 -0.006616546772420406 0.0003928765654563904 0 0 0 0
1715880872 0.5547558069229126 -0.22565847635269165 -0.005472359247505665 0.0007185963913798332 0 0 0 0
1719602956 0.5360881686210632 -0.30297738313674927 -0.004453785717487335 0.0009076287969946861 0 0 0 0
1723325040 0.5050111413002014 -0.37536606192588806 -0.0036412524059414864 0.0005247052758932114 0 0 0 0
1727047124 0.46576035022735596 -0.44097885489463806 -0.003172357566654682 -0.00024717673659324646 0 0 0 0
1730769208 0.41438180208206177 -0.5008231401443481 -0.003412283957004547 -0.0006579607725143433 0 0 0 0
1734491292 0.3574979901313782 -0.5500444173812866 -0.003960353322327137 -0.0008412562310695648 0 0 0 0
1738213376 0.2937124967575073 -0.5902532339096069 -0.004201632924377918 -0.0009081447497010231 0 0 0 0
1741935460 0.22749784588813782 -0.617855429649353 -0.004555755294859409 -0.0009785015136003494 0 0 0 0
1745657544 0.1517786830663681 -0.6353152990341187 -0.0052166832610964775 -0.0009338576346635818 0 0 0 0
1749379628 0.0829271674156189 -0.6419064998626709 -0.005893156863749027 -0.00054898951202631 0 0 0 0
1753101712 0.014933228492736816 -0.6364071369171143 -0.006285091862082481 0.00014853384345769882 0 0 0 0
1756823796 -0.05613762140274048 -0.6215196847915649 -0.0065721869468688965 0.0008867932483553886 0 0 0 0
1760545880 -0.11680211126804352 -0.5943140387535095 -0.006820068694651127 0.0013208501040935516 0 0 0 0
1764267964 -0.17044314742088318 -0.5612385272979736 -0.007352469488978386 0.001989123411476612 0 0 0 0
1767990048 -0.22697743773460388 -0.5203855633735657 -0.007847645319998264 0.002830222249031067 0 0 0 0
1771712132 -0.2651635706424713 -0.47550785541534424 -0.008244211785495281 0.003904232755303383 0 0 0 0
1775434216 -0.3019372224807739 -0.4231625199317932 -0.008700132369995117 0.004938517697155476 0 0 0 0
1779156300 -0.3261788785457611 -0.3705025315284729 -0.009127737022936344 0.0066464245319366455 0 0 0 0
1782878384 -0.34603461623191833 -0.31398460268974304 -0.009226970374584198 0.008774587884545326 0 0 0 0
1786600468 -0.35772818326950073 -0.2539718449115753 -0.008619698695838451 0.011135706678032875 0 0 0 0
1790322552 -0.3599376678466797 -0.19657683372497559 -0.00737733393907547 0.013821745291352272 0 0 0 0
1794044636 -0.35449811816215515 -0.1389361172914505 -0.005536850541830063 0.01638995297253132 0 0 0 0
1797766720 -0.340758353471756 -0.08287657797336578 -0.003264958970248699 0.018700677901506424 0 0 0 0
1801488804 -0.32003143429756165 -0.03038545325398445 9.818747639656067e-05 0.021083327010273933 0 0 0 0
1805210888 -0.29107484221458435 0.02368471398949623 0.004575546830892563 0.02256542630493641 0 0 0 0
1808932972 -0.25365930795669556 0.06842834502458572 0.009865213185548782 0.023313909769058228 0 0 0 0
1812655056 -0.20899838209152222 0.10828439146280289 0.015432093292474747 0.022322585806250572 0 0 0 0
1816377140 -0.15908069908618927 0.1367245614528656 0.020935986191034317 0.02007203735411167 0 0 0 0
1820099224 -0.10335557162761688 0.159048393368721 0.026641635224223137 0.015889907255768776 0 0 0 0
1823821308 -0.04778527840971947 0.16948342323303223 0.031262315809726715 0.009822102263569832 0 0 0 0
1827543392 0.0068477243185043335 0.17086632549762726 0.033651504665613174 0.0025736168026924133 0 0 0 0
1831265476 0.06015906482934952 0.16284286975860596 0.033665020018815994 -0.005294843576848507 0 0 0 0
1834987560 0.10979761183261871 0.1472369283437729 0.03175024315714836 -0.012641930021345615 0 0 0 0
1838709644 0.155549094080925 0.12458624690771103 0.028357207775115967 -0.018834348767995834 0 0 0 0
1842431728 0.1956358551979065 0.09614750742912292 0.02393035590648651 -0.023872237652540207 0 0 0 0
1846153812 0.22846347093582153 0.062068283557891846 0.01879766583442688 -0.02756122685968876 0 0 0 0
1849875896 0.25448229908943176 0.026399239897727966 0.013310415670275688 -0.030209891498088837 0 0 0 0
1853597980 0.27537474036216736 -0.01397775486111641 0.007572551257908344 -0.031887758523225784 0 0 0 0
1857320064 0.2901574373245239 -0.05278736352920532 0.002413717098534107 -0.03247936815023422 0 0 0 0
1861042148 0.2956670820713043 -0.09700120985507965 -0.0026273606345057487 -0.03258519247174263 0 0 0 0
1864764232 0.29650959372520447 -0.13519994914531708 -0.007867897860705853 -0.03260307386517525 0 0 0 0
1868486316 0.2894904911518097 -0.1744084358215332 -0.013779638335108757 -0.03150467574596405 0 0 0 0
1872208400 0.2776515781879425 -0.21033070981502533 -0.01945953257381916 -0.02870139293372631 0 0 0 0
1875930484 0.26024678349494934 -0.24371442198753357 -0.02451023831963539 -0.02469499409198761 0 0 0 0
1879652568 0.240401029586792 -0.2734448313713074 -0.02820695750415325 -0.020456571131944656 0 0 0 0
1883374652 0.21386504173278809 -0.30095216631889343 -0.031617920845746994 -0.015862835571169853 0 0 0 0
1887096736 0.18544763326644897 -0.32057684659957886 -0.03471511974930763 -0.010825750418007374 0 0 0 0
1890818820 0.15220871567726135 -0.33606457710266113 -0.03701786696910858 -0.004469825886189938 0 0 0 0
1894540904 0.11741456389427185 -0.34507814049720764 -0.03815067932009697 0.00227938499301672 0 0 0 0
1898262988 0.08174759894609451 -0.34684672951698303 -0.03800508379936218 0.009319856762886047 0 0 0 0
1901985072 0.051105014979839325 -0.34143364429473877 -0.03596263751387596 0.016730191186070442 0 0 0 0
1905707156 0.01942060887813568 -0.33173424005508423 -0.032204072922468185 0.0232826117426157 0 0 0 0
1909429240 -0.008228760212659836 -0.3162837028503418 -0.027573850005865097 0.028745166957378387 0 0 0 0
1913151324 -0.029738619923591614 -0.2981753349304199 -0.02221161685883999 0.03350171819329262 0 0 0 0
1916873408 -0.05108333379030228 -0.2753957211971283 -0.015734415501356125 0.037215448915958405 0 0 0 0
1920595492 -0.06677642464637756 -0.25116899609565735 -0.008691071532666683 0.03987440466880798 0 0 0 0
1924317576 -0.07526345551013947 -0.22535166144371033 -0.0008176397532224655 0.04127073287963867 0 0 0 0
1928039660 -0.08127185702323914 -0.19928057491779327 0.007520947605371475 0.04050954803824425 0 0 0 0
1931761744 -0.083680659532547 -0.17373637855052948 0.015436946414411068 0.038000643253326416 0 0 0 0
1935483828 -0.08127821981906891 -0.14774255454540253 0.022132227197289467 0.033266060054302216 0 0 0 0
1939205912 -0.07534385472536087 -0.12132816016674042 0.02674744836986065 0.02791212871670723 0 0 0 0
1942927996 -0.06485812366008759 -0.096413254737854 0.03020477294921875 0.022081203758716583 0 0 0 0
1946650080 -0.0503101572394371 -0.07269442826509476 0.03255753964185715 0.016953328624367714 0 0 0 0
1950372164 -0.030438315123319626 -0.05186612159013748 0.03461713343858719 0.012088201940059662 0 0 0 0
1954094248 -0.007169175893068314 -0.03501104936003685 0.03704896196722984 0.005997244268655777 0 0 0 0
1957816332 0.02018636092543602 -0.02284601703286171 0.03842706233263016 -0.000357557088136673 0 0 0 0
1961538416 0.04899035766720772 -0.01743251085281372 0.03805912658572197 -0.007992192171514034 0 0 0 0
1965260500 0.0787908211350441 -0.01799682155251503 0.035898830741643906 -0.015296146273612976 0 0 0 0
1968982584 0.10661492496728897 -0.024297241121530533 0.03216128423810005 -0.021938055753707886 0 0 0 0
1972704668 0.13257162272930145 -0.035109635442495346 0.027643192559480667 -0.02777056209743023 0 0 0 0
1976426752 0.1557120382785797 -0.05045277625322342 0.0213592741638422 -0.033090442419052124 0 0 0 0
1980148836 0.17541931569576263 -0.07016520947217941 0.014327043667435646 -0.03641395643353462 0 0 0 0
1983870920 0.19129568338394165 -0.0923345685005188 0.006733407266438007 -0.03787814453244209 0 0 0 0
1987593004 0.20228803157806396 -0.11789822578430176 -0.000796598382294178 -0.03800100088119507 0 0 0 0
1991315088 0.20805750787258148 -0.14466965198516846 -0.008341728709638119 -0.036773279309272766 0 0 0 0
1995037172 0.20705775916576385 -0.17111921310424805 -0.014864872209727764 -0.03415261581540108 0 0 0 0
1998759256 0.20392711460590363 -0.19612261652946472 -0.021132832393050194 -0.029507452622056007 0 0 0 0
2002481340 0.1949869990348816 -0.2201213836669922 -0.02499282732605934 -0.024425392970442772 0 0 0 0
2006203424 0.18087679147720337 -0.24335074424743652 -0.028012404218316078 -0.019058331847190857 0 0 0 0
2009925508 0.16744843125343323 -0.2604842782020569 -0.02999507263302803 -0.01475383248180151 0 0 0 0
2013647592 0.14736419916152954 -0.2773148715496063 -0.03190425783395767 -0.009639707393944263 0 0 0 0
2017369676 0.12971022725105286 -0.2896694540977478 -0.03350836783647537 -0.004290275275707245 0 0 0 0
2021091760 0.10528676956892014 -0.30163413286209106 -0.03429426625370979 0.001462363637983799 0 0 0 0
2024813844 0.08095177263021469 -0.30789607763290405 -0.03391635790467262 0.007831078954041004 0 0 0 0
2028535928 0.05332440137863159 -0.3098559081554413 -0.031750816851854324 0.014386872760951519 0 0 0 0
2032258012 0.026620477437973022 -0.30763959884643555 -0.027780454605817795 0.02019558474421501 0 0 0 0
2035980096 0.00013719499111175537 -0.3002067506313324 -0.02357969619333744 0.024289464578032494 0 0 0 0
2039702180 -0.02671775594353676 -0.2887443006038666 -0.018528161570429802 0.027408093214035034 0 0 0 0
2043424264 -0.046622440218925476 -0.27225491404533386 -0.013717417605221272 0.029654238373041153 0 0 0 0
2047146348 -0.06932663917541504 -0.2517384886741638 -0.008064467459917068 0.030902381986379623 0 0 0 0
2050868432 -0.08517254889011383 -0.2282215803861618 -0.003348316065967083 0.03146494925022125 0 0 0 0
2054590516 -0.09894692897796631 -0.20141537487506866 0.0017405692487955093 0.031314145773649216 0 0 0 0
2058312600 -0.10587998479604721 -0.17458802461624146 0.006405738182365894 0.030665069818496704 0 0 0 0
2062034684 -0.11106929928064346 -0.1450219303369522 0.01174791157245636 0.02924748882651329 0 0 0 0
2065756768 -0.11222408711910248 -0.11410386860370636 0.016401927918195724 0.026514708995819092 0 0 0 0
2069478852 -0.10830092430114746 -0.08268969506025314 0.0204142015427351 0.023062948137521744 0 0 0 0
2073200936 -0.09863356500864029 -0.051166195422410965 0.02385766990482807 0.018592309206724167 0 0 0 0
2076923020 -0.08297443389892578 -0.02067410945892334 0.025866257026791573 0.014225635677576065 0 0 0 0
2080645104 -0.0619640126824379 0.007505333982408047 0.026741180568933487 0.009705409407615662 0 0 0 0
2084367188 -0.035995662212371826 0.031159088015556335 0.027428260073065758 0.005978815257549286 0 0 0 0
2088089272 -0.005068125203251839 0.0509837344288826 0.02799389138817787 0.0025887703523039818 0 0 0 0
2091811356 0.02915809489786625 0.06375078856945038 0.02879207953810692 -0.001401602290570736 0 0 0 0
2095533440 0.06326223164796829 0.07165218144655228 0.02925839275121689 -0.005659742280840874 0 0 0 0
2099255524 0.09930425882339478 0.07271174341440201 0.02882501669228077 -0.011390761472284794 0 0 0 0
2102977608 0.1348978877067566 0.06975486874580383 0.026855824515223503 -0.017142798751592636 0 0 0 0
2106699692 0.16999603807926178 0.05991234630346298 0.023322343826293945 -0.02244289591908455 0 0 0 0
2110421776 0.20358730852603912 0.0430598258972168 0.01830543391406536 -0.026580126956105232 0 0 0 0
2114143860 0.23387441039085388 0.022395841777324677 0.013139965943992138 -0.029451001435518265 0 0 0 0
2117865944 0.2585657835006714 -0.004475407302379608 0.0072054993361234665 -0.03145287185907364 0 0 0 0
2121588028 0.2781715989112854 -0.03435381501913071 0.0012349532917141914 -0.03235778212547302 0 0 0 0
2125310112 0.29246267676353455 -0.06451280415058136 -0.005811898969113827 -0.03198818489909172 0 0 0 0
2129032196 0.3013594150543213 -0.10100001841783524 -0.012009566649794579 -0.029534731060266495 0 0 0 0
2132754280 0.30560681223869324 -0.13319993019104004 -0.01745266281068325 -0.025661174207925797 0 0 0 0
2136476364 0.3042835295200348 -0.16524136066436768 -0.021163927391171455 -0.02083504945039749 0 0 0 0
2140198448 0.29799705743789673 -0.1973963975906372 -0.023393403738737106 -0.015883179381489754 0 0 0 0
2143920532 0.28457820415496826 -0.23021985590457916 -0.024437731131911278 -0.01134474016726017 0 0 0 0
2147642616 0.26846978068351746 -0.25845542550086975 -0.025011586025357246 -0.007320010103285313 0 0 0 0
2151364700 0.24906131625175476 -0.2814277112483978 -0.025227393954992294 -0.003443964757025242 0 0 0 0
2155086784 0.22471415996551514 -0.30282285809516907 -0.024866420775651932 0.00046662986278533936 0 0 0 0
2158808868 0.19707681238651276 -0.32077670097351074 -0.024191180244088173 0.004347008652985096 0 0 0 0
2162530952 0.16736997663974762 -0.33307093381881714 -0.02258049137890339 0.007722064852714539 0 0 0 0
2166253036 0.1364857256412506 -0.3390098512172699 -0.020865419879555702 0.010520106181502342 0 0 0 0
2169975120 0.10958582907915115 -0.3396795690059662 -0.019612032920122147 0.012860296294093132 0 0 0 0
2173697204 0.07844878733158112 -0.3381303548812866 -0.0182222668081522 0.015919646248221397 0 0 0 0
2177419288 0.049276456236839294 -0.33079415559768677 -0.01570185460150242 0.019324641674757004 0 0 0 0
2181141372 0.02270236238837242 -0.3207024931907654 -0.012004724703729153 0.02209884487092495 0 0 0 0
2184863456 -0.0027590319514274597 -0.30590856075286865 -0.008520346134901047 0.023952696472406387 0 0 0 0
2188585540 -0.025802627205848694 -0.2873633801937103 -0.004244161769747734 0.025464612990617752 0 0 0 0
2192307624 -0.044867102056741714 -0.26478058099746704 0.00044363830238580704 0.02618962712585926 0 0 0 0
2196029708 -0.06066940724849701 -0.2395683377981186 0.005854958668351173 0.025901084765791893 0 0 0 0
2199751792 -0.07114008069038391 -0.21404659748077393 0.010543824173510075 0.02415093593299389 0 0 0 0
2203473876 -0.07786865532398224 -0.18499907851219177 0.015080668963491917 0.021260472014546394 0 0 0 0
2207195960 -0.08263025432825089 -0.1545899212360382 0.018519612029194832 0.017879623919725418 0 0 0 0
2210918044 -0.07995463907718658 -0.12406857311725616 0.021166697144508362 0.013597662560641766 0 0 0 0
2214640128 -0.0692141130566597 -0.0965585932135582 0.02298680692911148 0.009068185463547707 0 0 0 0
2218362212 -0.05813860893249512 -0.06785614043474197 0.023536406457424164 0.004238984547555447 0 0 0 0
2222084296 -0.04023895412683487 -0.043664250522851944 0.022767167538404465 -0.0005401363596320152 0 0 0 0
2225806380 -0.018500009551644325 -0.02304023504257202 0.021288029849529266 -0.00432197842746973 0 0 0 0
2229528464 0.005591808818280697 -0.007480335421860218 0.01955961436033249 -0.00758510734885931 0 0 0 0
2233250548 0.03122098185122013 0.0036623701453208923 0.017584621906280518 -0.01048488263040781 0 0 0 0
2236972632 0.05881417915225029 0.011088426224887371 0.015049576759338379 -0.01304346602410078 0 0 0 0
2240694716 0.08648061752319336 0.010853903368115425 0.012186411768198013 -0.015394255518913269 0 0 0 0
2244416800 0.11281166225671768 0.010935138911008835 0.009391086176037788 -0.016788886860013008 0 0 0 0
2248138884 0.13828034698963165 0.004446614533662796 0.006112830713391304 -0.018100963905453682 0 0 0 0
2251860968 0.16222772002220154 -0.006687000393867493 0.002319316379725933 -0.018439579755067825 0 0 0 0
2255583052 0.1826610118150711 -0.02632269263267517 -0.001261846162378788 -0.018032481893897057 0 0 0 0
2259305136 0.20178690552711487 -0.040303491055965424 -0.004086743108928204 -0.016950979828834534 0 0 0 0
2263027220 0.21682065725326538 -0.061867035925388336 -0.0065972888842225075 -0.015557268634438515 0 0 0 0
2266749304 0.22769063711166382 -0.0846075564622879 -0.008639620617032051 -0.013662226498126984 0 0 0 0
2270471388 0.23512327671051025 -0.10672622174024582 -0.0103674391284585 -0.01187979243695736 0 0 0 0
2274193472 0.23400963842868805 -0.13518387079238892 -0.011834196746349335 -0.009899146854877472 0 0 0 0
2277915556 0.23375821113586426 -0.15854236483573914 -0.013183653354644775 -0.00794832780957222 0 0 0 0
2281637640 0.22383105754852295 -0.18438668549060822 -0.013992104679346085 -0.005693352781236172 0 0 0 0
2285359724 0.21195991337299347 -0.2047017514705658 -0.01455933041870594 -0.003965035080909729 0 0 0 0
2289081808 0.19989106059074402 -0.22031383216381073 -0.015121999196708202 -0.0015854528173804283 0 0 0 0
2292803892 0.17883311212062836 -0.23739469051361084 -0.015227006748318672 0.0010178424417972565 0 0 0 0
2296525976 0.15858730673789978 -0.24708420038223267 -0.014506010338664055 0.0034750504419207573 0 0 0 0
2300248060 0.1456165462732315 -0.25155773758888245 -0.013520185835659504 0.0055352672934532166 0 0 0 0
2303970144 0.12302620708942413 -0.2614450454711914 -0.01206049881875515 0.007696975022554398 0 0 0 0
2307692228 0.09399360418319702 -0.2634824216365814 -0.010618691332638264 0.009838706813752651 0 0 0 0
2311414312 0.07926222681999207 -0.26016223430633545 -0.00861835852265358 0.010813445784151554 0 0 0 0
2315136396 0.05240446329116821 -0.255951464176178 -0.005797218531370163 0.011375087313354015 0 0 0 0
2318858480 0.03148946911096573 -0.24572984874248505 -0.0034113265573978424 0.011059897020459175 0 0 0 0
2322580564 0.010501187294721603 -0.231023371219635 -0.0019891569390892982 0.01035222690552473 0 0 0 0
2326302648 -0.007428355515003204 -0.2129669487476349 -0.0005832752212882042 0.009503813460469246 0 0 0 0
2330024732 -0.017200283706188202 -0.19248263537883759 3.7962570786476135e-05 0.008966702967882156 0 0 0 0
2333746816 -0.026807568967342377 -0.16924333572387695 0.0005376646295189857 0.008168399333953857 0 0 0 0
2337468900 -0.033722564578056335 -0.14452138543128967 0.0010431502014398575 0.008055979385972023 0 0 0 0
2341190984 -0.03329598903656006 -0.11964938044548035 0.0019868509843945503 0.007540792226791382 0 0 0 0
2344913068 -0.032000452280044556 -0.09251429885625839 0.002738778479397297 0.006801155395805836 0 0 0 0
2348635152 -0.02380814030766487 -0.06665503978729248 0.0031664706766605377 0.005814000032842159 0 0 0 0
2352357236 -0.010563899762928486 -0.04217498004436493 0.0033080987632274628 0.005063624121248722 0 0 0 0
2356079320 0.006970014423131943 -0.020223012194037437 0.003498378209769726 0.004325415939092636 0 0 0 0
2359801404 0.028952820226550102 -0.0027199191972613335 0.0036450019106268883 0.0038750488311052322 0 0 0 0
2363523488 0.053037550300359726 0.0107651948928833 0.003603026270866394 0.003304600715637207 0 0 0 0
2367245572 0.07978067547082901 0.021242978051304817 0.003310847096145153 0.0026819920167326927 0 0 0 0
2370967656 0.10752718150615692 0.024828411638736725 0.0030397605150938034 0.0024671917781233788 0 0 0 0
2374689740 0.13521160185337067 0.0247044637799263 0.0030341101810336113 0.0023322347551584244 0 0 0 0
2378411824 0.16266675293445587 0.020310886204242706 0.002888748422265053 0.0019331742078065872 0 0 0 0
2382133908 0.18819323182106018 0.01067495346069336 0.002616593614220619 0.001782556064426899 0 0 0 0
2385855992 0.2137107253074646 -0.0027698539197444916 0.0024566734209656715 0.0016829036176204681 0 0 0 0
2389578076 0.2343875914812088 -0.021465735509991646 0.002217106521129608 0.0017757602035999298 0 0 0 0
2393300160 0.2529546618461609 -0.041893742978572845 0.002028924413025379 0.0020225243642926216 0 0 0 0
2397022244 0.2684095501899719 -0.06282845139503479 0.002166667953133583 0.002907169982790947 0 0 0 0
2400744328 0.27933183312416077 -0.0891735777258873 0.003105035051703453 0.003331439569592476 0 0 0 0
2404466412 0.2859281599521637 -0.12031537294387817 0.004637305624783039 0.0032439930364489555 0 0 0 0
2408188496 0.28923559188842773 -0.14691883325576782 0.005692851729691029 0.002435285598039627 0 0 0 0
2411910580 0.2871383726596832 -0.17209067940711975 0.006457624025642872 0.001506664790213108 0 0 0 0
2415632664 0.27868735790252686 -0.20163139700889587 0.006961081176996231 0.00014510191977024078 0 0 0 0
2419354748 0.2684122920036316 -0.2267533242702484 0.007416866719722748 -0.0012180600315332413 0 0 0 0
2423076832 0.25671201944351196 -0.24841029942035675 0.007411940023303032 -0.002541865222156048 0 0 0 0
2426798916 0.23661412298679352 -0.2717249095439911 0.006956028752028942 -0.004341078922152519 0 0 0 0
2430521000 0.2166450321674347 -0.2880373001098633 0.005616365000605583 -0.005804272368550301 0 0 0 0
2434243084 0.19487547874450684 -0.3025193214416504 0.004471156746149063 -0.00642166193574667 0 0 0 0
2437965168 0.17031994462013245 -0.31602710485458374 0.0036349818110466003 -0.006906147114932537 0 0 0 0
2441687252 0.14312686026096344 -0.3252062201499939 0.0027561038732528687 -0.007135842926800251 0 0 0 0
2445409336 0.1124984622001648 -0.3310260772705078 0.0019192053005099297 -0.00765895564109087 0 0 0 0
2449131420 0.08190140128135681 -0.32928895950317383 0.001255447044968605 -0.008411360904574394 0 0 0 0
2452853504 0.05550635606050491 -0.32416361570358276 0.00021811854094266891 -0.008927307091653347 0 0 0 0
2456575588 0.025348864495754242 -0.31383079290390015 -0.0007887883111834526 -0.009610668756067753 0 0 0 0
2460297672 0.00012919306755065918 -0.2983483672142029 -0.0024401703849434853 -0.010267971083521843 0 0 0 0
2464019756 -0.01963438093662262 -0.28147003054618835 -0.004554053768515587 -0.010597865097224712 0 0 0 0
2467741840 -0.042850133031606674 -0.26127925515174866 -0.007096637040376663 -0.010015124455094337 0 0 0 0
2471463924 -0.05911295861005783 -0.23719915747642517 -0.008847933262586594 -0.008949458599090576 0 0 0 0
2475186008 -0.07154478132724762 -0.2136366218328476 -0.010406145825982094 -0.007855824194848537 0 0 0 0
2478908092 -0.08225250244140625 -0.18423150479793549 -0.011989569291472435 -0.006512155756354332 0 0 0 0
2482630176 -0.08910173177719116 -0.15450558066368103 -0.01338280364871025 -0.004604878835380077 0 0 0 0
2486352260 -0.08898912370204926 -0.12557071447372437 -0.014544717967510223 -0.0026292605325579643 0 0 0 0
2490074344 -0.08620847761631012 -0.09467197954654694 -0.015423916280269623 -0.00015439558774232864 0 0 0 0
2493796428 -0.07699745893478394 -0.06605375558137894 -0.016111234202980995 0.002701590768992901 0 0 0 0
2497518512 -0.06425144523382187 -0.037904489785432816 -0.01567118614912033 0.005703428760170937 0 0 0 0
2501240596 -0.04699409008026123 -0.012779626064002514 -0.014624641276896 0.008582565933465958 0 0 0 0
2504962680 -0.025577940046787262 0.009254117496311665 -0.013368488289415836 0.011009744368493557 0 0 0 0
2508684764 -0.0009005898609757423 0.027905531227588654 -0.011332311667501926 0.013716238550841808 0 0 0 0
2512406848 0.025799300521612167 0.04232717305421829 -0.008995478972792625 0.016205698251724243 0 0 0 0
2516128932 0.054865654557943344 0.05218173563480377 -0.005605394020676613 0.01810215413570404 0 0 0 0
2519851016 0.08567968010902405 0.05622090399265289 -0.001509305089712143 0.019016429781913757 0 0 0 0
2523573100 0.11633412539958954 0.0543394610285759 0.002539585344493389 0.018577681854367256 0 0 0 0
2527295184 0.1457769125699997 0.04781818389892578 0.005618290975689888 0.017401698976755142 0 0 0 0
2531017268 0.1719498634338379 0.03740997239947319 0.008746182546019554 0.015581000596284866 0 0 0 0
2534739352 0.19541656970977783 0.021012842655181885 0.011358095332980156 0.01358859520405531 0 0 0 0
2538461436 0.21517187356948853 0.005688317120075226 0.013634780421853065 0.010957455262541771 0 0 0 0
2542183520 0.23090064525604248 -0.015845879912376404 0.015377662144601345 0.007932142354547977 0 0 0 0
2545905604 0.24427436292171478 -0.035849928855895996 0.016353001818060875 0.004513419233262539 0 0 0 0
2549627688 0.25332844257354736 -0.05811852589249611 0.016574406996369362 0.0010325806215405464 0 0 0 0
2553349772 0.26129022240638733 -0.0791676938533783 0.016164403408765793 -0.0024454211816191673 0 0 0 0
2557071856 0.26299285888671875 -0.1024167388677597 0.014325153082609177 -0.0059108007699251175 0 0 0 0
2560793940 0.26376062631607056 -0.12420357763767242 0.011937431991100311 -0.008336871862411499 0 0 0 0
2564516024 0.25857484340667725 -0.14921768009662628 0.009427634067833424 -0.010011276230216026 0 0 0 0
2568238108 0.2550783157348633 -0.1644904911518097 0.007075652480125427 -0.01071242056787014 0 0 0 0
2571960192 0.2433905005455017 -0.18835791945457458 0.00471931416541338 -0.011091595515608788 0 0 0 0
2575682276 0.2318197786808014 -0.20434565842151642 0.002615923061966896 -0.010936359874904156 0 0 0 0
2579404360 0.21921801567077637 -0.21859712898731232 0.0009764702990651131 -0.010419756174087524 0 0 0 0
2583126444 0.20583325624465942 -0.22868090867996216 -0.00010284874588251114 -0.009981675073504448 0 0 0 0
2586848528 0.1887037754058838 -0.24138393998146057 -0.0014672204852104187 -0.009724713861942291 0 0 0 0
2590570612 0.1712898463010788 -0.24959224462509155 -0.0031934119760990143 -0.009142627008259296 0 0 0 0
2594292696 0.15546652674674988 -0.25330889225006104 -0.0044633084908127785 -0.008378330618143082 0 0 0 0
2598014780 0.13428917527198792 -0.2579375207424164 -0.0055886488407850266 -0.007330082356929779 0 0 0 0
2601736864 0.11866243183612823 -0.25747668743133545 -0.006571023724973202 -0.006403755396604538 0 0 0 0
2605458948 0.09850083291530609 -0.25471726059913635 -0.007357469759881496 -0.004880592226982117 0 0 0 0
2609181032 0.08200916647911072 -0.24929873645305634 -0.007607234641909599 -0.0032981084659695625 0 0 0 0
2612903116 0.065700002014637 -0.24152871966362 -0.007407650351524353 -0.0016028936952352524 0 0 0 0
2616625200 0.05286041647195816 -0.22988802194595337 -0.006762228906154633 -0.0004367101937532425 0 0 0 0
2620347284 0.04334859177470207 -0.2182302474975586 -0.005950212478637695 0.00039226748049259186 0 0 0 0
2624069368 0.03337990492582321 -0.2048531323671341 -0.005141036584973335 0.0007678335532546043 0 0 0 0
2627791452 0.026576727628707886 -0.18904289603233337 -0.004201091825962067 0.0007106047123670578 0 0 0 0
2631513536 0.023899972438812256 -0.1741066873073578 -0.00415800791233778 0.0005605211481451988 0 0 0 0
2635235620 0.02352999895811081 -0.15965965390205383 -0.00416736863553524 0.0008801724761724472 0 0 0 0
2638957704 0.02565506473183632 -0.14629535377025604 -0.004085678607225418 0.0012396713718771935 0 0 0 0
2642679788 0.02896186336874962 -0.13306812942028046 -0.00390611682087183 0.0015821782872080803 0 0 0 0
2646401872 0.03598897531628609 -0.12168331444263458 -0.0034415442496538162 0.0018580034375190735 0 0 0 0
2650123956 0.04432990774512291 -0.1114564836025238 -0.0029403120279312134 0.001949075609445572 0 0 0 0
2653846040 0.05334819108247757 -0.1034163385629654 -0.002680324949324131 0.0018210606649518013 0 0 0 0
2657568124 0.06558485329151154 -0.09718973934650421 -0.002716965042054653 0.0015912754461169243 0 0 0 0
2661290208 0.07827316224575043 -0.09505119919776917 -0.0028213905170559883 0.001615043729543686 0 0 0 0
2665012292 0.08928336203098297 -0.09551919996738434 -0.00299852155148983 0.001955992542207241 0 0 0 0
2668734376 0.09796908497810364 -0.0993330180644989 -0.003083169460296631 0.002412610687315464 0 0 0 0
2672456460 0.10742668807506561 -0.10467801988124847 -0.003075608052313328 0.0030351122841238976 0 0 0 0
2676178544 0.11441344767808914 -0.11033563315868378 -0.0025837142020463943 0.003841038793325424 0 0 0 0
2679900628 0.11963155120611191 -0.118404321372509 -0.001918671652674675 0.004378951154649258 0 0 0 0
2683622712 0.12240803241729736 -0.12693411111831665 -0.001062433235347271 0.004945189692080021 0 0 0 0
2687344796 0.12265219539403915 -0.1345149278640747 -6.39175996184349e-05 0.004961919970810413 0 0 0 0
2691066880 0.12251417338848114 -0.1437806934118271 0.0008787931874394417 0.004692394286394119 0 0 0 0
2694788964 0.12107187509536743 -0.1508413851261139 0.001551913097500801 0.004468584433197975 0 0 0 0
2698511048 0.1171821802854538 -0.1580640822649002 0.002501736395061016 0.004229994490742683 0 0 0 0
2702233132 0.11311221867799759 -0.1650349199771881 0.0035401908680796623 0.003615886904299259 0 0 0 0
2705955216 0.10638885945081711 -0.17171570658683777 0.00440787710249424 0.0028958264738321304 0 0 0 0
2709677300 0.09797210246324539 -0.17781755328178406 0.004994490183889866 0.0012763096019625664 0 0 0 0
2713399384 0.09104961156845093 -0.18107524514198303 0.004955992102622986 6.761401891708374e-05 0 0 0 0
2717121468 0.07964739203453064 -0.18348734080791473 0.004374269396066666 -0.0010955370962619781 0 0 0 0
2720843552 0.07108492404222488 -0.18313229084014893 0.003812728449702263 -0.0019452087581157684 0 0 0 0
2724565636 0.05739730969071388 -0.18298064172267914 0.0030356673523783684 -0.0025500357151031494 0 0 0 0
2728287720 0.04464881494641304 -0.17928968369960785 0.0022174278274178505 -0.0026931287720799446 0 0 0 0
2732009804 0.03431887924671173 -0.17240647971630096 0.001624133437871933 -0.00251676794141531 0 0 0 0
2735731888 0.023856500163674355 -0.16321440041065216 0.001385875977575779 -0.0024512046948075294 0 0 0 0
2739453972 0.01586030051112175 -0.15244072675704956 0.0013129105791449547 -0.002612081356346607 0 0 0 0
2743176056 0.009372932836413383 -0.13949693739414215 0.0009607076644897461 -0.0028585102409124374 0 0 0 0
2746898140 0.003535088151693344 -0.12486470490694046 0.0006679398939013481 -0.0029663629829883575 0 0 0 0
2750620224 0.00044677406549453735 -0.10897254943847656 0.00043208710849285126 -0.002912641502916813 0 0 0 0
2754342308 0.0013558901846408844 -0.09333155304193497 0.00030788686126470566 -0.003019453026354313 0 0 0 0
2758064392 0.005391278304159641 -0.07762489467859268 -0.00015685055404901505 -0.0034639211371541023 0 0 0 0
2761786476 0.010599344968795776 -0.061842262744903564 -0.0007731998339295387 -0.00364705640822649 0 0 0 0
2765508560 0.02006061188876629 -0.04638998582959175 -0.0014450270682573318 -0.003431071527302265 0 0 0 0
2769230644 0.031213698908686638 -0.03296021744608879 -0.002066129818558693 -0.0029205558821558952 0 0 0 0
2772952728 0.045203618705272675 -0.02140534669160843 -0.0023686494678258896 -0.002299908548593521 0 0 0 0
2776674812 0.061063796281814575 -0.011930111795663834 -0.002476124092936516 -0.0019177217036485672 0 0 0 0
2780396896 0.07840393483638763 -0.005233641713857651 -0.0024438314139842987 -0.0017159190028905869 0 0 0 0
2784118980 0.09653709828853607 -5.0965696573257446e-05 -0.002796878106892109 -0.00108239334076643 0 0 0 0
2787841064 0.11571959406137466 0.0019192546606063843 -0.0027587413787841797 -0.0005372483283281326 0 0 0 0
2791563148 0.13592946529388428 0.00043085217475891113 -0.002622544765472412 5.443952977657318e-05 0 0 0 0
2795285232 0.15693435072898865 -0.00147981196641922 -0.002197563648223877 0.0004575122147798538 0 0 0 0
2799007316 0.17786039412021637 -0.01064998283982277 -0.0015666289255023003 0.0006215302273631096 0 0 0 0
2802729400 0.19826547801494598 -0.024379201233386993 -0.0010966751724481583 0.00044443272054195404 0 0 0 0
2806451484 0.2148907333612442 -0.039237674325704575 -0.0011354200541973114 -5.972571671009064e-06 0 0 0 0
2810173568 0.229629248380661 -0.05539214611053467 -0.0014335745945572853 4.5182183384895325e-05 0 0 0 0
2813895652 0.24046067893505096 -0.07986314594745636 -0.001621156930923462 0.0004899594932794571 0 0 0 0
2817617736 0.2498985379934311 -0.09992264956235886 -0.0013356208801269531 0.0008786451071500778 0 0 0 0
2821339820 0.2531792223453522 -0.1245202049612999 -0.0009604711085557938 0.0011427141726016998 0 0 0 0
2825061904 0.25320306420326233 -0.14696308970451355 -0.0005217902362346649 0.001117250882089138 0 0 0 0
2828783988 0.24994376301765442 -0.17188549041748047 -9.472016245126724e-05 0.0009675649926066399 0 0 0 0
2832506072 0.2476940155029297 -0.18973098695278168 9.59327444434166e-05 0.0007183309644460678 0 0 0 0
2836228156 0.23633071780204773 -0.2141346037387848 0.00019773654639720917 0.0006307903677225113 0 0 0 0
2839950240 0.22458183765411377 -0.2362116575241089 0.00038345251232385635 0.00047213397920131683 0 0 0 0
2843672324 0.21039870381355286 -0.25297772884368896 0.0004980685189366341 0.00022413767874240875 0 0 0 0
2847394408 0.19754713773727417 -0.2679329216480255 0.0004455195739865303 3.2463110983371735e-05 0 0 0 0
2851116492 0.17550088465213776 -0.28333809971809387 0.00041088368743658066 1.9492581486701965e-06 0 0 0 0
2854838576 0.15738318860530853 -0.29542940855026245 0.00042499322444200516 -6.3297338783741e-05 0 0 0 0
2858560660 0.1393827199935913 -0.30513715744018555 0.0005033733323216438 -0.00044409744441509247 0 0 0 0
2862282744 0.11108218133449554 -0.31440189480781555 0.0005317023023962975 -0.00048250891268253326 0 0 0 0
2866004828 0.0900471955537796 -0.318499892950058 0.0005174633115530014 -0.00048221834003925323 0 0 0 0
2869726912 0.06810791790485382 -0.31984153389930725 0.0007104435935616493 -0.0005048606544733047 0 0 0 0
2873448996 0.04199085384607315 -0.3174054026603699 0.0006979284808039665 -0.0008007548749446869 0 0 0 0
2877171080 0.015473105013370514 -0.31210237741470337 0.0006421711295843124 -0.0010685641318559647 0 0 0 0
2880893164 -0.008160412311553955 -0.30450156331062317 0.00032175425440073013 -0.0012360047549009323 0 0 0 0
2884615248 -0.03451218456029892 -0.2913459241390228 -5.740579217672348e-05 -0.0012571755796670914 0 0 0 0
2888337332 -0.05282966047525406 -0.2765635848045349 -0.00024038832634687424 -0.001254306174814701 0 0 0 0
2892059416 -0.07141184061765671 -0.2587336003780365 -0.00038405880331993103 -0.0009734174236655235 0 0 0 0
2895781500 -0.09022526443004608 -0.23777005076408386 -0.000459086149930954 -0.0006916392594575882 0 0 0 0
2899503584 -0.10156397521495819 -0.21566276252269745 -0.0005127778276801109 -0.0004410557448863983 0 0 0 0
2903225668 -0.1137939840555191 -0.19108141958713531 -0.00037843547761440277 -0.00019878800958395004 0 0 0 0
2906947752 -0.1218288242816925 -0.16457274556159973 -0.00011005066335201263 5.785096436738968e-05 0 0 0 0
2910669836 -0.12640495598316193 -0.13670773804187775 0.00013079773634672165 7.360987365245819e-05 0 0 0 0
2914391920 -0.1253272145986557 -0.10989702492952347 0.0002384120598435402 -3.19136306643486e-05 0 0 0 0
2918114004 -0.12144430726766586 -0.08366134762763977 0.00043665338307619095 -0.00020740460604429245 0 0 0 0
2921836088 -0.11485622823238373 -0.059309013187885284 0.0004591122269630432 -0.0002964036539196968 0 0 0 0
2925558172 -0.10596802830696106 -0.03512181341648102 0.0006025023758411407 -0.0003842385485768318 0 0 0 0
2929280256 -0.09422282874584198 -0.01035400852560997 0.00045773666352033615 -0.0005792183801531792 0 0 0 0
2933002340 -0.07796302437782288 0.011924933642148972 0.00023673195391893387 -0.0005313130095601082 0 0 0 0
2936724424 -0.05891376733779907 0.03197146952152252 3.342609852552414e-05 -0.0004605371505022049 0 0 0 0
2940446508 -0.038163114339113235 0.04907980561256409 -0.00010903831571340561 -0.00037201400846242905 0 0 0 0
2944168592 -0.014726513996720314 0.06337732821702957 -0.00017965957522392273 -5.329400300979614e-05 0 0 0 0
2947890676 0.010219834744930267 0.07520503550767899 1.2910924851894379e-05 0.0004398282617330551 0 0 0 0
2951612760 0.03786710277199745 0.08313793689012527 0.00030671246349811554 0.0006896434351801872 0 0 0 0
2955334844 0.06440998613834381 0.08777641505002975 0.0007785269990563393 0.0007057217881083488 0 0 0 0
2959056928 0.09509949386119843 0.08599749207496643 0.0011182921007275581 0.0006419047713279724 0 0 0 0
2962779012 0.12246615439653397 0.08141610026359558 0.0015660133212804794 0.0005631456151604652 0 0 0 0
2966501096 0.14950037002563477 0.07257501035928726 0.001866031438112259 0.00038477033376693726 0 0 0 0
2970223180 0.1722913682460785 0.06190836429595947 0.002448510378599167 -0.00020426418632268906 0 0 0 0
2973945264 0.1950361728668213 0.04520105570554733 0.0023789722472429276 -0.0007643001154065132 0 0 0 0
2977667348 0.2159433364868164 0.028507523238658905 0.0023748213425278664 -0.0013167327269911766 0 0 0 0
2981389432 0.23332184553146362 0.00821056216955185 0.0020030997693538666 -0.0016487520188093185 0 0 0 0
2985111516 0.24751025438308716 -0.012454859912395477 0.0015745479613542557 -0.002055472694337368 0 0 0 0
2988833600 0.25854215025901794 -0.03739098086953163 0.0012273173779249191 -0.0023216232657432556 0 0 0 0
2992555684 0.2671407461166382 -0.06046704202890396 0.0007567601278424263 -0.0023863762617111206 0 0 0 0
2996277768 0.27013975381851196 -0.08619634807109833 0.0003773653879761696 -0.0022192420437932014 0 0 0 0
2999999852 0.2725529968738556 -0.10965193063020706 0.00010856334120035172 -0.0020590508356690407 0 0 0 0
