# HZ S RI R 50
1500000000 -0.15189291536808014 0.006103635765612125 0.07215125113725662 -0.03424924612045288 0 0 0 0
1503722084 -0.12489298731088638 0.04090038314461708 0.06341669708490372 -0.046917207539081573 0 0 0 0
1507444168 -0.0920192077755928 0.07010491192340851 0.05150139331817627 -0.057631853967905045 0 0 0 0
1511166252 -0.0525418184697628 0.09382028132677078 0.03771714121103287 -0.06466606259346008 0 0 0 0
1514888336 -0.009226467460393906 0.10996174067258835 0.02286716178059578 -0.06777416914701462 0 0 0 0
1518610420 0.03789915889501572 0.11825376749038696 0.008797569200396538 -0.06698878854513168 0 0 0 0
1522332504 0.08588028699159622 0.11876114457845688 -0.0028916746377944946 -0.06361130625009537 0 0 0 0
1526054588 0.13393634557724 0.11076769232749939 -0.013221570290625095 -0.058117277920246124 0 0 0 0
1529776672 0.18071630597114563 0.09538909792900085 -0.021609382703900337 -0.051307447254657745 0 0 0 0
1533498756 0.2251594364643097 0.07292291522026062 -0.02737567201256752 -0.04408131167292595 0 0 0 0
1537220840 0.2684033513069153 0.04150446504354477 -0.031543515622615814 -0.036882657557725906 0 0 0 0
1540942924 0.30556720495224 0.0026847757399082184 -0.034164540469646454 -0.03014282137155533 0 0 0 0
1544665008 0.3361494541168213 -0.041404590010643005 -0.035560984164476395 -0.023880600929260254 0 0 0 0
1548387092 0.35952070355415344 -0.09005753695964813 -0.036761071532964706 -0.01853249780833721 0 0 0 0
1552109176 0.3739936351776123 -0.14262047410011292 -0.03738555684685707 -0.012873994186520576 0 0 0 0
1555831260 0.38181012868881226 -0.19594410061836243 -0.037329353392124176 -0.0072755031287670135 0 0 0 0
1559553344 0.38140809535980225 -0.2525756061077118 -0.036285288631916046 -0.0015290714800357819 0 0 0 0
1563275428 0.3698475956916809 -0.31026431918144226 -0.03426651284098625 0.0032706856727600098 0 0 0 0
1566997512 0.3497205376625061 -0.36464017629623413 -0.03164884075522423 0.00756288506090641 0 0 0 0
1570719596 0.32476872205734253 -0.4177617132663727 -0.028845034539699554 0.01078406535089016 0 0 0 0
1574441680 0.2875574827194214 -0.46552038192749023 -0.026124294847249985 0.013106346130371094 0 0 0 0
1578163764 0.247449591755867 -0.5047343969345093 -0.023655692115426064 0.015115558169782162 0 0 0 0
1581885848 0.19270941615104675 -0.5399729013442993 -0.0212712362408638 0.01721288077533245 0 0 0 0
1585607932 0.1403517872095108 -0.5654956698417664 -0.018544230610132217 0.019023610278964043 0 0 0 0
1589330016 0.0839003175497055 -0.5843073129653931 -0.01578756421804428 0.02030167356133461 0 0 0 0
1593052100 0.023159652948379517 -0.5947361588478088 -0.013410154730081558 0.02120109833776951 0 0 0 0
1596774184 -0.03936140984296799 -0.596841037273407 -0.011363721452653408 0.022473182529211044 0 0 0 0
1600496268 -0.0964881181716919 -0.5893512964248657 -0.009419594891369343 0.024077316746115685 0 0 0 0
1604218352 -0.15542373061180115 -0.5726711750030518 -0.0063539426773786545 0.02594481036067009 0 0 0 0
1607940436 -0.2106156200170517 -0.5481037497520447 -0.002330091781914234 0.027125004678964615 0 0 0 0
1611662520 -0.2657419443130493 -0.5155256986618042 0.001905340701341629 0.027637874707579613 0 0 0 0
1615384604 -0.31495243310928345 -0.4753313660621643 0.0064849769696593285 0.027117203921079636 0 0 0 0
1619106688 -0.3559983968734741 -0.42916399240493774 0.010662906803190708 0.02582504227757454 0 0 0 0
1622828772 -0.3935370147228241 -0.3770814538002014 0.014845565892755985 0.024121420457959175 0 0 0 0
1626550856 -0.4231528639793396 -0.3199279010295868 0.019064079970121384 0.021500878036022186 0 0 0 0
1630272940 -0.4447684586048126 -0.2570301592350006 0.022526824846863747 0.01756364479660988 0 0 0 0
1633995024 -0.4602150619029999 -0.19184429943561554 0.02535795047879219 0.013158442452549934 0 0 0 0
1637717108 -0.46420302987098694 -0.12356783449649811 0.02722911722958088 0.008259255439043045 0 0 0 0
1641439192 -0.45918482542037964 -0.05241982638835907 0.027972597628831863 0.0029939142987132072 0 0 0 0
1645161276 -0.44321581721305847 0.019106701016426086 0.027495630085468292 -0.0023386823013424873 0 0 0 0
1648883360 -0.41413724422454834 0.08902603387832642 0.025895249098539352 -0.007514249533414841 0 0 0 0
1652605444 -0.3747017979621887 0.1529015600681305 0.023358618840575218 -0.012041725218296051 0 0 0 0
1656327528 -0.3238331079483032 0.21241827309131622 0.019832197576761246 -0.015666039660573006 0 0 0 0
1660049612 -0.26747387647628784 0.26070430874824524 0.01591417007148266 -0.018337545916438103 0 0 0 0
1663771696 -0.2003869116306305 0.3018064796924591 0.01177094504237175 -0.020140182226896286 0 0 0 0
1667493780 -0.13156326115131378 0.3323381543159485 0.007597960531711578 -0.02107994817197323 0 0 0 0
1671215864 -0.05676542967557907 0.3543282449245453 0.0031181732192635536 -0.02129346877336502 0 0 0 0
1674937948 0.023657426238059998 0.3654237389564514 -0.0011831708252429962 -0.02018616907298565 0 0 0 0
1678660032 0.106035016477108 0.36323508620262146 -0.004513898864388466 -0.0181046761572361 0 0 0 0
1682382116 0.18697284162044525 0.34685903787612915 -0.007029369473457336 -0.015895001590251923 0 0 0 0
1686104200 0.2650521993637085 0.3189786672592163 -0.009357190690934658 -0.01322562899440527 0 0 0 0
1689826284 0.337321013212204 0.27682068943977356 -0.010487223044037819 -0.010093288496136665 0 0 0 0
1693548368 0.40325161814689636 0.22357049584388733 -0.010798640549182892 -0.007113885134458542 0 0 0 0
1697270452 0.45897620916366577 0.15782731771469116 -0.010197006165981293 -0.0046400390565395355 0 0 0 0
1700992536 0.502092719078064 0.09097449481487274 -0.00926095712929964 -0.0031000571325421333 0 0 0 0
1704714620 0.5349394083023071 0.012041591107845306 -0.008539401926100254 -0.0018300395458936691 0 0 0 0
1708436704 0.5533362627029419 -0.06600439548492432 -0.007719791494309902 -0.0007785903289914131 0 0 0 0
1712158788 0.5605497360229492 -0.14630138874053955 -0.006755243055522442 2.2474676370620728e-05 0 0 0 0
1715880872 0.5540479421615601 -0.22831028699874878 -0.00594015046954155 0.0005051270127296448 0 0 0 0
1719602956 0.5339437127113342 -0.3072003722190857 -0.005058335140347481 0.0006132228299975395 0 0 0 0
1723325040 0.5037230849266052 -0.3777584135532379 -0.004237884655594826 0.0005197152495384216 0 0 0 0
1727047124 0.46622803807258606 -0.44113269448280334 -0.003841540776193142 0.00012015830725431442 0 0 0 0
1730769208 0.4143347144126892 -0.5011724829673767 -0.0037879059091210365 -9.952764958143234e-05 0 0 0 0
1734491292 0.35656648874282837 -0.5520685315132141 -0.0038632312789559364 -0.0002988576889038086 0 0 0 0
1738213376 0.2951294779777527 -0.5902714133262634 -0.003962250426411629 -0.0005258731544017792 0 0 0 0
1741935460 0.2255246639251709 -0.6180003881454468 -0.004397707059979439 -0.0006464952602982521 0 0 0 0
1745657544 0.15447427332401276 -0.6361528635025024 -0.00499417819082737 -0.000742962583899498 0 0 0 0
1749379628 0.08253638446331024 -0.6425203680992126 -0.0055646393448114395 -0.00028099212795495987 0 0 0 0
1753101712 0.012142956256866455 -0.6359377503395081 -0.005978197790682316 0.00029338058084249496 0 0 0 0
1756823796 -0.057709500193595886 -0.6187188029289246 -0.006289136596024036 0.0008350713178515434 0 0 0 0
1760545880 -0.11409768462181091 -0.595069944858551 -0.006695273332297802 0.0014364402741193771 0 0 0 0
1764267964 -0.17063486576080322 -0.5621567964553833 -0.006963727064430714 0.0022819871082901955 0 0 0 0
1767990048 -0.22290822863578796 -0.5198332667350769 -0.007048921659588814 0.003097434528172016 0 0 0 0
1771712132 -0.26592233777046204 -0.47307145595550537 -0.007191217504441738 0.0037900106981396675 0 0 0 0
1775434216 -0.3007998764514923 -0.4228309988975525 -0.007748454809188843 0.004602473229169846 0 0 0 0
1779156300 -0.3260316252708435 -0.368078351020813 -0.008373051881790161 0.006041293032467365 0 0 0 0
1782878384 -0.34405481815338135 -0.314400315284729 -0.008873971179127693 0.007912865839898586 0 0 0 0
1786600468 -0.35713091492652893 -0.2545601427555084 -0.008585219271481037 0.010510941967368126 0 0 0 0
1790322552 -0.3593743145465851 -0.19741085171699524 -0.007851632311940193 0.01329142227768898 0 0 0 0
1794044636 -0.3537389934062958 -0.13912628591060638 -0.006201458163559437 0.0159944836050272 0 0 0 0
1797766720 -0.34058627486228943 -0.08132386207580566 -0.0038524651899933815 0.018603118136525154 0 0 0 0
1801488804 -0.31885892152786255 -0.0283521618694067 -0.0005912454798817635 0.021291766315698624 0 0 0 0
1805210888 -0.2906392216682434 0.023081988096237183 0.004217550158500671 0.023468798026442528 0 0 0 0
1808932972 -0.25414538383483887 0.06850571185350418 0.009878115728497505 0.024310901761054993 0 0 0 0
1812655056 -0.20819073915481567 0.10891213268041611 0.01660890318453312 0.022937040776014328 0 0 0 0
1816377140 -0.15635862946510315 0.13998182117938995 0.022254951298236847 0.020125098526477814 0 0 0 0
1820099224 -0.10243099927902222 0.15891686081886292 0.02775447629392147 0.015614115633070469 0 0 0 0
1823821308 -0.046699028462171555 0.16868388652801514 0.03210412710905075 0.009133406914770603 0 0 0 0
1827543392 0.00933130457997322 0.16991229355335236 0.03404441103339195 0.0015285331755876541 0 0 0 0
1831265476 0.06042869761586189 0.16185368597507477 0.033994901925325394 -0.006329387426376343 0 0 0 0
1834987560 0.11005783081054688 0.1463499814271927 0.031656935811042786 -0.013771109282970428 0 0 0 0
1838709644 0.15457704663276672 0.12427158653736115 0.027933403849601746 -0.019465697929263115 0 0 0 0
1842431728 0.19368316233158112 0.09706078469753265 0.023712297901511192 -0.02394665777683258 0 0 0 0
1846153812 0.2270367294549942 0.06379888206720352 0.018759360536932945 -0.027832727879285812 0 0 0 0
1849875896 0.25496113300323486 0.025192730128765106 0.01303925272077322 -0.030757738277316093 0 0 0 0
1853597980 0.2748776972293854 -0.012249931693077087 0.007345790974795818 -0.0320710614323616 0 0 0 0
1857320064 0.2892554700374603 -0.053712502121925354 0.0025424836203455925 -0.03224092721939087 0 0 0 0
1861042148 0.29693469405174255 -0.0932595506310463 -0.002296258695423603 -0.0327351950109005 0 0 0 0
1864764232 0.29581788182258606 -0.1356649547815323 -0.007626610808074474 -0.03311777487397194 0 0 0 0
1868486316 0.28921622037887573 -0.17479124665260315 -0.013859400525689125 -0.032087452709674835 0 0 0 0
1872208400 0.27900999784469604 -0.20993269979953766 -0.020019877701997757 -0.029419535771012306 0 0 0 0
1875930484 0.2603464126586914 -0.24486246705055237 -0.02503635548055172 -0.025553563609719276 0 0 0 0
1879652568 0.2403131127357483 -0.27484819293022156 -0.029468653723597527 -0.02077575773000717 0 0 0 0
1883374652 0.21367037296295166 -0.30176976323127747 -0.032759565860033035 -0.01587079092860222 0 0 0 0
1887096736 0.1840035617351532 -0.32217681407928467 -0.03575548157095909 -0.010249858722090721 0 0 0 0
1890818820 0.15208648145198822 -0.3360767960548401 -0.03784172981977463 -0.0037920791655778885 0 0 0 0
1894540904 0.11693556606769562 -0.34394270181655884 -0.038469236344099045 0.0032872511073946953 0 0 0 0
1898262988 0.08291134983301163 -0.3455667495727539 -0.037613674998283386 0.01066158153116703 0 0 0 0
1901985072 0.05204242467880249 -0.3401786983013153 -0.0351688414812088 0.017352599650621414 0 0 0 0
1905707156 0.019568011164665222 -0.3308415412902832 -0.031066060066223145 0.023515278473496437 0 0 0 0
1909429240 -0.006274670362472534 -0.31579363346099854 -0.026706967502832413 0.028478052467107773 0 0 0 0
1913151324 -0.02892448753118515 -0.2978355884552002 -0.021682795137166977 0.03272360563278198 0 0 0 0
1916873408 -0.049938637763261795 -0.27664095163345337 -0.015664435923099518 0.036839745938777924 0 0 0 0
1920595492 -0.06441673636436462 -0.2521667182445526 -0.008923040702939034 0.03946036100387573 0 0 0 0
1924317576 -0.07535341382026672 -0.22644801437854767 -0.0008104480803012848 0.040945664048194885 0 0 0 0
1928039660 -0.08308367431163788 -0.20024573802947998 0.007595786824822426 0.04047219082713127 0 0 0 0
1931761744 -0.08327117562294006 -0.17484965920448303 0.014727662317454815 0.03815527632832527 0 0 0 0
1935483828 -0.08207464218139648 -0.14843867719173431 0.021956823766231537 0.033722035586833954 0 0 0 0
1939205912 -0.07627194374799728 -0.12128305435180664 0.02741234377026558 0.02823689393699169 0 0 0 0
1942927996 -0.06608138233423233 -0.09626848250627518 0.031048936769366264 0.022168485447764397 0 0 0 0
1946650080 -0.0505797415971756 -0.07246291637420654 0.03350171446800232 0.016383957117795944 0 0 0 0
1950372164 -0.030712448060512543 -0.051743969321250916 0.03519979864358902 0.011210897006094456 0 0 0 0
1954094248 -0.006952364929020405 -0.035065166652202606 0.03713527321815491 0.005307963117957115 0 0 0 0
1957816332 0.019379284232854843 -0.023360105231404305 0.03809341788291931 -0.0016925018280744553 0 0 0 0
1961538416 0.048161182552576065 -0.017248280346393585 0.03735284507274628 -0.009090691804885864 0 0 0 0
1965260500 0.07763539254665375 -0.01676250621676445 0.03471139445900917 -0.016189131885766983 0 0 0 0
1968982584 0.10647577047348022 -0.022965025156736374 0.030905306339263916 -0.022346407175064087 0 0 0 0
1972704668 0.132554829120636 -0.034026823937892914 0.02607620321214199 -0.02738521620631218 0 0 0 0
1976426752 0.15619736909866333 -0.04868881776928902 0.020510520786046982 -0.03196436166763306 0 0 0 0
1980148836 0.17600934207439423 -0.0689459964632988 0.01430666632950306 -0.03550524264574051 0 0 0 0
1983870920 0.1917600780725479 -0.09264066815376282 0.006551623344421387 -0.03749718889594078 0 0 0 0
1987593004 0.20296508073806763 -0.1179170161485672 -0.0010554865002632141 -0.037793952971696854 0 0 0 0
1991315088 0.20890012383460999 -0.14454197883605957 -0.008260696195065975 -0.03610372543334961 0 0 0 0
1995037172 0.2093334048986435 -0.17105603218078613 -0.014979149214923382 -0.033360280096530914 0 0 0 0
1998759256 0.20476846396923065 -0.19715788960456848 -0.020638618618249893 -0.028804846107959747 0 0 0 0
2002481340 0.19650891423225403 -0.2219429612159729 -0.02432938665151596 -0.02384544536471367 0 0 0 0
2006203424 0.18377685546875 -0.2441762536764145 -0.027429210022091866 -0.01900436356663704 0 0 0 0
2009925508 0.16801539063453674 -0.26277679204940796 -0.02967902272939682 -0.01465489063411951 0 0 0 0
2013647592 0.1487128734588623 -0.27921485900878906 -0.03153292089700699 -0.010027545504271984 0 0 0 0
2017369676 0.12843774259090424 -0.29181861877441406 -0.03296159207820892 -0.004923389293253422 0 0 0 0
2021091760 0.10512975603342056 -0.30268192291259766 -0.034223753958940506 0.0008966587483882904 0 0 0 0
2024813844 0.07977792620658875 -0.30954509973526 -0.03392723202705383 0.007681867107748985 0 0 0 0
2028535928 0.05450262874364853 -0.30987629294395447 -0.03171934932470322 0.013698993250727654 0 0 0 0
2032258012 0.024164102971553802 -0.30812180042266846 -0.028095755726099014 0.0195959210395813 0 0 0 0
2035980096 -0.0023957788944244385 -0.30024048686027527 -0.023670455440878868 0.023911815136671066 0 0 0 0
2039702180 -0.026369526982307434 -0.28943195939064026 -0.019082382321357727 0.027158915996551514 0 0 0 0
2043424264 -0.05101943761110306 -0.2719957232475281 -0.013858700171113014 0.029591679573059082 0 0 0 0
2047146348 -0.0701407641172409 -0.2518961727619171 -0.008592678233981133 0.03081611543893814 0 0 0 0
2050868432 -0.08721086382865906 -0.22817420959472656 -0.0033971676602959633 0.031079821288585663 0 0 0 0
2054590516 -0.10038373619318008 -0.2031351923942566 0.0012204069644212723 0.031264446675777435 0 0 0 0
2058312600 -0.11012667417526245 -0.17251156270503998 0.006269673816859722 0.03077871724963188 0 0 0 0
2062034684 -0.11215116083621979 -0.1440412551164627 0.011045366525650024 0.029717018827795982 0 0 0 0
2065756768 -0.1133691668510437 -0.11180391162633896 0.016324330121278763 0.027293479070067406 0 0 0 0
2069478852 -0.10815724730491638 -0.08101673424243927 0.020543744787573814 0.023842964321374893 0 0 0 0
2073200936 -0.09791949391365051 -0.04972453787922859 0.024013202637434006 0.019419247284531593 0 0 0 0
2076923020 -0.0825919583439827 -0.018356001004576683 0.02626584656536579 0.014651691541075706 0 0 0 0
2080645104 -0.060603030025959015 0.009211990982294083 0.027425050735473633 0.010367567650973797 0 0 0 0
2084367188 -0.034410763531923294 0.03292485699057579 0.02783580683171749 0.0063784364610910416 0 0 0 0
2088089272 -0.003018871881067753 0.052090879529714584 0.028355548158288002 0.0023108823224902153 0 0 0 0
2091811356 0.030822603031992912 0.06496748328208923 0.028960850089788437 -0.001635025255382061 0 0 0 0
2095533440 0.06601129472255707 0.07266251742839813 0.029577644541859627 -0.006071689538657665 0 0 0 0
2099255524 0.10258433222770691 0.07268529385328293 0.029351871460676193 -0.011447861790657043 0 0 0 0
2102977608 0.1386987417936325 0.06731780618429184 0.027173880487680435 -0.01772092841565609 0 0 0 0
2106699692 0.17206566035747528 0.05811876058578491 0.023363882675766945 -0.02272590808570385 0 0 0 0
2110421776 0.20469693839550018 0.04158065468072891 0.01831044629216194 -0.026885300874710083 0 0 0 0
2114143860 0.2345920205116272 0.020023897290229797 0.013100911863148212 -0.029541222378611565 0 0 0 0
2117865944 0.2591800391674042 -0.0062269167974591255 0.007628569379448891 -0.03155587613582611 0 0 0 0
2121588028 0.27726519107818604 -0.0357360914349556 0.001195802353322506 -0.03291473165154457 0 0 0 0
2125310112 0.29274624586105347 -0.06568340957164764 -0.005446920171380043 -0.03257628530263901 0 0 0 0
2129032196 0.3017202317714691 -0.09945937246084213 -0.012133078649640083 -0.03007499873638153 0 0 0 0
2132754280 0.3055853843688965 -0.13385511934757233 -0.017611978575587273 -0.026267971843481064 0 0 0 0
2136476364 0.30352312326431274 -0.16740167140960693 -0.0216897614300251 -0.021290872246026993 0 0 0 0
2140198448 0.295937180519104 -0.20044557750225067 -0.024027926847338676 -0.016340406611561775 0 0 0 0
2143920532 0.28372856974601746 -0.2306479513645172 -0.025609079748392105 -0.01128341443836689 0 0 0 0
2147642616 0.26607444882392883 -0.2594592273235321 -0.026057744398713112 -0.006943104788661003 0 0 0 0
2151364700 0.24558867514133453 -0.28252115845680237 -0.025992752984166145 -0.0024398192763328552 0 0 0 0
2155086784 0.22231590747833252 -0.3027755916118622 -0.025080407038331032 0.0013368269428610802 0 0 0 0
2158808868 0.19520539045333862 -0.31932175159454346 -0.02413332462310791 0.00499751977622509 0 0 0 0
2162530952 0.166580468416214 -0.3303017020225525 -0.02263241820037365 0.008028510957956314 0 0 0 0
2166253036 0.13597668707370758 -0.33661574125289917 -0.020970186218619347 0.010862390510737896 0 0 0 0
2169975120 0.10679062455892563 -0.3377290368080139 -0.019645221531391144 0.013552960008382797 0 0 0 0
2173697204 0.077639140188694 -0.3346867561340332 -0.018039923161268234 0.016802508383989334 0 0 0 0
2177419288 0.05251306667923927 -0.3276526629924774 -0.015240633860230446 0.01983075588941574 0 0 0 0
2181141372 0.024498596787452698 -0.3166643977165222 -0.011869393289089203 0.02225940302014351 0 0 0 0
2184863456 -0.001915767788887024 -0.302670955657959 -0.008130084723234177 0.024266380816698074 0 0 0 0
2188585540 -0.021461326628923416 -0.28497982025146484 -0.0041732145473361015 0.025813164189457893 0 0 0 0
2192307624 -0.04192648082971573 -0.26320555806159973 0.0008330885320901871 0.02693466655910015 0 0 0 0
2196029708 -0.056547872722148895 -0.24000205099582672 0.006394754163920879 0.026470087468624115 0 0 0 0
2199751792 -0.06954237818717957 -0.21464797854423523 0.012119436636567116 0.02443624660372734 0 0 0 0
2203473876 -0.07543521374464035 -0.18647390604019165 0.01620255410671234 0.02103145234286785 0 0 0 0
2207195960 -0.0793287456035614 -0.15746349096298218 0.0192733034491539 0.01725592650473118 0 0 0 0
2210918044 -0.07798929512500763 -0.12609533965587616 0.021789375692605972 0.012865793891251087 0 0 0 0
2214640128 -0.0695473700761795 -0.0977020412683487 0.023227281868457794 0.008366438560187817 0 0 0 0
2218362212 -0.057870738208293915 -0.06950642168521881 0.023548314347863197 0.0035604573786258698 0 0 0 0
2222084296 -0.039077892899513245 -0.046685561537742615 0.02291286550462246 -0.0010386360809206963 0 0 0 0
2225806380 -0.018670357763767242 -0.02590256929397583 0.02143775299191475 -0.00515245646238327 0 0 0 0
2229528464 0.004830240271985531 -0.010116152465343475 0.01973116025328636 -0.008186379447579384 0 0 0 0
2233250548 0.029815323650836945 0.0018032072111964226 0.017318032681941986 -0.011827515438199043 0 0 0 0
2236972632 0.05662558227777481 0.008601486682891846 0.014784055761992931 -0.014026777818799019 0 0 0 0
2240694716 0.08384300023317337 0.011026404798030853 0.011522316373884678 -0.01613118313252926 0 0 0 0
2244416800 0.11066693067550659 0.011067438870668411 0.008493807166814804 -0.017491312697529793 0 0 0 0
2248138884 0.13617613911628723 0.002879831939935684 0.004707661457359791 -0.01835223101079464 0 0 0 0
2251860968 0.1600065976381302 -0.006356664001941681 0.0011768406257033348 -0.01863195188343525 0 0 0 0
2255583052 0.18200485408306122 -0.022218361496925354 -0.0022681336849927902 -0.01820570044219494 0 0 0 0
2259305136 0.20149335265159607 -0.040294334292411804 -0.005852389149367809 -0.016614248976111412 0 0 0 0
2263027220 0.21553348004817963 -0.0625113695859909 -0.00785529799759388 -0.014834390953183174 0 0 0 0
2266749304 0.22751347720623016 -0.07966533303260803 -0.00974300317466259 -0.012630379758775234 0 0 0 0
2270471388 0.2325986623764038 -0.10853873193264008 -0.01111333817243576 -0.010700419545173645 0 0 0 0
2274193472 0.2345406860113144 -0.1338716447353363 -0.012210671789944172 -0.00884002260863781 0 0 0 0
2277915556 0.2353568822145462 -0.15490326285362244 -0.013260244391858578 -0.0068816812708973885 0 0 0 0
2281637640 0.22615374624729156 -0.1809258908033371 -0.013992829248309135 -0.0046333493664860725 0 0 0 0
2285359724 0.209539532661438 -0.2064533531665802 -0.014458905905485153 -0.0024237195029854774 0 0 0 0
2289081808 0.19943878054618835 -0.22086860239505768 -0.014644593000411987 -0.00035134609788656235 0 0 0 0
2292803892 0.17940956354141235 -0.23696687817573547 -0.014385427348315716 0.0021451078355312347 0 0 0 0
2296525976 0.15881794691085815 -0.2466621845960617 -0.013464811258018017 0.004434031434357166 0 0 0 0
2300248060 0.14499151706695557 -0.2522614896297455 -0.012158524245023727 0.006282974034547806 0 0 0 0
2303970144 0.12431328743696213 -0.2619771957397461 -0.010545323602855206 0.008128073066473007 0 0 0 0
2307692228 0.10075950622558594 -0.26102393865585327 -0.00909196212887764 0.009328784421086311 0 0 0 0
2311414312 0.08055246621370316 -0.2597382664680481 -0.006981248967349529 0.010305050760507584 0 0 0 0
2315136396 0.05239177495241165 -0.2555277943611145 -0.00439753383398056 0.010464970953762531 0 0 0 0
2318858480 0.03464750573039055 -0.24520233273506165 -0.0026400452479720116 0.009655975736677647 0 0 0 0
2322580564 0.014566399157047272 -0.23156675696372986 -0.0015868963673710823 0.008879225701093674 0 0 0 0
2326302648 -0.003912784159183502 -0.21319743990898132 -0.0006198287010192871 0.00822477787733078 0 0 0 0
2330024732 -0.015691537410020828 -0.19288350641727448 -0.00023064855486154556 0.007501177489757538 0 0 0 0
2333746816 -0.02595551684498787 -0.17048856616020203 0.00024827104061841965 0.00718484353274107 0 0 0 0
2337468900 -0.033857595175504684 -0.14451628923416138 0.0006637489423155785 0.007057820446789265 0 0 0 0
2341190984 -0.03289130702614784 -0.11952625215053558 0.0014681406319141388 0.006873474456369877 0 0 0 0
2344913068 -0.030337195843458176 -0.09290692955255508 0.0019636768847703934 0.006185230799019337 0 0 0 0
2348635152 -0.02339813858270645 -0.06760666519403458 0.0023140134289860725 0.005605004727840424 0 0 0 0
2352357236 -0.009637690149247646 -0.044081151485443115 0.002439660020172596 0.0047725168988108635 0 0 0 0
2356079320 0.006824961863458157 -0.022639762610197067 0.002476738765835762 0.004394625313580036 0 0 0 0
2359801404 0.02819356508553028 -0.004678390920162201 0.002549322322010994 0.003975348547101021 0 0 0 0
2363523488 0.052114345133304596 0.009631289169192314 0.002616552636027336 0.0035667959600687027 0 0 0 0
2367245572 0.07782846689224243 0.01971132680773735 0.002653072588145733 0.0031532635912299156 0 0 0 0
2370967656 0.10556278377771378 0.024510102346539497 0.0024809567257761955 0.003040723502635956 0 0 0 0
2374689740 0.13366204500198364 0.02493714913725853 0.002464776858687401 0.0030127819627523422 0 0 0 0
2378411824 0.1612299382686615 0.019896522164344788 0.0026719020679593086 0.0028492044657468796 0 0 0 0
2382133908 0.1876320093870163 0.01032959669828415 0.0026084529235959053 0.0025997841730713844 0 0 0 0
2385855992 0.21209758520126343 -0.003580157645046711 0.0025111474096775055 0.0023749535903334618 0 0 0 0
2389578076 0.23329609632492065 -0.020947299897670746 0.0024219807237386703 0.0024662381038069725 0 0 0 0
2393300160 0.2525025010108948 -0.04025673121213913 0.002269541844725609 0.0028701303526759148 0 0 0 0
2397022244 0.2670983076095581 -0.06349225342273712 0.002560669556260109 0.003344290889799595 0 0 0 0
2400744328 0.2775668799877167 -0.08859889209270477 0.003592371940612793 0.003998834639787674 0 0 0 0
2404466412 0.2868225574493408 -0.11680886149406433 0.005206861533224583 0.003735968843102455 0 0 0 0
2408188496 0.28847527503967285 -0.1448386162519455 0.006465067155659199 0.002814076840877533 0 0 0 0
2411910580 0.28940653800964355 -0.17264355719089508 0.007336761802434921 0.001656707376241684 0 0 0 0
2415632664 0.2808479070663452 -0.2000812143087387 0.00794011726975441 0.00018058158457279205 0 0 0 0
2419354748 0.27026331424713135 -0.22387929260730743 0.008289909921586514 -0.0013520028442144394 0 0 0 0
2423076832 0.2553582787513733 -0.24839672446250916 0.008249817416071892 -0.0031818337738513947 0 0 0 0
2426798916 0.23857653141021729 -0.26871833205223083 0.0075597455725073814 -0.0050171371549367905 0 0 0 0
2430521000 0.21716319024562836 -0.28885796666145325 0.006177135743200779 -0.006373660638928413 0 0 0 0
2434243084 0.19359028339385986 -0.30395978689193726 0.004637563601136208 -0.007333006709814072 0 0 0 0
2437965168 0.1681840866804123 -0.317055881023407 0.0034336531534790993 -0.0075982362031936646 0 0 0 0
2441687252 0.13912290334701538 -0.32434970140457153 0.0025079837068915367 -0.00791311264038086 0 0 0 0
2445409336 0.11289012432098389 -0.3283688426017761 0.0016994839534163475 -0.008185641840100288 0 0 0 0
2449131420 0.08336462825536728 -0.326934814453125 0.0008519282564520836 -0.008582254871726036 0 0 0 0
2452853504 0.057392895221710205 -0.3230628967285156 2.8596259653568268e-05 -0.00915813259780407 0 0 0 0
2456575588 0.029504433274269104 -0.31301945447921753 -0.0009997021406888962 -0.009857667610049248 0 0 0 0
2460297672 0.002665981650352478 -0.2987300753593445 -0.002769595943391323 -0.010555457323789597 0 0 0 0
2464019756 -0.02030729502439499 -0.28224682807922363 -0.005058661103248596 -0.010834142565727234 0 0 0 0
2467741840 -0.03991903364658356 -0.26149144768714905 -0.007231290452182293 -0.010244437493383884 0 0 0 0
2471463924 -0.059264764189720154 -0.239602729678154 -0.009319514036178589 -0.009198375046253204 0 0 0 0
2475186008 -0.07228238135576248 -0.21457409858703613 -0.010948309674859047 -0.00797517504543066 0 0 0 0
2478908092 -0.08234589546918869 -0.1855686455965042 -0.012648319825530052 -0.006399177014827728 0 0 0 0
2482630176 -0.0877489522099495 -0.15696604549884796 -0.013931658118963242 -0.0045313239097595215 0 0 0 0
2486352260 -0.0886228010058403 -0.12770867347717285 -0.015048393979668617 -0.0023205913603305817 0 0 0 0
2490074344 -0.08652955293655396 -0.0966382622718811 -0.015852563083171844 0.00039930082857608795 0 0 0 0
2493796428 -0.07789289206266403 -0.06746698915958405 -0.016205649822950363 0.00337869580835104 0 0 0 0
2497518512 -0.06535671651363373 -0.039791982620954514 -0.015735700726509094 0.006304082460701466 0 0 0 0
2501240596 -0.04845166206359863 -0.014175435528159142 -0.014316204003989697 0.008986364118754864 0 0 0 0
2504962680 -0.027206305414438248 0.008777033537626266 -0.013007355853915215 0.011356579139828682 0 0 0 0
2508684764 -0.0029415544122457504 0.027487030252814293 -0.011787371709942818 0.013649462722241879 0 0 0 0
2512406848 0.024318603798747063 0.041730109602212906 -0.00910890381783247 0.016252806410193443 0 0 0 0
2516128932 0.05370854213833809 0.05179523676633835 -0.005820084363222122 0.018391083925962448 0 0 0 0
2519851016 0.08405932784080505 0.05706001818180084 -0.0017224596813321114 0.019303079694509506 0 0 0 0
2523573100 0.11525244265794754 0.05507713183760643 0.002407570369541645 0.018878022208809853 0 0 0 0
2527295184 0.1439083218574524 0.0497092567384243 0.005585364997386932 0.0177141223102808 0 0 0 0
2531017268 0.17129381000995636 0.03669314086437225 0.009047449566423893 0.01633807271718979 0 0 0 0
2534739352 0.19360893964767456 0.02259232848882675 0.01207173801958561 0.014081565663218498 0 0 0 0
2538461436 0.2138022929430008 0.005832437425851822 0.014386298134922981 0.011178639717400074 0 0 0 0
2542183520 0.2298206090927124 -0.012484319508075714 0.016035329550504684 0.00783609226346016 0 0 0 0
2545905604 0.243437260389328 -0.03575875610113144 0.017052100971341133 0.004364604130387306 0 0 0 0
2549627688 0.25462186336517334 -0.05620763450860977 0.01740901544690132 0.0006614299491047859 0 0 0 0
2553349772 0.2598625719547272 -0.08001244813203812 0.01652800291776657 -0.0033704526722431183 0 0 0 0
2557071856 0.26262181997299194 -0.10007958859205246 0.014619201421737671 -0.006593173369765282 0 0 0 0
2560793940 0.26419681310653687 -0.1244601234793663 0.011910798959434032 -0.008960222825407982 0 0 0 0
2564516024 0.259947806596756 -0.1466866433620453 0.009442118927836418 -0.010252879001200199 0 0 0 0
2568238108 0.25445854663848877 -0.16528315842151642 0.0068558380007743835 -0.011272638104856014 0 0 0 0
2571960192 0.24481099843978882 -0.1860530972480774 0.0044318437576293945 -0.011428950354456902 0 0 0 0
2575682276 0.2358146458864212 -0.2018505036830902 0.0022461730986833572 -0.011272326111793518 0 0 0 0
2579404360 0.2218097746372223 -0.2165955752134323 0.000538945198059082 -0.010713350027799606 0 0 0 0
2583126444 0.2061704695224762 -0.23058205842971802 -0.0006220685318112373 -0.010122152976691723 0 0 0 0
2586848528 0.191257506608963 -0.24101167917251587 -0.0019734278321266174 -0.00984115432947874 0 0 0 0
2590570612 0.17507503926753998 -0.24843543767929077 -0.0033805128186941147 -0.009406674653291702 0 0 0 0
2594292696 0.15402176976203918 -0.25546568632125854 -0.004969672299921513 -0.008296962827444077 0 0 0 0
2598014780 0.1369858831167221 -0.2590722143650055 -0.0058420198038220406 -0.007405649870634079 0 0 0 0
2601736864 0.1205449029803276 -0.2595095932483673 -0.006932584568858147 -0.006253483705222607 0 0 0 0
2605458948 0.10067559033632278 -0.25570812821388245 -0.007764254696667194 -0.004773329943418503 0 0 0 0
2609181032 0.08416666090488434 -0.2505354583263397 -0.008004517294466496 -0.0028838636353611946 0 0 0 0
2612903116 0.06779179722070694 -0.2432079315185547 -0.007678979076445103 -0.0013004383072257042 0 0 0 0
2616625200 0.052195653319358826 -0.23227432370185852 -0.006907198578119278 1.8572434782981873e-05 0 0 0 0
2620347284 0.04325149953365326 -0.22028765082359314 -0.0062628258019685745 0.0007535507902503014 0 0 0 0
2624069368 0.03279569000005722 -0.20680072903633118 -0.0053804414346814156 0.0013305852189660072 0 0 0 0
2627791452 0.025991667062044144 -0.19122624397277832 -0.004283015616238117 0.001436946913599968 0 0 0 0
2631513536 0.022124946117401123 -0.1757262945175171 -0.00391047727316618 0.0012057572603225708 0 0 0 0
2635235620 0.021317288279533386 -0.16070556640625 -0.0037159519270062447 0.0014475444331765175 0 0 0 0
2638957704 0.023945126682519913 -0.14713501930236816 -0.0034940727055072784 0.0017669536173343658 0 0 0 0
2642679788 0.026644166558980942 -0.13326817750930786 -0.0029187705367803574 0.0019060978665947914 0 0 0 0
2646401872 0.03398042172193527 -0.1203620433807373 -0.0025827065110206604 0.0016882633790373802 0 0 0 0
2650123956 0.04324948042631149 -0.10953205823898315 -0.002181406132876873 0.0013499623164534569 0 0 0 0
2653846040 0.05195632204413414 -0.10188520699739456 -0.002141284756362438 0.0009331144392490387 0 0 0 0
2657568124 0.06395328789949417 -0.09582196921110153 -0.002601032145321369 0.000787956640124321 0 0 0 0
2661290208 0.07691769301891327 -0.09373611211776733 -0.003046691417694092 0.0010724849998950958 0 0 0 0
2665012292 0.0882253646850586 -0.09442203491926193 -0.0032601309940218925 0.0015909988433122635 0 0 0 0
2668734376 0.09778560698032379 -0.0980190560221672 -0.0033048801124095917 0.002093515358865261 0 0 0 0
2672456460 0.10728716850280762 -0.1027592122554779 -0.003117774613201618 0.0028728367760777473 0 0 0 0
2676178544 0.11430872231721878 -0.11004571616649628 -0.002762441523373127 0.0035724984481930733 0 0 0 0
2679900628 0.12000462412834167 -0.11745069175958633 -0.0021064085885882378 0.004304871894419193 0 0 0 0
2683622712 0.12322097271680832 -0.12548910081386566 -0.0012904629111289978 0.004476907663047314 0 0 0 0
2687344796 0.12392113357782364 -0.13428865373134613 -0.00034844037145376205 0.0046807387843728065 0 0 0 0
2691066880 0.12342768162488937 -0.14318619668483734 0.0005369344726204872 0.004691515117883682 0 0 0 0
2694788964 0.12093748152256012 -0.15166184306144714 0.0012717712670564651 0.004611482843756676 0 0 0 0
2698511048 0.11882096529006958 -0.15764018893241882 0.0021956609562039375 0.0044652605429291725 0 0 0 0
2702233132 0.1144268587231636 -0.16482090950012207 0.0031930087134242058 0.0038291960954666138 0 0 0 0
2705955216 0.10885005444288254 -0.1706891506910324 0.004115638323128223 0.00298992358148098 0 0 0 0
2709677300 0.10041473060846329 -0.17711764574050903 0.0046650730073452 0.0016309600323438644 0 0 0 0
2713399384 0.09271404892206192 -0.18171894550323486 0.004749499261379242 0.0002788463607430458 0 0 0 0
2717121468 0.07996569573879242 -0.18422605097293854 0.004326126538217068 -0.0007057972252368927 0 0 0 0
2720843552 0.07018201053142548 -0.1853019893169403 0.003976174630224705 -0.0015653939917683601 0 0 0 0
2724565636 0.05596890673041344 -0.18446087837219238 0.003131515346467495 -0.002277527004480362 0 0 0 0
2728287720 0.04585012048482895 -0.17937932908535004 0.002387484535574913 -0.0024213511496782303 0 0 0 0
2732009804 0.03432800620794296 -0.17384904623031616 0.0019085574895143509 -0.002428474836051464 0 0 0 0
2735731888 0.024384867399930954 -0.16463112831115723 0.0015970710664987564 -0.002454560250043869 0 0 0 0
2739453972 0.015173647552728653 -0.15356777608394623 0.0014041848480701447 -0.0025718798860907555 0 0 0 0
2743176056 0.00785452127456665 -0.14055758714675903 0.0010500773787498474 -0.0026491982862353325 0 0 0 0
2746898140 0.0025557372719049454 -0.12586325407028198 0.0008686669170856476 -0.002657161094248295 0 0 0 0
2750620224 -0.00021949037909507751 -0.11036467552185059 0.0007924269884824753 -0.0025767330080270767 0 0 0 0
2754342308 0.0014868509024381638 -0.09396888315677643 0.0009150523692369461 -0.0029395734891295433 0 0 0 0
2758064392 0.003699726425111294 -0.0778801292181015 0.00041317660361528397 -0.003567182458937168 0 0 0 0
2761786476 0.008977048099040985 -0.06214699149131775 -0.0002625389024615288 -0.003948702476918697 0 0 0 0
2765508560 0.017514513805508614 -0.04608405753970146 -0.0011311620473861694 -0.0037871496751904488 0 0 0 0
2769230644 0.029594896361231804 -0.03114047460258007 -0.0020738132297992706 -0.0034424765035510063 0 0 0 0
2772952728 0.04378850758075714 -0.01945747621357441 -0.0025298073887825012 -0.0028362004086375237 0 0 0 0
2776674812 0.060459528118371964 -0.009941787458956242 -0.0026735560968518257 -0.0022193649783730507 0 0 0 0
2780396896 0.078513003885746 -0.003623685799539089 -0.002823224291205406 -0.0016868291422724724 0 0 0 0
2784118980 0.09720839560031891 0.0008148178458213806 -0.0029566101729869843 -0.0012453431263566017 0 0 0 0
2787841064 0.1169375330209732 0.002958286553621292 -0.0028112735599279404 -0.0005047237500548363 0 0 0 0
2791563148 0.13794764876365662 0.0015622563660144806 -0.0026092464104294777 -4.999898374080658e-05 0 0 0 0
2795285232 0.15818652510643005 -0.0022433334961533546 -0.002319006249308586 0.00038482528179883957 0 0 0 0
2799007316 0.17945757508277893 -0.010393697768449783 -0.0016797315329313278 0.0005454570055007935 0 0 0 0
2802729400 0.19881680607795715 -0.026453640311956406 -0.0013029314577579498 0.0003224862739443779 0 0 0 0
2806451484 0.21492880582809448 -0.0391576886177063 -0.0012533990666270256 -4.248879849910736e-05 0 0 0 0
2810173568 0.2298920750617981 -0.055530667304992676 -0.001545669510960579 7.332582026720047e-05 0 0 0 0
2813895652 0.24153099954128265 -0.07942547649145126 -0.0016890289261937141 0.00037344731390476227 0 0 0 0
2817617736 0.24944309890270233 -0.10085032880306244 -0.0015270551666617393 0.0007880153134465218 0 0 0 0
2821339820 0.25359636545181274 -0.12530075013637543 -0.0012171519920229912 0.0010132873430848122 0 0 0 0
2825061904 0.2538047134876251 -0.14907008409500122 -0.0007017990574240685 0.0011917883530259132 0 0 0 0
2828783988 0.2515399754047394 -0.17203550040721893 -0.0004856744781136513 0.001204613596200943 0 0 0 0
2832506072 0.24990825355052948 -0.19001911580562592 -0.0001885686069726944 0.0011074617505073547 0 0 0 0
2836228156 0.23679691553115845 -0.21665509045124054 0.00021625962108373642 0.0009656567126512527 0 0 0 0
2839950240 0.22563788294792175 -0.23508282005786896 0.0004261508584022522 0.0008807526901364326 0 0 0 0
2843672324 0.2102043628692627 -0.2541597783565521 0.000758826732635498 0.0005876161158084869 0 0 0 0
2847394408 0.19669200479984283 -0.271230012178421 0.0007215198129415512 0.00018586311489343643 0 0 0 0
2851116492 0.17586985230445862 -0.2872922420501709 0.0006518429145216942 -6.189197301864624e-05 0 0 0 0
2854838576 0.15902653336524963 -0.29758596420288086 0.0005826996639370918 -0.00017996877431869507 0 0 0 0
2858560660 0.13744959235191345 -0.3071241080760956 0.0005563190206885338 -0.0006402833387255669 0 0 0 0
2862282744 0.10986852645874023 -0.31726592779159546 0.00028470437973737717 -0.0005698176100850105 0 0 0 0
2866004828 0.0919295996427536 -0.3185597062110901 0.0003799246624112129 -0.00046174507588148117 0 0 0 0
2869726912 0.06104505807161331 -0.32122325897216797 0.0005260761827230453 -0.0004799189046025276 0 0 0 0
2873448996 0.03781440854072571 -0.3185056447982788 0.0006848946213722229 -0.0005128979682922363 0 0 0 0
2877171080 0.012992575764656067 -0.3114096224308014 0.000750749371945858 -0.0006809495389461517 0 0 0 0
2880893164 -0.009480416774749756 -0.30432623624801636 0.0006390567868947983 -0.0009014280512928963 0 0 0 0
2884615248 -0.03368165343999863 -0.28992360830307007 0.0004196753725409508 -0.001110476441681385 0 0 0 0
2888337332 -0.052815474569797516 -0.2750016450881958 0.00023911334574222565 -0.0011910656467080116 0 0 0 0
2892059416 -0.07491832226514816 -0.2569299340248108 7.340870797634125e-05 -0.0011653881520032883 0 0 0 0
2895781500 -0.09229379147291183 -0.23634648323059082 -0.00024443306028842926 -0.0009371284395456314 0 0 0 0
2899503584 -0.10510821640491486 -0.2121203988790512 -0.00036720093339681625 -0.0008253380656242371 0 0 0 0
2903225668 -0.11603794991970062 -0.18715840578079224 -0.0002957489341497421 -0.0004933206364512444 0 0 0 0
2906947752 -0.12161501497030258 -0.16133755445480347 -9.277649223804474e-05 -0.00038682855665683746 0 0 0 0
2910669836 -0.12465658038854599 -0.13370929658412933 -1.1341646313667297e-05 -0.00023287441581487656 0 0 0 0
2914391920 -0.12344501912593842 -0.10770836472511292 0.0001503610983490944 -0.0003002593293786049 0 0 0 0
2918114004 -0.11776852607727051 -0.08273778110742569 0.00042574014514684677 -0.0003500552847981453 0 0 0 0
2921836088 -0.112603560090065 -0.057779811322689056 0.0003556692972779274 -0.0004601394757628441 0 0 0 0
2925558172 -0.10348554700613022 -0.034054096788167953 0.0003397474065423012 -0.0006030621007084846 0 0 0 0
2929280256 -0.09118367731571198 -0.010457485914230347 0.00028464384377002716 -0.00072427187114954 0 0 0 0
2933002340 -0.07576650381088257 0.011307111009955406 0.00010099634528160095 -0.0007806383073329926 0 0 0 0
2936724424 -0.05724233388900757 0.03091461956501007 -0.00016707368195056915 -0.0006205923855304718 0 0 0 0
2940446508 -0.036340758204460144 0.047542352229356766 -0.00029907654970884323 -0.0004197116941213608 0 0 0 0
2944168592 -0.013109828345477581 0.061761803925037384 -0.00044326484203338623 -8.506420999765396e-05 0 0 0 0
2947890676 0.010694348253309727 0.0735488012433052 -0.00042694155126810074 0.00032102130353450775 0 0 0 0
2951612760 0.03901940584182739 0.08141198754310608 7.851049304008484e-06 0.0006826724857091904 0 0 0 0
2955334844 0.0669434666633606 0.08418481796979904 0.00041081756353378296 0.0008930927142500877 0 0 0 0
2959056928 0.0940893217921257 0.08493539690971375 0.000822107307612896 0.0009453967213630676 0 0 0 0
2962779012 0.12185337394475937 0.07890120893716812 0.0012835552915930748 0.0010201791301369667 0 0 0 0
2966501096 0.14783285558223724 0.07058430463075638 0.0020115720108151436 0.0007994957268238068 0 0 0 0
2970223180 0.17049278318881989 0.06142326444387436 0.0022955937311053276 0.00024777092039585114 0 0 0 0
2973945264 0.19349068403244019 0.04500066488981247 0.0024080565199255943 -0.0003957664594054222 0 0 0 0
2977667348 0.21412596106529236 0.029476948082447052 0.00241997092962265 -0.0008658580482006073 0 0 0 0
2981389432 0.23170997202396393 0.005842264741659164 0.002224929630756378 -0.001339571550488472 0 0 0 0
2985111516 0.2449028491973877 -0.015222936868667603 0.001969955861568451 -0.0017043203115463257 0 0 0 0
2988833600 0.2562743127346039 -0.038164012134075165 0.0015867184847593307 -0.0020741531625390053 0 0 0 0
2992555684 0.2645610570907593 -0.06149786710739136 0.0010557295754551888 -0.0023693591356277466 0 0 0 0
2996277768 0.2683923542499542 -0.08159752935171127 0.0005823075771331787 -0.0022290805354714394 0 0 0 0
2999999852 0.26962244510650635 -0.1101241409778595 0.00016236398369073868 -0.0020921481773257256 0 0 0 0
