# HZ S RI R 50
1500000000 -0.15060168504714966 -0.00795077160000801 0.0711713507771492 -0.03365600109100342 0 0 0 0
1503722084 -0.12811990082263947 0.02694402076303959 0.06213657557964325 -0.04593254625797272 0 0 0 0
1507444168 -0.09885332733392715 0.057431697845458984 0.051132380962371826 -0.05562702938914299 0 0 0 0
1511166252 -0.06345172971487045 0.08294762670993805 0.037734296172857285 -0.06267419457435608 0 0 0 0
1514888336 -0.021941710263490677 0.10351034253835678 0.024053027853369713 -0.06569467484951019 0 0 0 0
1518610420 0.023069608956575394 0.11702319979667664 0.010399995371699333 -0.06616586446762085 0 0 0 0
1522332504 0.07291913777589798 0.12227149307727814 -0.001093246042728424 -0.06360870599746704 0 0 0 0
1526054588 0.12387023866176605 0.11795210838317871 -0.011804692447185516 -0.059114571660757065 0 0 0 0
1529776672 0.17416834831237793 0.10549776256084442 -0.020565735176205635 -0.05300465598702431 0 0 0 0
1533498756 0.2229803502559662 0.08384530246257782 -0.027273286134004593 -0.045904941856861115 0 0 0 0
1537220840 0.26903074979782104 0.05095885694026947 -0.03236750513315201 -0.03845278546214104 0 0 0 0
1540942924 0.3090568780899048 0.011034753173589706 -0.03533349931240082 -0.030680961906909943 0 0 0 0
1544665008 0.34132495522499084 -0.035086408257484436 -0.03638853877782822 -0.02423897013068199 0 0 0 0
1548387092 0.36399340629577637 -0.08856968581676483 -0.03725721314549446 -0.01848415471613407 0 0 0 0
1552109176 0.3797229528427124 -0.14082083106040955 -0.037894994020462036 -0.012706167995929718 0 0 0 0
1555831260 0.38726603984832764 -0.19619408249855042 -0.0375506617128849 -0.00695545319467783 0 0 0 0
1559553344 0.3836847245693207 -0.25435811281204224 -0.03617621585726738 -0.001428576186299324 0 0 0 0
1563275428 0.3725687265396118 -0.31128430366516113 -0.03416499122977257 0.003101482056081295 0 0 0 0
1566997512 0.35342907905578613 -0.3679921627044678 -0.03197339177131653 0.007126046344637871 0 0 0 0
1570719596 0.32646194100379944 -0.4184943735599518 -0.029275938868522644 0.010855627246201038 0 0 0 0
1574441680 0.2856261730194092 -0.46817126870155334 -0.026356514543294907 0.013455630280077457 0 0 0 0
1578163764 0.24404342472553253 -0.5085116028785706 -0.023615248501300812 0.015586910769343376 0 0 0 0
1581885848 0.19780051708221436 -0.5396061539649963 -0.021224074065685272 0.017452489584684372 0 0 0 0
1585607932 0.14099963009357452 -0.5656230449676514 -0.018606364727020264 0.019195454195141792 0 0 0 0
1589330016 0.08824096620082855 -0.5836237668991089 -0.01607879251241684 0.020561449229717255 0 0 0 0
1593052100 0.02668982744216919 -0.5954239368438721 -0.01356685534119606 0.021844390779733658 0 0 0 0
1596774184 -0.03490939736366272 -0.5972064733505249 -0.011139089241623878 0.023047246038913727 0 0 0 0
1600496268 -0.09717823565006256 -0.5897685885429382 -0.008580353111028671 0.024669446051120758 0 0 0 0
1604218352 -0.15272709727287292 -0.574939489364624 -0.005289820954203606 0.02594718337059021 0 0 0 0
1607940436 -0.21225804090499878 -0.5500000715255737 -0.0016260277479887009 0.02679050713777542 0 0 0 0
1611662520 -0.26638439297676086 -0.5182729959487915 0.00241987407207489 0.027046967297792435 0 0 0 0
1615384604 -0.31582188606262207 -0.4776986539363861 0.006433941423892975 0.02664748765528202 0 0 0 0
1619106688 -0.3607313632965088 -0.42966341972351074 0.010592719539999962 0.025406725704669952 0 0 0 0
1622828772 -0.39706850051879883 -0.3778408169746399 0.014710710383951664 0.02386488951742649 0 0 0 0
1626550856 -0.4245333671569824 -0.3190758228302002 0.018835734575986862 0.021320544183254242 0 0 0 0
1630272940 -0.4456669092178345 -0.2568552792072296 0.022723060101270676 0.017711492255330086 0 0 0 0
1633995024 -0.46006375551223755 -0.18955184519290924 0.025572098791599274 0.012943226844072342 0 0 0 0
1637717108 -0.46393510699272156 -0.12000115215778351 0.027445543557405472 0.007864415645599365 0 0 0 0
1641439192 -0.4582902789115906 -0.052690956741571426 0.027869518846273422 0.0024529071524739265 0 0 0 0
1645161276 -0.44159770011901855 0.020377427339553833 0.027170026674866676 -0.002604451961815357 0 0 0 0
1648883360 -0.4126600921154022 0.08941929787397385 0.025857262313365936 -0.0070744892582297325 0 0 0 0
1652605444 -0.37275514006614685 0.1548110991716385 0.02352755516767502 -0.011810047551989555 0 0 0 0
1656327528 -0.3246847987174988 0.21072256565093994 0.020452868193387985 -0.015607386827468872 0 0 0 0
1660049612 -0.26706817746162415 0.25959035754203796 0.016643987968564034 -0.018726307898759842 0 0 0 0
1663771696 -0.20379924774169922 0.30063876509666443 0.012353186495602131 -0.02082706429064274 0 0 0 0
1667493780 -0.13174639642238617 0.3332458734512329 0.007891971617937088 -0.022125856950879097 0 0 0 0
1671215864 -0.05671067535877228 0.3558359146118164 0.002805180847644806 -0.022683998569846153 0 0 0 0
1674937948 0.026016749441623688 0.3662949800491333 -0.0020730411633849144 -0.02135932631790638 0 0 0 0
1678660032 0.10618770867586136 0.36349818110466003 -0.005896907299757004 -0.018934309482574463 0 0 0 0
1682382116 0.1879965364933014 0.3471086025238037 -0.008835537359118462 -0.01604931801557541 0 0 0 0
1686104200 0.26576533913612366 0.31776493787765503 -0.010655947960913181 -0.012595079839229584 0 0 0 0
1689826284 0.3386167287826538 0.2755158543586731 -0.011500447057187557 -0.009424938820302486 0 0 0 0
1693548368 0.4042294919490814 0.22144168615341187 -0.011625704355537891 -0.006465994752943516 0 0 0 0
1697270452 0.45884081721305847 0.1584475338459015 -0.011190555058419704 -0.003769073635339737 0 0 0 0
1700992536 0.5024226307868958 0.0862235277891159 -0.009966214187443256 -0.0015869773924350739 0 0 0 0
1704714620 0.5341642498970032 0.011126808822154999 -0.00859872531145811 -0.00012062396854162216 0 0 0 0
1708436704 0.553631067276001 -0.06746198236942291 -0.0071605537086725235 0.0006249342113733292 0 0 0 0
1712158788 0.5599501729011536 -0.1488998532295227 -0.005835317075252533 0.0010352330282330513 0 0 0 0
1715880872 0.5543710589408875 -0.2273482233285904 -0.005031765438616276 0.0010089930146932602 0 0 0 0
1719602956 0.5337618589401245 -0.3074578046798706 -0.004220548085868359 0.001099374145269394 0 0 0 0
1723325040 0.5058503150939941 -0.3751276135444641 -0.0035871658474206924 0.0007973341271281242 0 0 0 0
1727047124 0.4641296863555908 -0.4427424669265747 -0.003127921372652054 0.00035975221544504166 0 0 0 0
1730769208 0.41288942098617554 -0.5019752979278564 -0.0030708257108926773 6.834510713815689e-05 0 0 0 0
1734491292 0.35628336668014526 -0.5508546829223633 -0.0031519485637545586 -0.0003096386790275574 0 0 0 0
1738213376 0.2914011478424072 -0.5910247564315796 -0.0032299989834427834 -0.0004894649609923363 0 0 0 0
1741935460 0.22370676696300507 -0.6183056235313416 -0.0036266762763261795 -0.0008298950269818306 0 0 0 0
1745657544 0.15415191650390625 -0.6341721415519714 -0.00414046086370945 -0.0009775040671229362 0 0 0 0
1749379628 0.08317862451076508 -0.6403995752334595 -0.004966970533132553 -0.0006082979962229729 0 0 0 0
1753101712 0.013772662729024887 -0.6350927352905273 -0.005310705862939358 -0.0001389170065522194 0 0 0 0
1756823796 -0.05599391460418701 -0.6193031668663025 -0.005576403811573982 0.0003338223323225975 0 0 0 0
1760545880 -0.11814527213573456 -0.5937758088111877 -0.005826317705214024 0.0008106119930744171 0 0 0 0
1764267964 -0.17445571720600128 -0.5613192915916443 -0.005991603247821331 0.0011401614174246788 0 0 0 0
1767990048 -0.22415536642074585 -0.5196337699890137 -0.0066547514870762825 0.0013270014896988869 0 0 0 0
1771712132 -0.26456886529922485 -0.4731059670448303 -0.007487189024686813 0.0017822114750742912 0 0 0 0
1775434216 -0.301271915435791 -0.4207078814506531 -0.008928606286644936 0.002774949185550213 0 0 0 0
1779156300 -0.32590004801750183 -0.36763983964920044 -0.010009359568357468 0.004718083888292313 0 0 0 0
1782878384 -0.34505701065063477 -0.310470849275589 -0.01067733857780695 0.007307414896786213 0 0 0 0
1786600468 -0.35447704792022705 -0.2541831135749817 -0.010495784692466259 0.010347656905651093 0 0 0 0
1790322552 -0.3572985827922821 -0.19601322710514069 -0.009453408420085907 0.013643383048474789 0 0 0 0
1794044636 -0.3520922064781189 -0.13751918077468872 -0.007257910445332527 0.01677444577217102 0 0 0 0
1797766720 -0.3382832407951355 -0.081018827855587 -0.004464795812964439 0.01940249279141426 0 0 0 0
1801488804 -0.31755203008651733 -0.028277792036533356 -0.0011048177257180214 0.02188018709421158 0 0 0 0
1805210888 -0.2877601385116577 0.02063542604446411 0.003589186817407608 0.024081137031316757 0 0 0 0
1808932972 -0.2507355213165283 0.06762026995420456 0.009510131552815437 0.024868812412023544 0 0 0 0
1812655056 -0.20711654424667358 0.10553284734487534 0.015913568437099457 0.02375909686088562 0 0 0 0
1816377140 -0.1575241982936859 0.13604095578193665 0.021855471655726433 0.020969625562429428 0 0 0 0
1820099224 -0.10426472127437592 0.15689018368721008 0.027531808242201805 0.016302010044455528 0 0 0 0
1823821308 -0.048149608075618744 0.16898253560066223 0.03174912929534912 0.00976775586605072 0 0 0 0
1827543392 0.0071205683052539825 0.17086003720760345 0.03361447900533676 0.0025538532063364983 0 0 0 0
1831265476 0.06246991455554962 0.1625152975320816 0.03351612016558647 -0.004729779437184334 0 0 0 0
1834987560 0.11098885536193848 0.14705118536949158 0.0321720615029335 -0.011093336157500744 0 0 0 0
1838709644 0.1563919633626938 0.12325543165206909 0.029451269656419754 -0.01724463328719139 0 0 0 0
1842431728 0.19510561227798462 0.09507586807012558 0.025904713198542595 -0.022808365523815155 0 0 0 0
1846153812 0.227662593126297 0.06120464205741882 0.02107444778084755 -0.02733820118010044 0 0 0 0
1849875896 0.2536808252334595 0.023582950234413147 0.01563047617673874 -0.030731206759810448 0 0 0 0
1853597980 0.2735995352268219 -0.013662412762641907 0.010050997138023376 -0.033037588000297546 0 0 0 0
1857320064 0.28824618458747864 -0.05421927571296692 0.004490998573601246 -0.03451811522245407 0 0 0 0
1861042148 0.29542672634124756 -0.09554779529571533 -0.0010033193975687027 -0.03554747253656387 0 0 0 0
1864764232 0.2952336072921753 -0.13729269802570343 -0.008009465411305428 -0.03615877777338028 0 0 0 0
1868486316 0.288385272026062 -0.17462457716464996 -0.015573500655591488 -0.03447110205888748 0 0 0 0
1872208400 0.27695414423942566 -0.21088388562202454 -0.02211049385368824 -0.030495354905724525 0 0 0 0
1875930484 0.2606267035007477 -0.24414891004562378 -0.02692447416484356 -0.02556033805012703 0 0 0 0
1879652568 0.23794731497764587 -0.2749139070510864 -0.030596818774938583 -0.020286958664655685 0 0 0 0
1883374652 0.2127530574798584 -0.2996476888656616 -0.033406563103199005 -0.015198933891952038 0 0 0 0
1887096736 0.18432211875915527 -0.3195173144340515 -0.03623232617974281 -0.00938997883349657 0 0 0 0
1890818820 0.15125906467437744 -0.3346251845359802 -0.03759342059493065 -0.0031011588871479034 0 0 0 0
1894540904 0.1192343533039093 -0.34262311458587646 -0.03793298453092575 0.0036983955651521683 0 0 0 0
1898262988 0.08412046730518341 -0.34493303298950195 -0.03698737919330597 0.010237681679427624 0 0 0 0
1901985072 0.05307834595441818 -0.3411264419555664 -0.03485211357474327 0.016665473580360413 0 0 0 0
1905707156 0.01827242039144039 -0.33252444863319397 -0.031255170702934265 0.022745614871382713 0 0 0 0
1909429240 -0.004203352145850658 -0.31768155097961426 -0.027574535459280014 0.027521492913365364 0 0 0 0
1913151324 -0.03172094374895096 -0.29903465509414673 -0.022718258202075958 0.032491184771060944 0 0 0 0
1916873408 -0.05085141211748123 -0.27729931473731995 -0.01703628897666931 0.03680279105901718 0 0 0 0
1920595492 -0.066221222281456 -0.2530446946620941 -0.010059722699224949 0.040227122604846954 0 0 0 0
1924317576 -0.0778898298740387 -0.22595103085041046 -0.0020324839279055595 0.042198970913887024 0 0 0 0
1928039660 -0.0842033103108406 -0.1986139863729477 0.00731227733194828 0.04203980416059494 0 0 0 0
1931761744 -0.08546596765518188 -0.17140904068946838 0.01589059829711914 0.03912723436951637 0 0 0 0
1935483828 -0.08098651468753815 -0.1442817896604538 0.02257785014808178 0.03441806137561798 0 0 0 0
1939205912 -0.07444284856319427 -0.11705542355775833 0.02766145020723343 0.028272975236177444 0 0 0 0
1942927996 -0.06181866675615311 -0.09245681017637253 0.03119649738073349 0.02224317193031311 0 0 0 0
1946650080 -0.04579383134841919 -0.0708724781870842 0.03342051804065704 0.016792457550764084 0 0 0 0
1950372164 -0.025342930108308792 -0.05153150111436844 0.0350356288254261 0.011302734725177288 0 0 0 0
1954094248 -0.001656077802181244 -0.036353204399347305 0.03683602064847946 0.005512649193406105 0 0 0 0
1957816332 0.024370428174734116 -0.02666664868593216 0.038164038211107254 -0.001229400746524334 0 0 0 0
1961538416 0.05184298753738403 -0.022372286766767502 0.03764701634645462 -0.007943564094603062 0 0 0 0
1965260500 0.0788191556930542 -0.02266787923872471 0.0353054516017437 -0.0153109235689044 0 0 0 0
1968982584 0.10555381327867508 -0.02833784930408001 0.0317235141992569 -0.021568411961197853 0 0 0 0
1972704668 0.1304766833782196 -0.03787403926253319 0.027242835611104965 -0.027061302214860916 0 0 0 0
1976426752 0.15208813548088074 -0.05221296101808548 0.021975357085466385 -0.0318664014339447 0 0 0 0
1980148836 0.17278434336185455 -0.06998398900032043 0.01528343465179205 -0.035693272948265076 0 0 0 0
1983870920 0.18902941048145294 -0.0931994840502739 0.007673855870962143 -0.03819815069437027 0 0 0 0
1987593004 0.20111490786075592 -0.11698083579540253 0.0002885255962610245 -0.03875159099698067 0 0 0 0
1991315088 0.20622465014457703 -0.1438550055027008 -0.007270664907991886 -0.037734054028987885 0 0 0 0
1995037172 0.20549064874649048 -0.17083805799484253 -0.01503715105354786 -0.034879475831985474 0 0 0 0
1998759256 0.20268531143665314 -0.19550976157188416 -0.020809758454561234 -0.03044060617685318 0 0 0 0
2002481340 0.19254624843597412 -0.2206133008003235 -0.025076987221837044 -0.025319991633296013 0 0 0 0
2006203424 0.18026089668273926 -0.24235673248767853 -0.028458833694458008 -0.02041679434478283 0 0 0 0
2009925508 0.16436757147312164 -0.2595617473125458 -0.03089122101664543 -0.015527209267020226 0 0 0 0
2013647592 0.14831486344337463 -0.27428755164146423 -0.033073678612709045 -0.01067286916077137 0 0 0 0
2017369676 0.12763534486293793 -0.2883347272872925 -0.035037457942962646 -0.0048198401927948 0 0 0 0
2021091760 0.10565214604139328 -0.2987978458404541 -0.03602997958660126 0.001787826418876648 0 0 0 0
2024813844 0.08196679502725601 -0.3044321835041046 -0.035334743559360504 0.008701585233211517 0 0 0 0
2028535928 0.05438898503780365 -0.3082624077796936 -0.03292442485690117 0.01554490439593792 0 0 0 0
2032258012 0.029993467032909393 -0.3052739202976227 -0.029073094949126244 0.02135399356484413 0 0 0 0
2035980096 0.004953071475028992 -0.29948240518569946 -0.02373010665178299 0.025646235793828964 0 0 0 0
2039702180 -0.019309185445308685 -0.28888627886772156 -0.01864694431424141 0.02882801741361618 0 0 0 0
2043424264 -0.043713949620723724 -0.27398526668548584 -0.01295329350978136 0.03077016770839691 0 0 0 0
2047146348 -0.06427967548370361 -0.25622448325157166 -0.007915101945400238 0.03189031779766083 0 0 0 0
2050868432 -0.08255574852228165 -0.2337307333946228 -0.002628738060593605 0.03222819045186043 0 0 0 0
2054590516 -0.09908323734998703 -0.20689533650875092 0.0028649531304836273 0.03193076699972153 0 0 0 0
2058312600 -0.10754137486219406 -0.17967015504837036 0.007973270490765572 0.031046200543642044 0 0 0 0
2062034684 -0.11454224586486816 -0.14885306358337402 0.013022099621593952 0.02915642410516739 0 0 0 0
2065756768 -0.11616615951061249 -0.11619769781827927 0.01754119247198105 0.025867000222206116 0 0 0 0
2069478852 -0.11157208681106567 -0.08376050740480423 0.02126508206129074 0.022181950509548187 0 0 0 0
2073200936 -0.1025218665599823 -0.05105218291282654 0.02425188198685646 0.01798110082745552 0 0 0 0
2076923020 -0.08627698570489883 -0.01890571601688862 0.025923896580934525 0.013586176559329033 0 0 0 0
2080645104 -0.06440192461013794 0.009254426695406437 0.027036771178245544 0.009542619809508324 0 0 0 0
2084367188 -0.037080906331539154 0.03406967222690582 0.027779586613178253 0.00573487114161253 0 0 0 0
2088089272 -0.005800064653158188 0.053602464497089386 0.02833620086312294 0.0020139524713158607 0 0 0 0
2091811356 0.02870875597000122 0.06657074391841888 0.029178038239479065 -0.001712520606815815 0 0 0 0
2095533440 0.06565539538860321 0.07354908436536789 0.029512614011764526 -0.006659908220171928 0 0 0 0
2099255524 0.10167276859283447 0.07487639784812927 0.028929736465215683 -0.012014398351311684 0 0 0 0
2102977608 0.13732320070266724 0.07012388855218887 0.02668875828385353 -0.01792459562420845 0 0 0 0
2106699692 0.17225410044193268 0.05820456147193909 0.02262597344815731 -0.023333359509706497 0 0 0 0
2110421776 0.20464594662189484 0.04361466318368912 0.017792291939258575 -0.0273006372153759 0 0 0 0
2114143860 0.23472227156162262 0.02128916233778 0.012360241264104843 -0.02988445945084095 0 0 0 0
2117865944 0.26013216376304626 -0.005313754081726074 0.006407649256289005 -0.0316137820482254 0 0 0 0
2121588028 0.2795674204826355 -0.03320429101586342 0.0002906322479248047 -0.032361481338739395 0 0 0 0
2125310112 0.29315441846847534 -0.06574775278568268 -0.006270372308790684 -0.031746216118335724 0 0 0 0
2129032196 0.3030995726585388 -0.10071678459644318 -0.012674860656261444 -0.029374830424785614 0 0 0 0
2132754280 0.30623191595077515 -0.13329726457595825 -0.01783985085785389 -0.02558187022805214 0 0 0 0
2136476364 0.30524182319641113 -0.166547954082489 -0.021899310871958733 -0.02076360397040844 0 0 0 0
2140198448 0.29663240909576416 -0.20043136179447174 -0.0239308699965477 -0.015535843558609486 0 0 0 0
2143920532 0.2847355008125305 -0.2307678759098053 -0.025238865986466408 -0.01071852445602417 0 0 0 0
2147642616 0.2676619291305542 -0.2583869993686676 -0.025570573285222054 -0.006308576092123985 0 0 0 0
2151364700 0.2461320161819458 -0.2835242450237274 -0.02527065947651863 -0.002148289233446121 0 0 0 0
2155086784 0.22322268784046173 -0.3031074106693268 -0.024706322699785233 0.0014906227588653564 0 0 0 0
2158808868 0.19481702148914337 -0.32042938470840454 -0.023699358105659485 0.005060580559074879 0 0 0 0
2162530952 0.16881906986236572 -0.330168217420578 -0.02259288914501667 0.00819377601146698 0 0 0 0
2166253036 0.13860328495502472 -0.3371167480945587 -0.020939629524946213 0.011114387772977352 0 0 0 0
2169975120 0.10885308682918549 -0.33920976519584656 -0.019346341490745544 0.013765927404165268 0 0 0 0
2173697204 0.08075825870037079 -0.33743369579315186 -0.017328152433037758 0.016992265358567238 0 0 0 0
2177419288 0.051518797874450684 -0.33039766550064087 -0.014539851807057858 0.02010452374815941 0 0 0 0
2181141372 0.0260402150452137 -0.32001474499702454 -0.010960102081298828 0.022384805604815483 0 0 0 0
2184863456 -0.001209259033203125 -0.3061656951904297 -0.00671298336237669 0.02374940924346447 0 0 0 0
2188585540 -0.024957716464996338 -0.28807532787323 -0.0028614457696676254 0.02454470843076706 0 0 0 0
2192307624 -0.04503276199102402 -0.265137255191803 0.0013494519516825676 0.02499062940478325 0 0 0 0
2196029708 -0.05957243591547012 -0.23939155042171478 0.005929655395448208 0.02457861602306366 0 0 0 0
2199751792 -0.07106189429759979 -0.2121700495481491 0.010778382420539856 0.023113610222935677 0 0 0 0
2203473876 -0.07507830858230591 -0.18459133803844452 0.014904296025633812 0.020531412214040756 0 0 0 0
2207195960 -0.07982707023620605 -0.15422672033309937 0.01845693588256836 0.016561856493353844 0 0 0 0
2210918044 -0.07616043090820312 -0.1263178586959839 0.020571276545524597 0.012649099342525005 0 0 0 0
2214640128 -0.06872805953025818 -0.09824752807617188 0.02220609411597252 0.008592821657657623 0 0 0 0
2218362212 -0.058880098164081573 -0.07041257619857788 0.02283954806625843 0.0037376219406723976 0 0 0 0
2222084296 -0.04218938574194908 -0.04666309431195259 0.02220049872994423 -0.000560445711016655 0 0 0 0
2225806380 -0.022478222846984863 -0.023800963535904884 0.02096668630838394 -0.004032917320728302 0 0 0 0
2229528464 0.0023533543571829796 -0.00650166068226099 0.019695892930030823 -0.0071907564997673035 0 0 0 0
2233250548 0.029501980170607567 0.0062729958444833755 0.01777658984065056 -0.010568644851446152 0 0 0 0
2236972632 0.058389294892549515 0.012599635869264603 0.015179051086306572 -0.013578676618635654 0 0 0 0
2240694716 0.08627242594957352 0.015836618840694427 0.012035811319947243 -0.01614292338490486 0 0 0 0
2244416800 0.11506202816963196 0.010661695152521133 0.008544696494936943 -0.01773255504667759 0 0 0 0
2248138884 0.14095865190029144 0.0011511743068695068 0.004656583070755005 -0.01853947713971138 0 0 0 0
2251860968 0.16452935338020325 -0.009076577611267567 0.001179700717329979 -0.018683496862649918 0 0 0 0
2255583052 0.18638715147972107 -0.023292377591133118 -0.0021736500784754753 -0.017926087602972984 0 0 0 0
2259305136 0.20311912894248962 -0.04722202941775322 -0.005202572792768478 -0.016609283164143562 0 0 0 0
2263027220 0.21831579506397247 -0.06374409049749374 -0.00768609344959259 -0.014882289804518223 0 0 0 0
2266749304 0.22727178037166595 -0.08760899305343628 -0.009409153833985329 -0.013220165856182575 0 0 0 0
2270471388 0.23393377661705017 -0.10990124940872192 -0.011502109467983246 -0.011102675460278988 0 0 0 0
2274193472 0.23675969243049622 -0.13376902043819427 -0.012841297313570976 -0.008597834035754204 0 0 0 0
2277915556 0.2325575351715088 -0.16091404855251312 -0.01346327643841505 -0.006378267891705036 0 0 0 0
2281637640 0.22430278360843658 -0.18587498366832733 -0.01392369344830513 -0.0039980243891477585 0 0 0 0
2285359724 0.2123003602027893 -0.20760920643806458 -0.013773500919342041 -0.0019689323380589485 0 0 0 0
2289081808 0.19606266915798187 -0.2263602912425995 -0.013688147068023682 -8.517410606145859e-05 0 0 0 0
2292803892 0.17801016569137573 -0.24127741158008575 -0.013245903886854649 0.0016717351973056793 0 0 0 0
2296525976 0.16387072205543518 -0.24676012992858887 -0.012804552912712097 0.003358231857419014 0 0 0 0
2300248060 0.13828885555267334 -0.25762107968330383 -0.012251035310328007 0.004942543804645538 0 0 0 0
2303970144 0.12247313559055328 -0.26402896642684937 -0.01125942450016737 0.0069580161944031715 0 0 0 0
2307692228 0.09657886624336243 -0.2614262104034424 -0.010132390074431896 0.00839509442448616 0 0 0 0
2311414312 0.07193205505609512 -0.25863349437713623 -0.00816079881042242 0.010005533695220947 0 0 0 0
2315136396 0.05001343786716461 -0.2521284818649292 -0.005585473030805588 0.010643575340509415 0 0 0 0
2318858480 0.031001701951026917 -0.24173197150230408 -0.0036095064133405685 0.010397837497293949 0 0 0 0
2322580564 0.009176485240459442 -0.22621692717075348 -0.002087096683681011 0.009869574569165707 0 0 0 0
2326302648 0.00132056325674057 -0.20998531579971313 -0.0007914714515209198 0.009311406873166561 0 0 0 0
2330024732 -0.014466501772403717 -0.18958237767219543 2.1325424313545227e-05 0.008446147665381432 0 0 0 0
2333746816 -0.02449313923716545 -0.1682286411523819 0.0003807004541158676 0.007905900478363037 0 0 0 0
2337468900 -0.029598817229270935 -0.1449541449546814 0.0010994849726557732 0.007573801092803478 0 0 0 0
2341190984 -0.03294314071536064 -0.11952315270900726 0.001825038343667984 0.006869585253298283 0 0 0 0
2344913068 -0.030614981427788734 -0.09300855547189713 0.0025623319670557976 0.005991131998598576 0 0 0 0
2348635152 -0.02136809378862381 -0.067784383893013 0.002784191630780697 0.0051650395616889 0 0 0 0
2352357236 -0.00994061678647995 -0.043843239545822144 0.002275240607559681 0.004680994898080826 0 0 0 0
2356079320 0.007527155801653862 -0.022379495203495026 0.0023947730660438538 0.004312385804951191 0 0 0 0
2359801404 0.02838829904794693 -0.003562214784324169 0.002432442270219326 0.004221185110509396 0 0 0 0
2363523488 0.05228094384074211 0.011061398312449455 0.002708960324525833 0.0039008641615509987 0 0 0 0
2367245572 0.07939331233501434 0.020656540989875793 0.0028147846460342407 0.003579634241759777 0 0 0 0
2370967656 0.1071237176656723 0.025149524211883545 0.002810330130159855 0.0033788392320275307 0 0 0 0
2374689740 0.13576343655586243 0.024378420785069466 0.0030334899201989174 0.0030556684359908104 0 0 0 0
2378411824 0.16253000497817993 0.02057243138551712 0.0031983060762286186 0.0028226440772414207 0 0 0 0
2382133908 0.1893284171819687 0.011118953116238117 0.0030766911804676056 0.0026059504598379135 0 0 0 0
2385855992 0.2126644402742386 -0.005435764789581299 0.0033305566757917404 0.002343391068279743 0 0 0 0
2389578076 0.2345028519630432 -0.02076563611626625 0.003261384554207325 0.0020744428038597107 0 0 0 0
2393300160 0.253890722990036 -0.0408552885055542 0.0028811460360884666 0.0020236046984791756 0 0 0 0
2397022244 0.26782506704330444 -0.06403351575136185 0.002921314910054207 0.002495173364877701 0 0 0 0
2400744328 0.27934354543685913 -0.09251678735017776 0.003460880368947983 0.002942541614174843 0 0 0 0
2404466412 0.28684934973716736 -0.11736378073692322 0.004845469258725643 0.002879084087908268 0 0 0 0
2408188496 0.288626104593277 -0.14578068256378174 0.0058857761323452 0.0019459296017885208 0 0 0 0
2411910580 0.2890726923942566 -0.1731339991092682 0.00645230058580637 0.0012437645345926285 0 0 0 0
2415632664 0.27993863821029663 -0.20232908427715302 0.00692386832088232 -0.00018746405839920044 0 0 0 0
2419354748 0.2714023292064667 -0.22479338943958282 0.007129001431167126 -0.0013404209166765213 0 0 0 0
2423076832 0.25554266571998596 -0.2507660388946533 0.00708989892154932 -0.002988184802234173 0 0 0 0
2426798916 0.23792621493339539 -0.27163082361221313 0.006871461868286133 -0.005045782774686813 0 0 0 0
2430521000 0.21679967641830444 -0.289259672164917 0.005385762080550194 -0.005634548142552376 0 0 0 0
2434243084 0.19350522756576538 -0.3058902323246002 0.004117894917726517 -0.006121253594756126 0 0 0 0
2437965168 0.17142674326896667 -0.31705981492996216 0.003566887229681015 -0.0066460901871323586 0 0 0 0
2441687252 0.14147444069385529 -0.32577598094940186 0.0028558261692523956 -0.007130150683224201 0 0 0 0
2445409336 0.1122492179274559 -0.33095261454582214 0.0021218210458755493 -0.007516673766076565 0 0 0 0
2449131420 0.08168075233697891 -0.329258531332016 0.001322118565440178 -0.008166159503161907 0 0 0 0
2452853504 0.05633251741528511 -0.32409563660621643 0.0005293572321534157 -0.008942428044974804 0 0 0 0
2456575588 0.026587411761283875 -0.31432273983955383 -0.000712469220161438 -0.00969640351831913 0 0 0 0
2460297672 0.0021984390914440155 -0.299537718296051 -0.0021490976214408875 -0.010328677482903004 0 0 0 0
2464019756 -0.021864835172891617 -0.2822740077972412 -0.00427880696952343 -0.01057965774089098 0 0 0 0
2467741840 -0.04325617104768753 -0.2616313397884369 -0.006462211720645428 -0.01016492024064064 0 0 0 0
2471463924 -0.060252025723457336 -0.2387402057647705 -0.008525880984961987 -0.009571138769388199 0 0 0 0
2475186008 -0.0729796290397644 -0.21301813423633575 -0.010105486027896404 -0.008497724309563637 0 0 0 0
2478908092 -0.08365297317504883 -0.18376237154006958 -0.012283653020858765 -0.006847399286925793 0 0 0 0
2482630176 -0.08863656222820282 -0.1543881744146347 -0.013696280308067799 -0.004779399372637272 0 0 0 0
2486352260 -0.08954479545354843 -0.12460149079561234 -0.014875097200274467 -0.0024254443123936653 0 0 0 0
2490074344 -0.08535023033618927 -0.09440712630748749 -0.01568615436553955 -0.00017482973635196686 0 0 0 0
2493796428 -0.07632947713136673 -0.06422512233257294 -0.015905216336250305 0.0028862962499260902 0 0 0 0
2497518512 -0.06344248354434967 -0.03781532496213913 -0.015278100036084652 0.005858956836163998 0 0 0 0
2501240596 -0.045635052025318146 -0.012693226337432861 -0.014461500570178032 0.00832474883645773 0 0 0 0
2504962680 -0.024767551571130753 0.009162582457065582 -0.013130377978086472 0.010815393179655075 0 0 0 0
2508684764 -0.0008273720741271973 0.027561774477362633 -0.011524699628353119 0.013415290974080563 0 0 0 0
2512406848 0.02595914900302887 0.04156329482793808 -0.009004350751638412 0.01590917259454727 0 0 0 0
2516128932 0.05545046925544739 0.051319677382707596 -0.005746159702539444 0.01774468645453453 0 0 0 0
2519851016 0.0855596736073494 0.05612173676490784 -0.0017347326502203941 0.018586836755275726 0 0 0 0
2523573100 0.11589141190052032 0.054855018854141235 0.0020537059754133224 0.01811394654214382 0 0 0 0
2527295184 0.14509105682373047 0.049045007675886154 0.004937866702675819 0.01714278757572174 0 0 0 0
2531017268 0.17236484587192535 0.037298575043678284 0.00793110579252243 0.01574787311255932 0 0 0 0
2534739352 0.19635295867919922 0.02184310555458069 0.010809686966240406 0.013848904520273209 0 0 0 0
2538461436 0.21663179993629456 0.0041689202189445496 0.013170728459954262 0.011619949713349342 0 0 0 0
2542183520 0.23334980010986328 -0.01634710282087326 0.015074807219207287 0.008624853566288948 0 0 0 0
2545905604 0.24594679474830627 -0.03885882347822189 0.016348086297512054 0.005298367701470852 0 0 0 0
2549627688 0.25468605756759644 -0.06344706565141678 0.016838204115629196 0.0016333526000380516 0 0 0 0
2553349772 0.26120391488075256 -0.08188829571008682 0.01665283367037773 -0.0019529582932591438 0 0 0 0
2557071856 0.2601577341556549 -0.10805320739746094 0.014876226894557476 -0.005651228129863739 0 0 0 0
2560793940 0.2614927589893341 -0.12797653675079346 0.012610360980033875 -0.008139797486364841 0 0 0 0
2564516024 0.25844699144363403 -0.14844048023223877 0.010266252793371677 -0.00987677089869976 0 0 0 0
2568238108 0.2510017156600952 -0.1678650975227356 0.0076949717476964 -0.01087997481226921 0 0 0 0
2571960192 0.24278825521469116 -0.18469955027103424 0.005300356075167656 -0.01128629595041275 0 0 0 0
2575682276 0.231113463640213 -0.20229142904281616 0.0029667597264051437 -0.011395115405321121 0 0 0 0
2579404360 0.220205619931221 -0.21618616580963135 0.0012390892952680588 -0.010894017294049263 0 0 0 0
2583126444 0.20358243584632874 -0.23160533607006073 -0.0001676185056567192 -0.010491788387298584 0 0 0 0
2586848528 0.19047662615776062 -0.23983445763587952 -0.0013756677508354187 -0.01041770912706852 0 0 0 0
2590570612 0.17169448733329773 -0.24934208393096924 -0.0030854735523462296 -0.009952349588274956 0 0 0 0
2594292696 0.15623566508293152 -0.2532528340816498 -0.00470754224807024 -0.008974850177764893 0 0 0 0
2598014780 0.13782042264938354 -0.25671079754829407 -0.00582633912563324 -0.007820630446076393 0 0 0 0
2601736864 0.12019724398851395 -0.2581600844860077 -0.0069534629583358765 -0.0065085794776678085 0 0 0 0
2605458948 0.10260500013828278 -0.254756897687912 -0.007764850743114948 -0.005067496560513973 0 0 0 0
2609181032 0.08204643428325653 -0.24949318170547485 -0.00798816792666912 -0.0032297279685735703 0 0 0 0
2612903116 0.06723660975694656 -0.24025633931159973 -0.007719974033534527 -0.0017409343272447586 0 0 0 0
2616625200 0.05302617326378822 -0.22972021996974945 -0.007104857824742794 -0.00044337380677461624 0 0 0 0
2620347284 0.04189441725611687 -0.21747039258480072 -0.006385163404047489 0.0004986338317394257 0 0 0 0
2624069368 0.03505577892065048 -0.20298650860786438 -0.005445993505418301 0.0008967248722910881 0 0 0 0
2627791452 0.029504748061299324 -0.18739645183086395 -0.004632910713553429 0.0008848123252391815 0 0 0 0
2631513536 0.02605939656496048 -0.1732027530670166 -0.004455646499991417 0.0008101342245936394 0 0 0 0
2635235620 0.025631442666053772 -0.15914201736450195 -0.004371700808405876 0.001163797453045845 0 0 0 0
2638957704 0.027272270992398262 -0.14759984612464905 -0.003975488245487213 0.0015146797522902489 0 0 0 0
2642679788 0.03107309713959694 -0.1339077353477478 -0.0037467097863554955 0.0017700251191854477 0 0 0 0
2646401872 0.03674716502428055 -0.12324891984462738 -0.003549434244632721 0.0021093161776661873 0 0 0 0
2650123956 0.044442109763622284 -0.11399250477552414 -0.003002813085913658 0.0023414846509695053 0 0 0 0
2653846040 0.052866145968437195 -0.10496701300144196 -0.0024790214374661446 0.002306799404323101 0 0 0 0
2657568124 0.06308621913194656 -0.09860114753246307 -0.0022176774218678474 0.002038169652223587 0 0 0 0
2661290208 0.07568001747131348 -0.09571068733930588 -0.00223446823656559 0.0017669415101408958 0 0 0 0
2665012292 0.08808869868516922 -0.09494160115718842 -0.002593620680272579 0.001770620234310627 0 0 0 0
2668734376 0.09601961076259613 -0.09888271987438202 -0.0025762533769011497 0.002253481186926365 0 0 0 0
2672456460 0.10633210837841034 -0.10303440690040588 -0.002389875240623951 0.002660457044839859 0 0 0 0
2676178544 0.11491505056619644 -0.10985644161701202 -0.002311892807483673 0.0029198722913861275 0 0 0 0
2679900628 0.12030069530010223 -0.11666078865528107 -0.002178862690925598 0.003501766361296177 0 0 0 0
2683622712 0.12364049255847931 -0.12510675191879272 -0.0016465922817587852 0.004360458813607693 0 0 0 0
2687344796 0.124624103307724 -0.134206160902977 -0.0007110210135579109 0.004818731918931007 0 0 0 0
2691066880 0.1254432201385498 -0.14251884818077087 0.00046818237751722336 0.004882072098553181 0 0 0 0
2694788964 0.12154975533485413 -0.15253806114196777 0.0013644266873598099 0.004736688919365406 0 0 0 0
2698511048 0.11877235770225525 -0.1590164452791214 0.0024149594828486443 0.004538504406809807 0 0 0 0
2702233132 0.11333771049976349 -0.16682319343090057 0.0034946175292134285 0.003845757804811001 0 0 0 0
2705955216 0.1077343001961708 -0.17280681431293488 0.004551294259727001 0.0028433138504624367 0 0 0 0
2709677300 0.09798997640609741 -0.1796628087759018 0.004950201138854027 0.0014037750661373138 0 0 0 0
2713399384 0.08939320594072342 -0.1837913691997528 0.0048147933557629585 -0.00010289624333381653 0 0 0 0
2717121468 0.08009705692529678 -0.18500322103500366 0.004267605021595955 -0.0009209029376506805 0 0 0 0
2720843552 0.0684545710682869 -0.18661241233348846 0.0037662209942936897 -0.0016489531844854355 0 0 0 0
2724565636 0.05573221668601036 -0.18402335047721863 0.0031429901719093323 -0.002125573344528675 0 0 0 0
2728287720 0.042956605553627014 -0.17937009036540985 0.002617448568344116 -0.002572651021182537 0 0 0 0
2732009804 0.03162477910518646 -0.17210571467876434 0.0020511075854301453 -0.002682384103536606 0 0 0 0
2735731888 0.021965935826301575 -0.16192471981048584 0.001676914282143116 -0.0027891406789422035 0 0 0 0
2739453972 0.01467934250831604 -0.15124022960662842 0.0014406237751245499 -0.002896919846534729 0 0 0 0
2743176056 0.007822655141353607 -0.13789883255958557 0.0008635343983769417 -0.002940582111477852 0 0 0 0
2746898140 0.003462536260485649 -0.1228189617395401 0.0006192121654748917 -0.002986915409564972 0 0 0 0
2750620224 0.0017912834882736206 -0.10773095488548279 0.0002649463713169098 -0.0029836753383278847 0 0 0 0
2754342308 0.002104903571307659 -0.09213795512914658 0.00012847688049077988 -0.0031296592205762863 0 0 0 0
2758064392 0.005469063296914101 -0.07668957114219666 -0.00040253251791000366 -0.0033801235258579254 0 0 0 0
2761786476 0.010427098721265793 -0.061470501124858856 -0.0010553253814578056 -0.003391362726688385 0 0 0 0
2765508560 0.01974068209528923 -0.045319847762584686 -0.0016495836898684502 -0.003037196584045887 0 0 0 0
2769230644 0.031748563051223755 -0.031377777457237244 -0.001951269805431366 -0.0025031408295035362 0 0 0 0
2772952728 0.04576690122485161 -0.019967257976531982 -0.002027577720582485 -0.002067217603325844 0 0 0 0
2776674812 0.062136951833963394 -0.01083003357052803 -0.0020578792318701744 -0.0017804736271500587 0 0 0 0
2780396896 0.07989288121461868 -0.0041242484003305435 -0.002222455106675625 -0.0016760742291808128 0 0 0 0
2784118980 0.09817782789468765 -0.0006032027304172516 -0.002462714910507202 -0.001378348097205162 0 0 0 0
2787841064 0.11734806001186371 0.0010035037994384766 -0.002611217088997364 -0.0009526414796710014 0 0 0 0
2791563148 0.13800516724586487 0.0006372034549713135 -0.0026164138689637184 -0.0005013830959796906 0 0 0 0
2795285232 0.1583060622215271 -0.004322413355112076 -0.0024756109341979027 2.284720540046692e-05 0 0 0 0
2799007316 0.17981120944023132 -0.012499451637268066 -0.0020300941541790962 0.0005231145769357681 0 0 0 0
2802729400 0.19895708560943604 -0.025511913001537323 -0.0016204798594117165 0.0006102500483393669 0 0 0 0
2806451484 0.21489787101745605 -0.040866002440452576 -0.001535029150545597 0.0004638517275452614 0 0 0 0
2810173568 0.22899888455867767 -0.05869022011756897 -0.0014755930751562119 0.0005396585911512375 0 0 0 0
2813895652 0.2405233085155487 -0.07938964664936066 -0.0013026455417275429 0.0009121857583522797 0 0 0 0
2817617736 0.2484579235315323 -0.09931403398513794 -0.0008395742624998093 0.0011338554322719574 0 0 0 0
2821339820 0.2519582509994507 -0.12547649443149567 -0.00041823647916316986 0.0010699676349759102 0 0 0 0
2825061904 0.25190308690071106 -0.14887940883636475 -8.12634825706482e-05 0.0007438519969582558 0 0 0 0
2828783988 0.2517828941345215 -0.1694156378507614 -6.994511932134628e-05 0.0006415564566850662 0 0 0 0
2832506072 0.2444436252117157 -0.19335421919822693 2.2815540432929993e-05 0.0004964200779795647 0 0 0 0
2836228156 0.2362392246723175 -0.21469511091709137 6.115995347499847e-05 0.000390663743019104 0 0 0 0
2839950240 0.22333930432796478 -0.2376241683959961 0.00010166037827730179 0.00034564267843961716 0 0 0 0
2843672324 0.21052685379981995 -0.25419333577156067 0.00021891947835683823 0.0002177264541387558 0 0 0 0
2847394408 0.19647306203842163 -0.268408864736557 0.00027216505259275436 0.00022037513554096222 0 0 0 0
2851116492 0.17424657940864563 -0.28673240542411804 0.0003294115886092186 3.626476973295212e-05 0 0 0 0
2854838576 0.15280430018901825 -0.29846617579460144 0.0003181714564561844 -5.3340569138526917e-05 0 0 0 0
2858560660 0.13821668922901154 -0.30416303873062134 0.00038904231041669846 -0.0005394220352172852 0 0 0 0
2862282744 0.11018562316894531 -0.3135032057762146 0.00039568357169628143 -0.00044066552072763443 0 0 0 0
2866004828 0.08949895948171616 -0.318156361579895 0.0005213906988501549 -0.0004960037767887115 0 0 0 0
2869726912 0.06457274407148361 -0.3195514976978302 0.0005351388826966286 -0.0005969693884253502 0 0 0 0
2873448996 0.03983335196971893 -0.31674182415008545 0.0006532212719321251 -0.0006801774725317955 0 0 0 0
2877171080 0.01838037371635437 -0.31153395771980286 0.000472373329102993 -0.000900006853044033 0 0 0 0
2880893164 -0.008953582495450974 -0.30469614267349243 0.00041197799146175385 -0.0011053159832954407 0 0 0 0
2884615248 -0.031586602330207825 -0.2919861674308777 0.0002296827733516693 -0.0011525079607963562 0 0 0 0
2888337332 -0.05046107620000839 -0.27724987268447876 -5.151424556970596e-05 -0.0011770352721214294 0 0 0 0
2892059416 -0.07336099445819855 -0.2585432231426239 -0.00017437338829040527 -0.0009240685030817986 0 0 0 0
2895781500 -0.09089413285255432 -0.23747846484184265 -0.0003176862373948097 -0.0008059218525886536 0 0 0 0
2899503584 -0.10498081147670746 -0.21584747731685638 -0.00035039056092500687 -0.0005343956872820854 0 0 0 0
2903225668 -0.11402715742588043 -0.1897394061088562 -0.00021179486066102982 -0.0001883767545223236 0 0 0 0
2906947752 -0.12222802639007568 -0.16294042766094208 -5.976855754852295e-05 -1.125037670135498e-05 0 0 0 0
2910669836 -0.12503306567668915 -0.13693305850028992 0.00014733895659446716 -0.00016327854245901108 0 0 0 0
2914391920 -0.12411731481552124 -0.11031390726566315 0.00021674856543540955 -0.0002897549420595169 0 0 0 0
2918114004 -0.12091425061225891 -0.08378364890813828 0.000361383892595768 -0.000264839269220829 0 0 0 0
2921836088 -0.11412982642650604 -0.059430453926324844 0.00037405919283628464 -0.00027886591851711273 0 0 0 0
2925558172 -0.10641999542713165 -0.03482178971171379 0.0006332108750939369 -0.0003556525334715843 0 0 0 0
2929280256 -0.0939231887459755 -0.00994778797030449 0.0005314936861395836 -0.0005787452682852745 0 0 0 0
2933002340 -0.07776624709367752 0.011648585088551044 0.00028994493186473846 -0.0007542399689555168 0 0 0 0
2936724424 -0.05912311375141144 0.031620047986507416 8.74372199177742e-05 -0.0008375216275453568 0 0 0 0
2940446508 -0.03740943223237991 0.049131568521261215 -0.00017036311328411102 -0.0007489444687962532 0 0 0 0
2944168592 -0.015050940215587616 0.06329899281263351 -0.00047120824456214905 -0.00037958379834890366 0 0 0 0
2947890676 0.011134292930364609 0.07481435686349869 -0.0004185531288385391 0.00021138042211532593 0 0 0 0
2951612760 0.0376332551240921 0.08295522630214691 -0.00017094425857067108 0.0006080856546759605 0 0 0 0
2955334844 0.06746886670589447 0.08471716940402985 0.00037907250225543976 0.0010582078248262405 0 0 0 0
2959056928 0.09282197058200836 0.08690141886472702 0.0009766779839992523 0.0011945553123950958 0 0 0 0
2962779012 0.12181442230939865 0.08052388578653336 0.0014496129006147385 0.001162668690085411 0 0 0 0
2966501096 0.14822258055210114 0.07155085355043411 0.0021137958392500877 0.0007683206349611282 0 0 0 0
2970223180 0.17169110476970673 0.062461137771606445 0.0026210686191916466 0.00025766342878341675 0 0 0 0
2973945264 0.19430847465991974 0.045694634318351746 0.002795133739709854 -0.0004897434264421463 0 0 0 0
2977667348 0.215026393532753 0.028529897332191467 0.0027175750583410263 -0.0012156963348388672 0 0 0 0
2981389432 0.23167455196380615 0.009537048637866974 0.0023506255820393562 -0.0016408544033765793 0 0 0 0
2985111516 0.2472350150346756 -0.014009609818458557 0.0020172912627458572 -0.0019646910950541496 0 0 0 0
2988833600 0.25824812054634094 -0.038414936512708664 0.0016411123797297478 -0.002252427861094475 0 0 0 0
2992555684 0.26677149534225464 -0.059880807995796204 0.0012838291004300117 -0.0023593995720148087 0 0 0 0
2996277768 0.2694985568523407 -0.08366670459508896 0.0007635215297341347 -0.0023323316127061844 0 0 0 0
2999999852 0.27145513892173767 -0.1107732504606247 0.0002218177542090416 -0.0023212023079395294 0 0 0 0
