# HZ S RI R 50
1500000000 -0.1484639048576355 -0.01687636226415634 0.06776025891304016 -0.032224126160144806 0 0 0 0
1503722084 -0.1266999989748001 0.018108902499079704 0.05965244770050049 -0.0439138263463974 0 0 0 0
1507444168 -0.09830860793590546 0.04805910959839821 0.04949231445789337 -0.05338259041309357 0 0 0 0
1511166252 -0.06316684186458588 0.07358431071043015 0.036648090928792953 -0.060525648295879364 0 0 0 0
1514888336 -0.024081505835056305 0.09270524978637695 0.02324637398123741 -0.06394728273153305 0 0 0 0
1518610420 0.01883029192686081 0.10546319931745529 0.010835470631718636 -0.06402380019426346 0 0 0 0
1522332504 0.06498734652996063 0.11054743826389313 -0.0012246053665876389 -0.061650317162275314 0 0 0 0
1526054588 0.11162151396274567 0.10861369967460632 -0.011129800230264664 -0.05718369409441948 0 0 0 0
1529776672 0.15938732028007507 0.09820186346769333 -0.019550103694200516 -0.05163637176156044 0 0 0 0
1533498756 0.20671752095222473 0.08094938844442368 -0.026767507195472717 -0.04475492984056473 0 0 0 0
1537220840 0.25197833776474 0.054489873349666595 -0.031209010630846024 -0.03776101395487785 0 0 0 0
1540942924 0.29301169514656067 0.019072704017162323 -0.03400399535894394 -0.030224168673157692 0 0 0 0
1544665008 0.327909916639328 -0.023819513618946075 -0.03538649529218674 -0.02413143962621689 0 0 0 0
1548387092 0.3549100160598755 -0.07381555438041687 -0.03659423068165779 -0.018496345728635788 0 0 0 0
1552109176 0.3744410574436188 -0.12593793869018555 -0.03729931265115738 -0.012609846889972687 0 0 0 0
1555831260 0.38361406326293945 -0.18473835289478302 -0.03710799291729927 -0.006558389402925968 0 0 0 0
1559553344 0.3867970108985901 -0.24044017493724823 -0.035523079335689545 -0.0011746780946850777 0 0 0 0
1563275428 0.37677741050720215 -0.29954794049263 -0.03323568403720856 0.0032930681481957436 0 0 0 0
1566997512 0.35847538709640503 -0.3570023477077484 -0.030892111361026764 0.007308528758585453 0 0 0 0
1570719596 0.33255213499069214 -0.410295695066452 -0.028155691921710968 0.010384972207248211 0 0 0 0
1574441680 0.2991957664489746 -0.4593091309070587 -0.02533493936061859 0.012590572237968445 0 0 0 0
1578163764 0.2566559910774231 -0.5031970739364624 -0.023100847378373146 0.01431785337626934 0 0 0 0
1581885848 0.2058049887418747 -0.5385883450508118 -0.02109716460108757 0.016225412487983704 0 0 0 0
1585607932 0.15494735538959503 -0.566726565361023 -0.01884859800338745 0.018069814890623093 0 0 0 0
1589330016 0.09350842982530594 -0.5889738202095032 -0.016368318349123 0.019544845446944237 0 0 0 0
1593052100 0.03578004986047745 -0.6013909578323364 -0.014012280851602554 0.021003084257245064 0 0 0 0
1596774184 -0.02666136622428894 -0.6032156944274902 -0.011837904341518879 0.022348474711179733 0 0 0 0
1600496268 -0.09154199063777924 -0.5980411767959595 -0.009197165258228779 0.024083826690912247 0 0 0 0
1604218352 -0.14998838305473328 -0.5839972496032715 -0.0059077199548482895 0.025564339011907578 0 0 0 0
1607940436 -0.21209092438220978 -0.5581672191619873 -0.002405843697488308 0.026345249265432358 0 0 0 0
1611662520 -0.2641866207122803 -0.5276879668235779 0.0015950016677379608 0.02681703120470047 0 0 0 0
1615384604 -0.3187665045261383 -0.4862132668495178 0.005821538157761097 0.026561282575130463 0 0 0 0
1619106688 -0.3628513216972351 -0.43739813566207886 0.009652997367084026 0.025636455044150352 0 0 0 0
1622828772 -0.39977937936782837 -0.38428786396980286 0.014009032398462296 0.024246100336313248 0 0 0 0
1626550856 -0.42925602197647095 -0.3258715867996216 0.018300257623195648 0.021991640329360962 0 0 0 0
1630272940 -0.45073407888412476 -0.2608487010002136 0.022184858098626137 0.01844117045402527 0 0 0 0
1633995024 -0.4657762050628662 -0.1919594407081604 0.025300616398453712 0.013717608526349068 0 0 0 0
1637717108 -0.4698678255081177 -0.12387801706790924 0.02722146362066269 0.008566874079406261 0 0 0 0
1641439192 -0.46428316831588745 -0.05358909070491791 0.027577940374612808 0.0031962357461452484 0 0 0 0
1645161276 -0.44722458720207214 0.020444735884666443 0.027033116668462753 -0.0018457258120179176 0 0 0 0
1648883360 -0.41940757632255554 0.09119466692209244 0.025782844051718712 -0.00619600061327219 0 0 0 0
1652605444 -0.37888291478157043 0.15730315446853638 0.023731570690870285 -0.010757837444543839 0 0 0 0
1656327528 -0.33036553859710693 0.21447637677192688 0.02105175517499447 -0.014560100622475147 0 0 0 0
1660049612 -0.2704847753047943 0.26637881994247437 0.017466474324464798 -0.01788809522986412 0 0 0 0
1663771696 -0.20436206459999084 0.30826255679130554 0.013161654584109783 -0.02018941380083561 0 0 0 0
1667493780 -0.1329127848148346 0.3393164575099945 0.009157910011708736 -0.02160198800265789 0 0 0 0
1671215864 -0.05345001816749573 0.36113977432250977 0.00452733039855957 -0.022356901317834854 0 0 0 0
1674937948 0.026807591319084167 0.37119942903518677 -0.0002330457791686058 -0.021615933626890182 0 0 0 0
1678660032 0.10973113775253296 0.3676445484161377 -0.004085819236934185 -0.019745375961065292 0 0 0 0
1682382116 0.19271603226661682 0.34851402044296265 -0.007550426758825779 -0.017320621758699417 0 0 0 0
1686104200 0.270010381937027 0.31981784105300903 -0.009826190769672394 -0.014534160494804382 0 0 0 0
1689826284 0.34432971477508545 0.274707555770874 -0.011411535553634167 -0.011283105239272118 0 0 0 0
1693548368 0.40774592757225037 0.2202429473400116 -0.01193856168538332 -0.008166227489709854 0 0 0 0
1697270452 0.46149080991744995 0.1573830246925354 -0.01164177618920803 -0.005298192612826824 0 0 0 0
1700992536 0.5041784048080444 0.085019052028656 -0.010952094569802284 -0.0033431798219680786 0 0 0 0
1704714620 0.5355076789855957 0.01149362325668335 -0.010252154432237148 -0.0015658074989914894 0 0 0 0
1708436704 0.5538763403892517 -0.06858460605144501 -0.00925703626126051 8.798670023679733e-05 0 0 0 0
1712158788 0.5598347783088684 -0.15069033205509186 -0.008003870956599712 0.0014102160930633545 0 0 0 0
1715880872 0.5530617833137512 -0.2301362305879593 -0.006567847914993763 0.002063170075416565 0 0 0 0
1719602956 0.5318200588226318 -0.3084203600883484 -0.005180184729397297 0.0021710991859436035 0 0 0 0
1723325040 0.5025259256362915 -0.3790615499019623 -0.004143334925174713 0.0017728321254253387 0 0 0 0
1727047124 0.4640539884567261 -0.4424436092376709 -0.0034451931715011597 0.0012015458196401596 0 0 0 0
1730769208 0.4149898588657379 -0.5006805658340454 -0.0034015867859125137 0.0006432924419641495 0 0 0 0
1734491292 0.35464251041412354 -0.5519272685050964 -0.0035472242161631584 0.0005963509902358055 0 0 0 0
1738213376 0.294002890586853 -0.5886507034301758 -0.0036448435857892036 0.00035961251705884933 0 0 0 0
1741935460 0.22337700426578522 -0.6178188323974609 -0.003730837255716324 0.00018395856022834778 0 0 0 0
1745657544 0.1531374752521515 -0.6363959312438965 -0.004170022904872894 0.00016614794731140137 0 0 0 0
1749379628 0.08388692140579224 -0.6413586735725403 -0.004714468494057655 0.00035738851875066757 0 0 0 0
1753101712 0.014008894562721252 -0.6360263228416443 -0.00479716993868351 0.0011444706469774246 0 0 0 0
1756823796 -0.05548742413520813 -0.6210959553718567 -0.004853246733546257 0.0014806538820266724 0 0 0 0
1760545880 -0.11506988108158112 -0.5955623388290405 -0.004683942534029484 0.001731082797050476 0 0 0 0
1764267964 -0.1750393658876419 -0.5612211227416992 -0.00510382279753685 0.0016592349857091904 0 0 0 0
1767990048 -0.22431622445583344 -0.5209285616874695 -0.005425323732197285 0.0019200872629880905 0 0 0 0
1771712132 -0.26628294587135315 -0.4737345576286316 -0.00617071520537138 0.002335609868168831 0 0 0 0
1775434216 -0.2986646890640259 -0.4222366213798523 -0.006989454850554466 0.003162863664329052 0 0 0 0
1779156300 -0.32518115639686584 -0.36799708008766174 -0.007667445577681065 0.00435999222099781 0 0 0 0
1782878384 -0.3447597026824951 -0.3088623285293579 -0.008312435820698738 0.005978693254292011 0 0 0 0
1786600468 -0.35373806953430176 -0.25295940041542053 -0.008508553728461266 0.0083067761734128 0 0 0 0
1790322552 -0.3568558096885681 -0.1938203126192093 -0.007981492206454277 0.011186436749994755 0 0 0 0
1794044636 -0.3502150774002075 -0.13859349489212036 -0.006471340544521809 0.013726603239774704 0 0 0 0
1797766720 -0.3370063900947571 -0.08448716998100281 -0.004479306749999523 0.016130244359374046 0 0 0 0
1801488804 -0.3167126774787903 -0.030620016157627106 -0.0017698165029287338 0.01886962354183197 0 0 0 0
1805210888 -0.28920841217041016 0.018984615802764893 0.002195133827626705 0.021204333752393723 0 0 0 0
1808932972 -0.25336068868637085 0.063712477684021 0.007313999347388744 0.022217491641640663 0 0 0 0
1812655056 -0.21089164912700653 0.10363892465829849 0.012734911404550076 0.021832352504134178 0 0 0 0
1816377140 -0.16127429902553558 0.13604900240898132 0.01822683773934841 0.019945751875638962 0 0 0 0
1820099224 -0.10659479349851608 0.1574612855911255 0.02369842119514942 0.0164943840354681 0 0 0 0
1823821308 -0.049729496240615845 0.16962824761867523 0.02830588072538376 0.010754239745438099 0 0 0 0
1827543392 0.006638526916503906 0.17137408256530762 0.030520707368850708 0.003762483596801758 0 0 0 0
1831265476 0.05779426544904709 0.163986474275589 0.030665190890431404 -0.0023163892328739166 0 0 0 0
1834987560 0.10933665931224823 0.1480739712715149 0.029476411640644073 -0.008388807997107506 0 0 0 0
1838709644 0.15377894043922424 0.12701228260993958 0.027372881770133972 -0.013889188878238201 0 0 0 0
1842431728 0.19361451268196106 0.09927118569612503 0.024920329451560974 -0.018541477620601654 0 0 0 0
1846153812 0.22685375809669495 0.06682638823986053 0.021385136991739273 -0.02247372269630432 0 0 0 0
1849875896 0.2544996440410614 0.02914608083665371 0.017217639833688736 -0.02630957029759884 0 0 0 0
1853597980 0.27478358149528503 -0.00962117314338684 0.012788832187652588 -0.02914411574602127 0 0 0 0
1857320064 0.2896776795387268 -0.051774945110082626 0.007767938077449799 -0.03162724897265434 0 0 0 0
1861042148 0.2976011335849762 -0.09172125160694122 0.0029337387531995773 -0.03364429250359535 0 0 0 0
1864764232 0.29856324195861816 -0.13282811641693115 -0.0037377970293164253 -0.034996140748262405 0 0 0 0
1868486316 0.293245404958725 -0.17170967161655426 -0.01113818772137165 -0.03415752574801445 0 0 0 0
1872208400 0.28246599435806274 -0.20893439650535583 -0.01748039573431015 -0.03129279986023903 0 0 0 0
1875930484 0.2668699622154236 -0.24425745010375977 -0.02272692881524563 -0.02741953544318676 0 0 0 0
1879652568 0.2456318736076355 -0.27657073736190796 -0.02681681327521801 -0.023272709921002388 0 0 0 0
1883374652 0.2201852798461914 -0.3033028841018677 -0.030541904270648956 -0.018894944339990616 0 0 0 0
1887096736 0.1875608116388321 -0.3271964490413666 -0.034245509654283524 -0.013390800915658474 0 0 0 0
1890818820 0.1556408554315567 -0.34136903285980225 -0.03656896948814392 -0.00799570232629776 0 0 0 0
1894540904 0.11890372633934021 -0.3496120572090149 -0.038086701184511185 -0.0011034244671463966 0 0 0 0
1898262988 0.08529786020517349 -0.3504440188407898 -0.03846076503396034 0.005578301846981049 0 0 0 0
1901985072 0.0493493378162384 -0.34620538353919983 -0.03732553869485855 0.012596355751156807 0 0 0 0
1905707156 0.018667951226234436 -0.3369963765144348 -0.03513900563120842 0.019296588376164436 0 0 0 0
1909429240 -0.008050823584198952 -0.32212862372398376 -0.03185455873608589 0.02565413899719715 0 0 0 0
1913151324 -0.03335869312286377 -0.3024801015853882 -0.02719200775027275 0.03183284401893616 0 0 0 0
1916873408 -0.05397498607635498 -0.28081557154655457 -0.02126215398311615 0.03736880421638489 0 0 0 0
1920595492 -0.0724295899271965 -0.2548530697822571 -0.013487691059708595 0.04177061468362808 0 0 0 0
1924317576 -0.08258745819330215 -0.22723530232906342 -0.004661111161112785 0.044395528733730316 0 0 0 0
1928039660 -0.08703599870204926 -0.19978901743888855 0.004377201199531555 0.044597260653972626 0 0 0 0
1931761744 -0.08984604477882385 -0.17103371024131775 0.0142355440184474 0.04213123768568039 0 0 0 0
1935483828 -0.08645966649055481 -0.14376595616340637 0.021984953433275223 0.03701818734407425 0 0 0 0
1939205912 -0.07978566735982895 -0.11661489307880402 0.027551671490073204 0.030731040984392166 0 0 0 0
1942927996 -0.06823210418224335 -0.09047715365886688 0.031077124178409576 0.024529557675123215 0 0 0 0
1946650080 -0.05162830650806427 -0.06719192117452621 0.033563032746315 0.01896677352488041 0 0 0 0
1950372164 -0.031149979680776596 -0.04631838575005531 0.035890888422727585 0.013982823118567467 0 0 0 0
1954094248 -0.006703977473080158 -0.029842518270015717 0.038369935005903244 0.008349331095814705 0 0 0 0
1957816332 0.021131156012415886 -0.01823953352868557 0.04028509184718132 0.0013276683166623116 0 0 0 0
1961538416 0.05102921649813652 -0.012078111059963703 0.04036398231983185 -0.006663542240858078 0 0 0 0
1965260500 0.08103227615356445 -0.012410067021846771 0.038378067314624786 -0.014120548963546753 0 0 0 0
1968982584 0.11088328063488007 -0.018779849633574486 0.03490763157606125 -0.021038513630628586 0 0 0 0
1972704668 0.13831031322479248 -0.030824782326817513 0.030976660549640656 -0.026985060423612595 0 0 0 0
1976426752 0.1615068018436432 -0.04852353781461716 0.025067344307899475 -0.03324071317911148 0 0 0 0
1980148836 0.18263110518455505 -0.06876178085803986 0.018293287605047226 -0.03789319470524788 0 0 0 0
1983870920 0.19922661781311035 -0.09274037927389145 0.010278651490807533 -0.04103513062000275 0 0 0 0
1987593004 0.2094135880470276 -0.12078173458576202 0.0008140858262777328 -0.04193830117583275 0 0 0 0
1991315088 0.21404001116752625 -0.14961335062980652 -0.007668899372220039 -0.0405382476747036 0 0 0 0
1995037172 0.21166987717151642 -0.1777501404285431 -0.015567761845886707 -0.03715179115533829 0 0 0 0
1998759256 0.20690684020519257 -0.2033998668193817 -0.02161824330687523 -0.032245833426713943 0 0 0 0
2002481340 0.1958846151828766 -0.22828757762908936 -0.026184234768152237 -0.02688630111515522 0 0 0 0
2006203424 0.18367323279380798 -0.2480155974626541 -0.02886437624692917 -0.022046253085136414 0 0 0 0
2009925508 0.16214026510715485 -0.26835185289382935 -0.0317712239921093 -0.017306048423051834 0 0 0 0
2013647592 0.1451234221458435 -0.2817310094833374 -0.034207433462142944 -0.01210574246942997 0 0 0 0
2017369676 0.12408293783664703 -0.2947022318840027 -0.0364413820207119 -0.006539488211274147 0 0 0 0
2021091760 0.1012779176235199 -0.3039315640926361 -0.03774786740541458 7.05597922205925e-05 0 0 0 0
2024813844 0.07510868459939957 -0.3089764416217804 -0.037807147949934006 0.007742716930806637 0 0 0 0
2028535928 0.04883520305156708 -0.3105003237724304 -0.0352020338177681 0.014947711490094662 0 0 0 0
2032258012 0.024754898622632027 -0.30686360597610474 -0.03154759109020233 0.02125505730509758 0 0 0 0
2035980096 -0.001380033791065216 -0.299127459526062 -0.026663100346922874 0.026103349402546883 0 0 0 0
2039702180 -0.027551613748073578 -0.28666502237319946 -0.021035311743617058 0.029942398890852928 0 0 0 0
2043424264 -0.04862983524799347 -0.2703549563884735 -0.015673622488975525 0.03260325640439987 0 0 0 0
2047146348 -0.07090750336647034 -0.2505800426006317 -0.00947775598615408 0.03453539311885834 0 0 0 0
2050868432 -0.08611761033535004 -0.2274637371301651 -0.003603760153055191 0.03557711839675903 0 0 0 0
2054590516 -0.09853879362344742 -0.2020825445652008 0.0023802313953638077 0.03527912497520447 0 0 0 0
2058312600 -0.1081685870885849 -0.17210814356803894 0.008489439263939857 0.03388593718409538 0 0 0 0
2062034684 -0.11183760315179825 -0.1420813351869583 0.014060547575354576 0.03176343813538551 0 0 0 0
2065756768 -0.1114509254693985 -0.11170415580272675 0.019011324271559715 0.02835259772837162 0 0 0 0
2069478852 -0.1069425418972969 -0.07918442785739899 0.023305078968405724 0.024240069091320038 0 0 0 0
2073200936 -0.0965709462761879 -0.04811829701066017 0.02678702585399151 0.0192550178617239 0 0 0 0
2076923020 -0.07977353036403656 -0.01901698112487793 0.028570493683218956 0.01442592591047287 0 0 0 0
2080645104 -0.05784638226032257 0.007856303825974464 0.029947057366371155 0.009326261468231678 0 0 0 0
2084367188 -0.03155548870563507 0.030721325427293777 0.030421750620007515 0.004977346397936344 0 0 0 0
2088089272 -0.0013458682224154472 0.04844693839550018 0.030425358563661575 0.0006495611742138863 0 0 0 0
2091811356 0.030994094908237457 0.06145908683538437 0.03093753196299076 -0.003490394912660122 0 0 0 0
2095533440 0.06538151204586029 0.06814560294151306 0.03073405846953392 -0.008619113825261593 0 0 0 0
2099255524 0.10018753260374069 0.06946984678506851 0.029680728912353516 -0.014272530563175678 0 0 0 0
2102977608 0.13490231335163116 0.06428592652082443 0.027058998122811317 -0.019949857145547867 0 0 0 0
2106699692 0.16778534650802612 0.05631750822067261 0.022736383602023125 -0.0256293136626482 0 0 0 0
2110421776 0.2002648562192917 0.042219627648591995 0.017081521451473236 -0.029417715966701508 0 0 0 0
2114143860 0.23039285838603973 0.02072962373495102 0.011165926232933998 -0.03193750977516174 0 0 0 0
2117865944 0.25635772943496704 -0.004347033798694611 0.004827302880585194 -0.033242207020521164 0 0 0 0
2121588028 0.2748655378818512 -0.03568306192755699 -0.002061787061393261 -0.03357453644275665 0 0 0 0
2125310112 0.29024624824523926 -0.0640096366405487 -0.008354506455361843 -0.0324796661734581 0 0 0 0
2129032196 0.2993701100349426 -0.09791332483291626 -0.01500601414591074 -0.029596900567412376 0 0 0 0
2132754280 0.30404990911483765 -0.13036268949508667 -0.020136266946792603 -0.025187794119119644 0 0 0 0
2136476364 0.3036263585090637 -0.16386622190475464 -0.02391597256064415 -0.01994284614920616 0 0 0 0
2140198448 0.29676252603530884 -0.19625934958457947 -0.026032771915197372 -0.014037193730473518 0 0 0 0
2143920532 0.28457483649253845 -0.22738339006900787 -0.026591259986162186 -0.008922349661588669 0 0 0 0
2147642616 0.26662901043891907 -0.2567160725593567 -0.02642708644270897 -0.0040541356429457664 0 0 0 0
2151364700 0.2484147846698761 -0.2788868546485901 -0.025599239394068718 -7.81407579779625e-05 0 0 0 0
2155086784 0.22238945960998535 -0.30236077308654785 -0.02439841255545616 0.003983927890658379 0 0 0 0
2158808868 0.20233941078186035 -0.31530994176864624 -0.023217154666781425 0.006823704577982426 0 0 0 0
2162530952 0.1733315885066986 -0.32897257804870605 -0.02143954671919346 0.010062096640467644 0 0 0 0
2166253036 0.14153116941452026 -0.33754369616508484 -0.019271891564130783 0.012696304358541965 0 0 0 0
2169975120 0.11314915120601654 -0.34084755182266235 -0.017611129209399223 0.01495430339127779 0 0 0 0
2173697204 0.0830581933259964 -0.33982646465301514 -0.015212005004286766 0.01778057962656021 0 0 0 0
2177419288 0.05517777055501938 -0.33383792638778687 -0.01244029775261879 0.019925864413380623 0 0 0 0
2181141372 0.026936247944831848 -0.32353559136390686 -0.00893363170325756 0.021670300513505936 0 0 0 0
2184863456 0.001067325472831726 -0.3097876012325287 -0.005325919017195702 0.02280743420124054 0 0 0 0
2188585540 -0.02697134017944336 -0.29142671823501587 -0.0016201268881559372 0.02354954555630684 0 0 0 0
2192307624 -0.047486476600170135 -0.26847338676452637 0.0022876951843500137 0.02410951443016529 0 0 0 0
2196029708 -0.06354623287916183 -0.2415347546339035 0.006908031180500984 0.02354069985449314 0 0 0 0
2199751792 -0.07360444962978363 -0.2138877511024475 0.011509113945066929 0.021976467221975327 0 0 0 0
2203473876 -0.08034910261631012 -0.18200497329235077 0.015187710523605347 0.018898602575063705 0 0 0 0
2207195960 -0.08016623556613922 -0.15401989221572876 0.018062759190797806 0.015562163665890694 0 0 0 0
2210918044 -0.07802038639783859 -0.12378488481044769 0.02035275474190712 0.011304414831101894 0 0 0 0
2214640128 -0.06988212466239929 -0.0963403657078743 0.02176688052713871 0.007000873796641827 0 0 0 0
2218362212 -0.058394093066453934 -0.07058832794427872 0.021992875263094902 0.0026453807950019836 0 0 0 0
2222084296 -0.04328624904155731 -0.04633157327771187 0.021028559654951096 -0.0009758053347468376 0 0 0 0
2225806380 -0.023234538733959198 -0.025060683488845825 0.019963152706623077 -0.004388434812426567 0 0 0 0
2229528464 0.0004523899406194687 -0.006806320510804653 0.018784062936902046 -0.007584532722830772 0 0 0 0
2233250548 0.027514411136507988 0.006734401918947697 0.017338935285806656 -0.010660751722753048 0 0 0 0
2236972632 0.05623751878738403 0.015055052004754543 0.014623444527387619 -0.0139765040948987 0 0 0 0
2240694716 0.08616375923156738 0.018858186900615692 0.011474419385194778 -0.016341332346200943 0 0 0 0
2244416800 0.11554406583309174 0.014079459011554718 0.007782066240906715 -0.017675690352916718 0 0 0 0
2248138884 0.14315727353096008 0.006972242146730423 0.003822370432317257 -0.018443072214722633 0 0 0 0
2251860968 0.16811449825763702 -0.005969759076833725 0.00010010134428739548 -0.018467873334884644 0 0 0 0
2255583052 0.1900162696838379 -0.02312002331018448 -0.003202773630619049 -0.017577776685357094 0 0 0 0
2259305136 0.2079601287841797 -0.04451988264918327 -0.006007169373333454 -0.0160343237221241 0 0 0 0
2263027220 0.22052417695522308 -0.06640864908695221 -0.008211934939026833 -0.014308998361229897 0 0 0 0
2266749304 0.23161496222019196 -0.08683092892169952 -0.010165390558540821 -0.012113085016608238 0 0 0 0
2270471388 0.23493815958499908 -0.11458542197942734 -0.011519234627485275 -0.009852387011051178 0 0 0 0
2274193472 0.2347712516784668 -0.13820184767246246 -0.012165297754108906 -0.007645311765372753 0 0 0 0
2277915556 0.23454739153385162 -0.16089770197868347 -0.012704435735940933 -0.005836322903633118 0 0 0 0
2281637640 0.22405025362968445 -0.18913106620311737 -0.013248026371002197 -0.00406348891556263 0 0 0 0
2285359724 0.21439218521118164 -0.20593757927417755 -0.013473905622959137 -0.002265571616590023 0 0 0 0
2289081808 0.19821025431156158 -0.2245868295431137 -0.013599982485175133 -0.00026234518736600876 0 0 0 0
2292803892 0.17801445722579956 -0.24101924896240234 -0.013429667800664902 0.0018351329490542412 0 0 0 0
2296525976 0.16104334592819214 -0.24798929691314697 -0.012755557894706726 0.0037780525162816048 0 0 0 0
2300248060 0.1402255892753601 -0.2563006579875946 -0.012082766741514206 0.005196254700422287 0 0 0 0
2303970144 0.11643930524587631 -0.26409420371055603 -0.01083860732614994 0.007214500568807125 0 0 0 0
2307692228 0.09454622864723206 -0.2628200948238373 -0.009748464450240135 0.008759169839322567 0 0 0 0
2311414312 0.07552772015333176 -0.258608341217041 -0.007659019902348518 0.010242728516459465 0 0 0 0
2315136396 0.051628246903419495 -0.25240957736968994 -0.005169812589883804 0.010752287693321705 0 0 0 0
2318858480 0.034684356302022934 -0.24271444976329803 -0.002911267802119255 0.010343900881707668 0 0 0 0
2322580564 0.012523334473371506 -0.2286200225353241 -0.0012532072141766548 0.009846983477473259 0 0 0 0
2326302648 -0.0019708052277565002 -0.21093282103538513 -1.9375234842300415e-05 0.008653403259813786 0 0 0 0
2330024732 -0.017954394221305847 -0.19192148745059967 0.0007943548262119293 0.007597559131681919 0 0 0 0
2333746816 -0.026592016220092773 -0.1697486937046051 0.000828450545668602 0.0067872535437345505 0 0 0 0
2337468900 -0.03141963854432106 -0.14703303575515747 0.0010092398151755333 0.006556365638971329 0 0 0 0
2341190984 -0.03485974296927452 -0.12127756327390671 0.0015819137915968895 0.005918794311583042 0 0 0 0
2344913068 -0.033650629222393036 -0.09360697120428085 0.002056465484201908 0.005095602944493294 0 0 0 0
2348635152 -0.027179401367902756 -0.06594421714544296 0.002127639949321747 0.00454255286604166 0 0 0 0
2352357236 -0.012289213947951794 -0.04221788048744202 0.0019708452746272087 0.0042189424857497215 0 0 0 0
2356079320 0.005391892045736313 -0.0200064554810524 0.0018460312858223915 0.003791498951613903 0 0 0 0
2359801404 0.026844121515750885 -0.0016176830977201462 0.0017293747514486313 0.0037406571209430695 0 0 0 0
2363523488 0.051013585180044174 0.01251809298992157 0.0017252694815397263 0.0035086600109934807 0 0 0 0
2367245572 0.07752800732851028 0.02345210500061512 0.001515837386250496 0.0035476982593536377 0 0 0 0
2370967656 0.10577262192964554 0.027818588539958 0.0015560975298285484 0.003679049201309681 0 0 0 0
2374689740 0.135400652885437 0.02723030000925064 0.0018906323239207268 0.003909547813236713 0 0 0 0
2378411824 0.1636141836643219 0.0224655382335186 0.002315252088010311 0.0036648912355303764 0 0 0 0
2382133908 0.18959246575832367 0.013344846665859222 0.0025254637002944946 0.0035117268562316895 0 0 0 0
2385855992 0.21484176814556122 0.00029353052377700806 0.002660413272678852 0.003247784450650215 0 0 0 0
2389578076 0.23733410239219666 -0.01859314739704132 0.0027350466698408127 0.0030586663633584976 0 0 0 0
2393300160 0.25626611709594727 -0.03872881084680557 0.0024163266643881798 0.003236733376979828 0 0 0 0
2397022244 0.27081599831581116 -0.06259670853614807 0.0029180143028497696 0.004106076434254646 0 0 0 0
2400744328 0.283420592546463 -0.08995561301708221 0.0040593454614281654 0.004555645398795605 0 0 0 0
2404466412 0.2882940173149109 -0.12010883539915085 0.005759180523455143 0.004256485961377621 0 0 0 0
2408188496 0.2925747334957123 -0.14527904987335205 0.006953432224690914 0.0032639279961586 0 0 0 0
2411910580 0.2904123067855835 -0.17584240436553955 0.008072513155639172 0.0020881006494164467 0 0 0 0
2415632664 0.28293031454086304 -0.20317134261131287 0.00869061890989542 0.0005707684904336929 0 0 0 0
2419354748 0.27234283089637756 -0.22829532623291016 0.009369218721985817 -0.0011672256514430046 0 0 0 0
2423076832 0.2571586072444916 -0.2524087727069855 0.009227895177900791 -0.0033814487978816032 0 0 0 0
2426798916 0.2374308854341507 -0.27394694089889526 0.008416679687798023 -0.005415000952780247 0 0 0 0
2430521000 0.2168900966644287 -0.29087549448013306 0.006967637687921524 -0.006971464492380619 0 0 0 0
2434243084 0.19048652052879333 -0.3072085380554199 0.005401170812547207 -0.007780790328979492 0 0 0 0
2437965168 0.16858306527137756 -0.31820181012153625 0.004285517148673534 -0.008397956378757954 0 0 0 0
2441687252 0.14177286624908447 -0.324735552072525 0.0031260792165994644 -0.008900952525436878 0 0 0 0
2445409336 0.11082836240530014 -0.3302510976791382 0.0020057326182723045 -0.009455469436943531 0 0 0 0
2449131420 0.0871332511305809 -0.32766368985176086 0.0010819192975759506 -0.009836798533797264 0 0 0 0
2452853504 0.05619949847459793 -0.3223571181297302 -0.0003014151006937027 -0.010280732996761799 0 0 0 0
2456575588 0.028601229190826416 -0.31222352385520935 -0.0019163116812705994 -0.010542858392000198 0 0 0 0
2460297672 0.004982706159353256 -0.2999431788921356 -0.00348011776804924 -0.010751998052001 0 0 0 0
2464019756 -0.020392194390296936 -0.283684641122818 -0.005351997911930084 -0.010820272378623486 0 0 0 0
2467741840 -0.041586801409721375 -0.26375627517700195 -0.007392739877104759 -0.01027305144816637 0 0 0 0
2471463924 -0.05718430131673813 -0.2406499832868576 -0.00937081128358841 -0.009270749054849148 0 0 0 0
2475186008 -0.07078884541988373 -0.21618132293224335 -0.011068417690694332 -0.008204047568142414 0 0 0 0
2478908092 -0.08192892372608185 -0.18832677602767944 -0.012787201441824436 -0.006638658232986927 0 0 0 0
2482630176 -0.08996457606554031 -0.1588173359632492 -0.014218822121620178 -0.004372129216790199 0 0 0 0
2486352260 -0.0908559188246727 -0.1288052648305893 -0.015222616493701935 -0.002298900857567787 0 0 0 0
2490074344 -0.08787842094898224 -0.09794363379478455 -0.01601685956120491 0.0002532610669732094 0 0 0 0
2493796428 -0.07925307005643845 -0.06827588379383087 -0.016216978430747986 0.0032827304676175117 0 0 0 0
2497518512 -0.06759922951459885 -0.040060993283987045 -0.015620178543031216 0.0065187979489564896 0 0 0 0
2501240596 -0.0506831556558609 -0.014123272150754929 -0.01462260726839304 0.009122258983552456 0 0 0 0
2504962680 -0.029548142105340958 0.008604040369391441 -0.013047708198428154 0.011659382842481136 0 0 0 0
2508684764 -0.0052468739449977875 0.02797553688287735 -0.011016619391739368 0.014275669120252132 0 0 0 0
2512406848 0.021156927570700645 0.04318343475461006 -0.008111314848065376 0.016476966440677643 0 0 0 0
2516128932 0.05042789876461029 0.054367005825042725 -0.004992188885807991 0.017977988347411156 0 0 0 0
2519851016 0.0820898786187172 0.060249440371990204 -0.0009038588032126427 0.018668103963136673 0 0 0 0
2523573100 0.11362314224243164 0.06077301502227783 0.0029220692813396454 0.017894957214593887 0 0 0 0
2527295184 0.1446809470653534 0.054962627589702606 0.005927111953496933 0.01668907329440117 0 0 0 0
2531017268 0.1744459867477417 0.041830629110336304 0.008998074568808079 0.014967657625675201 0 0 0 0
2534739352 0.19913801550865173 0.02691558003425598 0.011396619491279125 0.012792648747563362 0 0 0 0
2538461436 0.22065041959285736 0.008484698832035065 0.013582312501966953 0.010213221423327923 0 0 0 0
2542183520 0.2375866025686264 -0.012282993644475937 0.015088287182152271 0.0072625987231731415 0 0 0 0
2545905604 0.25092554092407227 -0.03516053408384323 0.01596710830926895 0.0038059093058109283 0 0 0 0
2549627688 0.26106932759284973 -0.060433279722929 0.016042638570070267 0.00044736918061971664 0 0 0 0
2553349772 0.2659417986869812 -0.0841648131608963 0.015462737530469894 -0.0030723493546247482 0 0 0 0
2557071856 0.26961007714271545 -0.10765770077705383 0.013828673399984837 -0.006383433006703854 0 0 0 0
2560793940 0.2660161256790161 -0.13085097074508667 0.011253543198108673 -0.00848186481744051 0 0 0 0
2564516024 0.26008355617523193 -0.1551756113767624 0.008566985838115215 -0.00978823285549879 0 0 0 0
2568238108 0.2539636492729187 -0.17276936769485474 0.0064645977690815926 -0.010476991534233093 0 0 0 0
2571960192 0.24283909797668457 -0.19188717007637024 0.00426239799708128 -0.01056155189871788 0 0 0 0
2575682276 0.23099155724048615 -0.20908129215240479 0.002380169928073883 -0.010344058275222778 0 0 0 0
2579404360 0.21632272005081177 -0.22304517030715942 0.0008428534492850304 -0.010042552836239338 0 0 0 0
2583126444 0.1996154934167862 -0.2347952276468277 -0.000285513699054718 -0.00987981166690588 0 0 0 0
2586848528 0.1859634518623352 -0.2432800829410553 -0.0016414579004049301 -0.0099391033872962 0 0 0 0
2590570612 0.16922631859779358 -0.2509192228317261 -0.003390248864889145 -0.009307350032031536 0 0 0 0
2594292696 0.1488812267780304 -0.2568119168281555 -0.004850439727306366 -0.008091939613223076 0 0 0 0
2598014780 0.13401441276073456 -0.2569555342197418 -0.005950622260570526 -0.007189108990132809 0 0 0 0
2601736864 0.1143125519156456 -0.2559446096420288 -0.006875019520521164 -0.005927626974880695 0 0 0 0
2605458948 0.09589055180549622 -0.2541218101978302 -0.007567960768938065 -0.0042259581387043 0 0 0 0
2609181032 0.07799114286899567 -0.24789193272590637 -0.007609144784510136 -0.00276127178221941 0 0 0 0
2612903116 0.0640447810292244 -0.23796939849853516 -0.007253153249621391 -0.0013438547030091286 0 0 0 0
2616625200 0.05050937831401825 -0.22705776989459991 -0.0066313836723566055 -8.254777640104294e-05 0 0 0 0
2620347284 0.040335290133953094 -0.2148679792881012 -0.005940648727118969 0.0006545055657625198 0 0 0 0
2624069368 0.032519154250621796 -0.200716033577919 -0.004996368661522865 0.0010057128965854645 0 0 0 0
2627791452 0.028829041868448257 -0.1861061453819275 -0.004233052022755146 0.000934407114982605 0 0 0 0
2631513536 0.024369578808546066 -0.17178882658481598 -0.003932674415409565 0.0008436655625700951 0 0 0 0
2635235620 0.0244451891630888 -0.1572001427412033 -0.004026333801448345 0.0010139141231775284 0 0 0 0
2638957704 0.026711756363511086 -0.14500033855438232 -0.003825354389846325 0.0011992817744612694 0 0 0 0
2642679788 0.02957082912325859 -0.1314183473587036 -0.003755992278456688 0.0014420859515666962 0 0 0 0
2646401872 0.03547074645757675 -0.12110105156898499 -0.003450467251241207 0.0017362209036946297 0 0 0 0
2650123956 0.043416813015937805 -0.11047203093767166 -0.003137640655040741 0.0018660509958863258 0 0 0 0
2653846040 0.05183960124850273 -0.10120964795351028 -0.002801443450152874 0.0019160555675625801 0 0 0 0
2657568124 0.06450208276510239 -0.09415566176176071 -0.0028935354202985764 0.001837301068007946 0 0 0 0
2661290208 0.07723458856344223 -0.09206550568342209 -0.0031016897410154343 0.0019206739962100983 0 0 0 0
2665012292 0.09160785377025604 -0.09139872342348099 -0.0033331550657749176 0.002321508713066578 0 0 0 0
2668734376 0.10059654712677002 -0.09698034822940826 -0.002989663742482662 0.003148934803903103 0 0 0 0
2672456460 0.11215141415596008 -0.10179588943719864 -0.002363258972764015 0.0037303855642676353 0 0 0 0
2676178544 0.11943687498569489 -0.10917432606220245 -0.0017278129234910011 0.004212499596178532 0 0 0 0
2679900628 0.12475429475307465 -0.11863153427839279 -0.0009506680071353912 0.004338936880230904 0 0 0 0
2683622712 0.1280117630958557 -0.1279134750366211 -0.00022472534328699112 0.004382838495075703 0 0 0 0
2687344796 0.12930290400981903 -0.13610722124576569 0.0005885781720280647 0.004259541630744934 0 0 0 0
2691066880 0.12658937275409698 -0.14762496948242188 0.0012905141338706017 0.004008777439594269 0 0 0 0
2694788964 0.12394076585769653 -0.15493857860565186 0.0017706472426652908 0.0037978840991854668 0 0 0 0
2698511048 0.11948040872812271 -0.16298553347587585 0.0025462713092565536 0.0035006916150450706 0 0 0 0
2702233132 0.11595641076564789 -0.17012256383895874 0.003450503572821617 0.0029082074761390686 0 0 0 0
2705955216 0.10838571190834045 -0.17635609209537506 0.00401664711534977 0.0019290680065751076 0 0 0 0
2709677300 0.09922490268945694 -0.18410298228263855 0.004303275607526302 0.0007751714438199997 0 0 0 0
2713399384 0.08835797011852264 -0.18806304037570953 0.004117182455956936 -0.0001765526831150055 0 0 0 0
2717121468 0.0776151493191719 -0.18934717774391174 0.0037010079249739647 -0.0010127639397978783 0 0 0 0
2720843552 0.06471806764602661 -0.19010202586650848 0.0032136524096131325 -0.0015239212661981583 0 0 0 0
2724565636 0.051815591752529144 -0.18768660724163055 0.002686070278286934 -0.0020841071382164955 0 0 0 0
2728287720 0.04023522138595581 -0.18195882439613342 0.002054438926279545 -0.0024296874180436134 0 0 0 0
2732009804 0.02798520028591156 -0.17369922995567322 0.0016076592728495598 -0.002397519536316395 0 0 0 0
2735731888 0.016489148139953613 -0.1635873019695282 0.0012937095016241074 -0.0023934943601489067 0 0 0 0
2739453972 0.010669413954019547 -0.1520228385925293 0.0009106844663619995 -0.0024976329877972603 0 0 0 0
2743176056 0.0028700679540634155 -0.13797974586486816 0.0006412267684936523 -0.002517467364668846 0 0 0 0
2746898140 -0.0020584817975759506 -0.12303043901920319 0.00044533051550388336 -0.002380702644586563 0 0 0 0
2750620224 -0.002951996400952339 -0.10605477541685104 0.00038008764386177063 -0.0023611998185515404 0 0 0 0
2754342308 -0.0024348879233002663 -0.09015392512083054 0.00038156379014253616 -0.002703869715332985 0 0 0 0
2758064392 0.0012203045189380646 -0.073634572327137 5.2599236369132996e-05 -0.0029583992436528206 0 0 0 0
2761786476 0.007128303870558739 -0.05723270773887634 -0.0006060628220438957 -0.003107634373009205 0 0 0 0
2765508560 0.016444694250822067 -0.041143037378787994 -0.0013124626129865646 -0.0028167059645056725 0 0 0 0
2769230644 0.028230641037225723 -0.026349078863859177 -0.0016536945477128029 -0.0023201005533337593 0 0 0 0
2772952728 0.043806806206703186 -0.012758648954331875 -0.001601950265467167 -0.0019577322527766228 0 0 0 0
2776674812 0.06130290776491165 -0.003555862233042717 -0.0015650717541575432 -0.001738191582262516 0 0 0 0
2780396896 0.08127563446760178 0.004100961610674858 -0.0016056178137660027 -0.0016751820221543312 0 0 0 0
2784118980 0.10269974172115326 0.007347531616687775 -0.002015193924307823 -0.001522592268884182 0 0 0 0
2787841064 0.12371574342250824 0.007984232157468796 -0.002139485441148281 -0.0011467523872852325 0 0 0 0
2791563148 0.1449175328016281 0.003265775740146637 -0.0022073518484830856 -0.0007137805223464966 0 0 0 0
2795285232 0.1668015867471695 -0.0028356527909636497 -0.001987481489777565 -0.00029756128787994385 0 0 0 0
2799007316 0.18684132397174835 -0.012279383838176727 -0.0015150448307394981 -0.0001484844833612442 0 0 0 0
2802729400 0.20564991235733032 -0.025844179093837738 -0.0012973630800843239 -0.00026671867817640305 0 0 0 0
2806451484 0.22086051106452942 -0.04517170041799545 -0.0014130491763353348 -0.0006338143721222878 0 0 0 0
2810173568 0.23434945940971375 -0.06033943220973015 -0.0017407545819878578 -0.0005221664905548096 0 0 0 0
2813895652 0.24591222405433655 -0.08294551074504852 -0.002066284418106079 -7.958244532346725e-05 0 0 0 0
2817617736 0.2512795925140381 -0.10765685141086578 -0.0019498970359563828 0.00038460735231637955 0 0 0 0
2821339820 0.2559501528739929 -0.13029590249061584 -0.001754038967192173 0.0007749432697892189 0 0 0 0
2825061904 0.255314439535141 -0.15494607388973236 -0.0014953315258026123 0.001003773882985115 0 0 0 0
2828783988 0.2516476809978485 -0.17731526494026184 -0.0011969264596700668 0.0011707507073879242 0 0 0 0
2832506072 0.24587535858154297 -0.1982797384262085 -0.0007332172244787216 0.001142195425927639 0 0 0 0
2836228156 0.2340420037508011 -0.2213735729455948 -0.00053420290350914 0.001300106756389141 0 0 0 0
2839950240 0.2207227647304535 -0.2428680956363678 -0.00010081380605697632 0.0012516304850578308 0 0 0 0
2843672324 0.2043442577123642 -0.2592480480670929 0.0001868968829512596 0.0010964944958686829 0 0 0 0
2847394408 0.1903354972600937 -0.2739723026752472 0.0004347143694758415 0.0010001324117183685 0 0 0 0
2851116492 0.1698136329650879 -0.2889076769351959 0.0006491458043456078 0.0008131451904773712 0 0 0 0
2854838576 0.14780046045780182 -0.29902541637420654 0.0008190087974071503 0.0006024381145834923 0 0 0 0
2858560660 0.1326892375946045 -0.30715620517730713 0.0010201167315244675 -8.136313408613205e-05 0 0 0 0
2862282744 0.10507211834192276 -0.3150246739387512 0.0009429268538951874 -0.00023874081671237946 0 0 0 0
2866004828 0.08175386488437653 -0.3167272210121155 0.0009471587836742401 -0.0003231484442949295 0 0 0 0
2869726912 0.06158757209777832 -0.315977543592453 0.0010521281510591507 -0.0005050953477621078 0 0 0 0
2873448996 0.03744078427553177 -0.31280219554901123 0.0011163530871272087 -0.0006900057196617126 0 0 0 0
2877171080 0.015357889235019684 -0.30646243691444397 0.0010103192180395126 -0.000963972881436348 0 0 0 0
2880893164 -0.01102197915315628 -0.2982870042324066 0.0007971795275807381 -0.00115903839468956 0 0 0 0
2884615248 -0.034018728882074356 -0.2848368287086487 0.0005238112062215805 -0.0012558316811919212 0 0 0 0
2888337332 -0.0518561415374279 -0.271281361579895 0.0002549756318330765 -0.0012727472931146622 0 0 0 0
2892059416 -0.07288160175085068 -0.25308704376220703 0.0001544114202260971 -0.0012131892144680023 0 0 0 0
2895781500 -0.08639185130596161 -0.23371408879756927 -6.508268415927887e-05 -0.0011969488114118576 0 0 0 0
2899503584 -0.10096485912799835 -0.21040619909763336 -0.00023878458887338638 -0.0009459024295210838 0 0 0 0
2903225668 -0.11233769357204437 -0.1862429678440094 -0.0002340981736779213 -0.0008399719372391701 0 0 0 0
2906947752 -0.11904717981815338 -0.1613280028104782 -0.00013601034879684448 -0.0006173504516482353 0 0 0 0
2910669836 -0.12097051739692688 -0.1354934126138687 -0.00012779142707586288 -0.0004393104463815689 0 0 0 0
2914391920 -0.12229922413825989 -0.10612057149410248 -0.00011681020259857178 -0.00040782708674669266 0 0 0 0
2918114004 -0.11729346215724945 -0.08151400834321976 -3.33636999130249e-05 -0.00022826530039310455 0 0 0 0
2921836088 -0.10942468047142029 -0.05808825045824051 1.691281795501709e-06 -0.00023688841611146927 0 0 0 0
2925558172 -0.10123587399721146 -0.03371487930417061 0.00021366029977798462 -0.00023690704256296158 0 0 0 0
2929280256 -0.0887582078576088 -0.01151173934340477 0.0001562340185046196 -0.0003440510481595993 0 0 0 0
2933002340 -0.07298446446657181 0.009781748987734318 9.726081043481827e-05 -0.00036100205034017563 0 0 0 0
2936724424 -0.05477539077401161 0.028732309117913246 0.00011207256466150284 -0.0002392902970314026 0 0 0 0
2940446508 -0.035400599241256714 0.04385688528418541 5.950219929218292e-05 -0.000187017023563385 0 0 0 0
2944168592 -0.01334654726088047 0.05842481926083565 -0.00020895246416330338 -6.595160812139511e-05 0 0 0 0
2947890676 0.011830855160951614 0.06962260603904724 -0.00011783838272094727 0.00018672272562980652 0 0 0 0
2951612760 0.037248194217681885 0.07846823334693909 0.00010636355727910995 0.0005308594554662704 0 0 0 0
2955334844 0.06453008204698563 0.0826493352651596 0.00034552160650491714 0.0006520077586174011 0 0 0 0
2959056928 0.09267420321702957 0.08187027275562286 0.000820457935333252 0.0008205883204936981 0 0 0 0
2962779012 0.11916554719209671 0.07818188518285751 0.0011256923899054527 0.001015068031847477 0 0 0 0
2966501096 0.1450139433145523 0.0694899708032608 0.0017462009564042091 0.0007793158292770386 0 0 0 0
2970223180 0.16817590594291687 0.05736597999930382 0.0022950340062379837 0.0004573715850710869 0 0 0 0
2973945264 0.18990258872509003 0.0453108549118042 0.0025032563135027885 -7.512513548135757e-05 0 0 0 0
2977667348 0.21022658050060272 0.027774479240179062 0.0027456767857074738 -0.000793134793639183 0 0 0 0
2981389432 0.22796028852462769 0.009244716726243496 0.002464205026626587 -0.0012706257402896881 0 0 0 0
2985111516 0.2425231635570526 -0.012739188969135284 0.002288609743118286 -0.0018982328474521637 0 0 0 0
2988833600 0.2538737952709198 -0.035883039236068726 0.0018764929845929146 -0.0020925821736454964 0 0 0 0
2992555684 0.2622848153114319 -0.05651504546403885 0.0012164423242211342 -0.002469336614012718 0 0 0 0
2996277768 0.26661568880081177 -0.07990056276321411 0.0008104648441076279 -0.0025163814425468445 0 0 0 0
2999999852 0.2700482904911041 -0.10353311896324158 0.00023208651691675186 -0.0023115910589694977 0 0 0 0
