# HZ S RI R 50
1500000000 -0.15256953239440918 -0.012691393494606018 0.06959779560565948 -0.02880311757326126 0 0 0 0
1503722084 -0.13022871315479279 0.02307869866490364 0.06199410930275917 -0.04164723679423332 0 0 0 0
1507444168 -0.10189694166183472 0.05292983725667 0.05184886232018471 -0.05206236243247986 0 0 0 0
1511166252 -0.0668424740433693 0.07838468253612518 0.03964214026927948 -0.059511829167604446 0 0 0 0
1514888336 -0.02642211876809597 0.09876879304647446 0.02588314190506935 -0.06400822103023529 0 0 0 0
1518610420 0.017607470974326134 0.11213165521621704 0.012748681008815765 -0.06461462378501892 0 0 0 0
1522332504 0.06585045158863068 0.1173502653837204 0.0004286728799343109 -0.06257817894220352 0 0 0 0
1526054588 0.1141309067606926 0.11494723707437515 -0.009719607420265675 -0.058150678873062134 0 0 0 0
1529776672 0.163093701004982 0.10459258407354355 -0.018533257767558098 -0.05272512882947922 0 0 0 0
1533498756 0.21134288609027863 0.08654238283634186 -0.025712672621011734 -0.04612424969673157 0 0 0 0
1537220840 0.25853466987609863 0.05634845793247223 -0.031071610748767853 -0.0385737307369709 0 0 0 0
1540942924 0.300880491733551 0.019231460988521576 -0.03413692116737366 -0.03150808811187744 0 0 0 0
1544665008 0.33597397804260254 -0.025051727890968323 -0.03601677343249321 -0.025046639144420624 0 0 0 0
1548387092 0.362764447927475 -0.07616300880908966 -0.03731391578912735 -0.01906588487327099 0 0 0 0
1552109176 0.38032689690589905 -0.13087953627109528 -0.037965551018714905 -0.012997264042496681 0 0 0 0
1555831260 0.38811957836151123 -0.19065797328948975 -0.037702471017837524 -0.00699953455477953 0 0 0 0
1559553344 0.3892085552215576 -0.24725556373596191 -0.036342982202768326 -0.0012042857706546783 0 0 0 0
1563275428 0.37665218114852905 -0.30640268325805664 -0.034046564251184464 0.0037535429000854492 0 0 0 0
1566997512 0.3605295419692993 -0.36117008328437805 -0.031357765197753906 0.007487124763429165 0 0 0 0
1570719596 0.3327575623989105 -0.4149298667907715 -0.028335869312286377 0.010881662368774414 0 0 0 0
1574441680 0.2923019528388977 -0.4666000008583069 -0.025376178324222565 0.013346079736948013 0 0 0 0
1578163764 0.2529442310333252 -0.5054575204849243 -0.022762661799788475 0.014924338087439537 0 0 0 0
1581885848 0.20212510228157043 -0.5409761667251587 -0.020636089146137238 0.01641431450843811 0 0 0 0
1585607932 0.14587774872779846 -0.5678749084472656 -0.018040668219327927 0.01833287812769413 0 0 0 0
1589330016 0.08870437741279602 -0.5879494547843933 -0.015456728637218475 0.01969786174595356 0 0 0 0
1593052100 0.030263304710388184 -0.59880131483078 -0.01335630752146244 0.020633867010474205 0 0 0 0
1596774184 -0.02584168314933777 -0.6019344925880432 -0.011491800658404827 0.021815495565533638 0 0 0 0
1600496268 -0.09125465154647827 -0.5957644581794739 -0.008846582844853401 0.023437023162841797 0 0 0 0
1604218352 -0.1524241715669632 -0.5786445736885071 -0.005927908234298229 0.02477613091468811 0 0 0 0
1607940436 -0.20954649150371552 -0.5563934445381165 -0.002461489289999008 0.02564210817217827 0 0 0 0
1611662520 -0.2655845880508423 -0.5239756107330322 0.0012796297669410706 0.02601192146539688 0 0 0 0
1615384604 -0.31574130058288574 -0.48424458503723145 0.0052333250641822815 0.026097724214196205 0 0 0 0
1619106688 -0.3605306148529053 -0.4366980493068695 0.009125827811658382 0.025345873087644577 0 0 0 0
1622828772 -0.39889147877693176 -0.38241347670555115 0.013194531202316284 0.02446877956390381 0 0 0 0
1626550856 -0.4283726215362549 -0.32134103775024414 0.017856163904070854 0.022437863051891327 0 0 0 0
1630272940 -0.4509662091732025 -0.2557389736175537 0.022251639515161514 0.018877271562814713 0 0 0 0
1633995024 -0.464047908782959 -0.18899857997894287 0.02570304088294506 0.014063072390854359 0 0 0 0
1637717108 -0.46748238801956177 -0.12060543894767761 0.027636704966425896 0.008277659304440022 0 0 0 0
1641439192 -0.4611719846725464 -0.05300331115722656 0.02779305912554264 0.0027776984497904778 0 0 0 0
1645161276 -0.4448508620262146 0.018667086958885193 0.0268036350607872 -0.002352452836930752 0 0 0 0
1648883360 -0.4170883893966675 0.0896490216255188 0.025226132944226265 -0.006882050074636936 0 0 0 0
1652605444 -0.3774119019508362 0.15505552291870117 0.022920265793800354 -0.010928976349532604 0 0 0 0
1656327528 -0.32882219552993774 0.2129668891429901 0.020055945962667465 -0.014336783438920975 0 0 0 0
1660049612 -0.2712056040763855 0.26340100169181824 0.01669507846236229 -0.017030734568834305 0 0 0 0
1663771696 -0.2038925290107727 0.3064005672931671 0.012657822109758854 -0.01902882196009159 0 0 0 0
1667493780 -0.13082031905651093 0.3389465808868408 0.008982759900391102 -0.02026650868356228 0 0 0 0
1671215864 -0.05653490498661995 0.3590620160102844 0.00490396935492754 -0.020979106426239014 0 0 0 0
1674937948 0.028932131826877594 0.3694849908351898 0.0006434591487050056 -0.020553726702928543 0 0 0 0
1678660032 0.1106085255742073 0.3654533624649048 -0.0029218411073088646 -0.0191570445895195 0 0 0 0
1682382116 0.19167569279670715 0.34756994247436523 -0.006130043417215347 -0.017365500330924988 0 0 0 0
1686104200 0.26942628622055054 0.31646978855133057 -0.008521391078829765 -0.014725251123309135 0 0 0 0
1689826284 0.34228312969207764 0.27360713481903076 -0.010058916173875332 -0.012008534744381905 0 0 0 0
1693548368 0.40612471103668213 0.21920305490493774 -0.01089539472013712 -0.00952367763966322 0 0 0 0
1697270452 0.4598521590232849 0.1559576690196991 -0.0112259890884161 -0.007113663479685783 0 0 0 0
1700992536 0.5031269788742065 0.08568325638771057 -0.011178333312273026 -0.004910128191113472 0 0 0 0
1704714620 0.5347387194633484 0.01287897676229477 -0.010962269268929958 -0.00309099443256855 0 0 0 0
1708436704 0.5530767440795898 -0.07317526638507843 -0.010225055739283562 -0.0010525630787014961 0 0 0 0
1712158788 0.559848964214325 -0.1474761664867401 -0.00911424309015274 0.0003626560792326927 0 0 0 0
1715880872 0.5527734756469727 -0.22685430943965912 -0.007987139746546745 0.001464681699872017 0 0 0 0
1719602956 0.5303305387496948 -0.3082740306854248 -0.006591596640646458 0.0021853819489479065 0 0 0 0
1723325040 0.5039283037185669 -0.3773776888847351 -0.005195251666009426 0.0020708637312054634 0 0 0 0
1727047124 0.4650445878505707 -0.44071465730667114 -0.004521995782852173 0.0018263626843690872 0 0 0 0
1730769208 0.4136848449707031 -0.5005123615264893 -0.004251193255186081 0.001641557551920414 0 0 0 0
1734491292 0.3552358150482178 -0.5501219034194946 -0.0038410071283578873 0.0015255510807037354 0 0 0 0
1738213376 0.290627658367157 -0.5891796946525574 -0.0036880280822515488 0.0014594895765185356 0 0 0 0
1741935460 0.22397111356258392 -0.6179850697517395 -0.003544299863278866 0.0012426329776644707 0 0 0 0
1745657544 0.15699873864650726 -0.6329013705253601 -0.0038439249619841576 0.0009164614602923393 0 0 0 0
1749379628 0.08314014226198196 -0.6401476860046387 -0.00417278241366148 0.001227162778377533 0 0 0 0
1753101712 0.01460091769695282 -0.6345808506011963 -0.0044157737866044044 0.001583562232553959 0 0 0 0
1756823796 -0.05604517459869385 -0.6190823316574097 -0.0042174383997917175 0.0021552210673689842 0 0 0 0
1760545880 -0.11343494057655334 -0.5945436954498291 -0.004047478549182415 0.002413500100374222 0 0 0 0
1764267964 -0.1708693951368332 -0.5609834790229797 -0.003836927004158497 0.0024737659841775894 0 0 0 0
1767990048 -0.21925345063209534 -0.5231292843818665 -0.003883221186697483 0.0022146757692098618 0 0 0 0
1771712132 -0.26272526383399963 -0.4749073088169098 -0.0043791793286800385 0.00201531033962965 0 0 0 0
1775434216 -0.2981654405593872 -0.4238126277923584 -0.0056623779237270355 0.0021861642599105835 0 0 0 0
1779156300 -0.3258397579193115 -0.3694363832473755 -0.006886864081025124 0.0030706049874424934 0 0 0 0
1782878384 -0.3435734510421753 -0.31436747312545776 -0.007875366136431694 0.004445886239409447 0 0 0 0
1786600468 -0.35634368658065796 -0.2549801766872406 -0.008775753900408745 0.006659268401563168 0 0 0 0
1790322552 -0.35900846123695374 -0.19646167755126953 -0.008972270414233208 0.009932829067111015 0 0 0 0
1794044636 -0.35314860939979553 -0.13981737196445465 -0.007709484547376633 0.013024757616221905 0 0 0 0
1797766720 -0.33928972482681274 -0.083317331969738 -0.005841071717441082 0.0159468837082386 0 0 0 0
1801488804 -0.31841161847114563 -0.029450982809066772 -0.002926877699792385 0.01878492906689644 0 0 0 0
1805210888 -0.2897641062736511 0.020128905773162842 0.001127791590988636 0.021166328340768814 0 0 0 0
1808932972 -0.2521854639053345 0.06568852066993713 0.006069531664252281 0.022370658814907074 0 0 0 0
1812655056 -0.20894873142242432 0.10459434986114502 0.011830274015665054 0.02211068570613861 0 0 0 0
1816377140 -0.15990875661373138 0.13558201491832733 0.017409056425094604 0.020551590248942375 0 0 0 0
1820099224 -0.10707162320613861 0.15599802136421204 0.02293810062110424 0.017336726188659668 0 0 0 0
1823821308 -0.05051334574818611 0.16812942922115326 0.02752523683011532 0.011786781251430511 0 0 0 0
1827543392 0.004254058003425598 0.17089404165744781 0.02993684634566307 0.0052093081176280975 0 0 0 0
1831265476 0.05705452710390091 0.164204403758049 0.030589044094085693 -0.0009730495512485504 0 0 0 0
1834987560 0.10725055634975433 0.14941605925559998 0.030026908963918686 -0.007100013084709644 0 0 0 0
1838709644 0.15314263105392456 0.12765845656394958 0.028472069650888443 -0.012721584178507328 0 0 0 0
1842431728 0.1932315081357956 0.10022008419036865 0.025885535404086113 -0.01806226186454296 0 0 0 0
1846153812 0.22747647762298584 0.06625442206859589 0.02226168103516102 -0.02250545099377632 0 0 0 0
1849875896 0.25442954897880554 0.02927497774362564 0.018227234482765198 -0.026198288425803185 0 0 0 0
1853597980 0.2752046585083008 -0.009385466575622559 0.013575558550655842 -0.02930768020451069 0 0 0 0
1857320064 0.2906246781349182 -0.04813256859779358 0.00880739651620388 -0.03180474787950516 0 0 0 0
1861042148 0.2986549735069275 -0.09098472446203232 0.0034508537501096725 -0.03385724127292633 0 0 0 0
1864764232 0.3005898892879486 -0.13182656466960907 -0.0030204392969608307 -0.03540671989321709 0 0 0 0
1868486316 0.29417985677719116 -0.17223544418811798 -0.01034069899469614 -0.0349508635699749 0 0 0 0
1872208400 0.2828619182109833 -0.20978957414627075 -0.01703995279967785 -0.03245758265256882 0 0 0 0
1875930484 0.2685887813568115 -0.2426760345697403 -0.02279001474380493 -0.0286924596875906 0 0 0 0
1879652568 0.24562759697437286 -0.27611929178237915 -0.027463987469673157 -0.023930881172418594 0 0 0 0
1883374652 0.21917133033275604 -0.30416685342788696 -0.03134975954890251 -0.0193509291857481 0 0 0 0
1887096736 0.19054387509822845 -0.32488739490509033 -0.034571241587400436 -0.014250684529542923 0 0 0 0
1890818820 0.15569809079170227 -0.3418845236301422 -0.037395231425762177 -0.007900669239461422 0 0 0 0
1894540904 0.12144188582897186 -0.3497660160064697 -0.03900439292192459 -0.0016885027289390564 0 0 0 0
1898262988 0.08526454865932465 -0.3530016541481018 -0.03969716280698776 0.0056211082264781 0 0 0 0
1901985072 0.05232667922973633 -0.34933871030807495 -0.038554489612579346 0.013059909455478191 0 0 0 0
1905707156 0.02031683921813965 -0.34052807092666626 -0.03588361665606499 0.02017451822757721 0 0 0 0
1909429240 -0.00894147902727127 -0.3244938552379608 -0.032223179936409 0.02664785087108612 0 0 0 0
1913151324 -0.0360734686255455 -0.30518561601638794 -0.027295570820569992 0.0329308807849884 0 0 0 0
1916873408 -0.05555155128240585 -0.28280109167099 -0.021351922303438187 0.03805772587656975 0 0 0 0
1920595492 -0.07419021427631378 -0.25650474429130554 -0.013327717781066895 0.04255051910877228 0 0 0 0
1924317576 -0.08591308444738388 -0.22750039398670197 -0.0045448970049619675 0.045106321573257446 0 0 0 0
1928039660 -0.09185075759887695 -0.1992352306842804 0.005538448691368103 0.04532391577959061 0 0 0 0
1931761744 -0.09319299459457397 -0.17057031393051147 0.015180395916104317 0.04272395372390747 0 0 0 0
1935483828 -0.090537890791893 -0.14075493812561035 0.023582449182868004 0.03745986148715019 0 0 0 0
1939205912 -0.08252006024122238 -0.11280892789363861 0.029185540974140167 0.0306700486689806 0 0 0 0
1942927996 -0.06879641115665436 -0.08633802086114883 0.03269006311893463 0.02365202270448208 0 0 0 0
1946650080 -0.0502583310008049 -0.06178763508796692 0.03486541658639908 0.01757662370800972 0 0 0 0
1950372164 -0.027764208614826202 -0.04168606549501419 0.03647923097014427 0.011560906656086445 0 0 0 0
1954094248 -0.0014421241357922554 -0.02671988122165203 0.03785531967878342 0.005960429087281227 0 0 0 0
1957816332 0.027013929560780525 -0.01798837259411812 0.038852665573358536 -0.0008591245859861374 0 0 0 0
1961538416 0.055908627808094025 -0.014460010454058647 0.03807070851325989 -0.00800289586186409 0 0 0 0
1965260500 0.08506070822477341 -0.016198717057704926 0.035602472722530365 -0.014512165449559689 0 0 0 0
1968982584 0.11279105395078659 -0.02349560707807541 0.03250761330127716 -0.020280621945858 0 0 0 0
1972704668 0.1373634934425354 -0.03547804057598114 0.02904062159359455 -0.02613743580877781 0 0 0 0
1976426752 0.1604692041873932 -0.0518469363451004 0.023812267929315567 -0.03138832375407219 0 0 0 0
1980148836 0.17973937094211578 -0.07100079953670502 0.017605002969503403 -0.035881031304597855 0 0 0 0
1983870920 0.19672831892967224 -0.09344449639320374 0.009944090619683266 -0.03891175612807274 0 0 0 0
1987593004 0.20763009786605835 -0.12013916671276093 0.0018821824342012405 -0.03964345529675484 0 0 0 0
1991315088 0.21211160719394684 -0.14849765598773956 -0.005940841510891914 -0.0386580154299736 0 0 0 0
1995037172 0.21140463650226593 -0.17612649500370026 -0.013350652530789375 -0.03607701510190964 0 0 0 0
1998759256 0.20571072399616241 -0.2020166516304016 -0.01927964761853218 -0.03194371983408928 0 0 0 0
2002481340 0.19566383957862854 -0.22645947337150574 -0.023609556257724762 -0.027457421645522118 0 0 0 0
2006203424 0.1830393671989441 -0.2464367151260376 -0.027364354580640793 -0.023239271715283394 0 0 0 0
2009925508 0.1646866798400879 -0.26605620980262756 -0.03052493929862976 -0.018944084644317627 0 0 0 0
2013647592 0.14787966012954712 -0.2797826826572418 -0.03402646258473396 -0.013797427527606487 0 0 0 0
2017369676 0.12533371150493622 -0.29418861865997314 -0.03681723028421402 -0.007895938120782375 0 0 0 0
2021091760 0.10143247991800308 -0.3043094277381897 -0.038501251488924026 -0.0008630435913801193 0 0 0 0
2024813844 0.07803165912628174 -0.31013020873069763 -0.038388319313526154 0.007114645093679428 0 0 0 0
2028535928 0.050483882427215576 -0.31118419766426086 -0.036267053335905075 0.014620790258049965 0 0 0 0
2032258012 0.02274860441684723 -0.30725905299186707 -0.03203326463699341 0.021259980276226997 0 0 0 0
2035980096 -0.003384629264473915 -0.2987336218357086 -0.027027709409594536 0.02617386169731617 0 0 0 0
2039702180 -0.02755357325077057 -0.28638628125190735 -0.021288279443979263 0.030109062790870667 0 0 0 0
2043424264 -0.04845894128084183 -0.270384818315506 -0.015466994605958462 0.03246034309267998 0 0 0 0
2047146348 -0.06869540363550186 -0.25130125880241394 -0.009958888404071331 0.034115709364414215 0 0 0 0
2050868432 -0.08583571016788483 -0.2283099889755249 -0.003792637027800083 0.03481045737862587 0 0 0 0
2054590516 -0.09990549832582474 -0.20285406708717346 0.002196965739130974 0.03484700247645378 0 0 0 0
2058312600 -0.10756215453147888 -0.174149289727211 0.007298611104488373 0.033449940383434296 0 0 0 0
2062034684 -0.11343446373939514 -0.14302481710910797 0.012704418040812016 0.03170597925782204 0 0 0 0
2065756768 -0.11331013590097427 -0.112301766872406 0.017778074368834496 0.02900150790810585 0 0 0 0
2069478852 -0.10888923704624176 -0.07937019318342209 0.022661812603473663 0.025437120348215103 0 0 0 0
2073200936 -0.09806135296821594 -0.047212161123752594 0.026701487600803375 0.020671876147389412 0 0 0 0
2076923020 -0.08167444914579391 -0.016359541565179825 0.029249217361211777 0.015389708802103996 0 0 0 0
2080645104 -0.05862061306834221 0.011241264641284943 0.030445368960499763 0.010062824934720993 0 0 0 0
2084367188 -0.03123915009200573 0.034112825989723206 0.03133568540215492 0.004972797818481922 0 0 0 0
2088089272 -0.0001585502177476883 0.05129263922572136 0.031276628375053406 0.0006694458425045013 0 0 0 0
2091811356 0.033901724964380264 0.0631517693400383 0.031298842281103134 -0.004001191817224026 0 0 0 0
2095533440 0.06852801144123077 0.06902236491441727 0.030766677111387253 -0.008739475160837173 0 0 0 0
2099255524 0.10336154699325562 0.06885068118572235 0.02943224459886551 -0.01488239225000143 0 0 0 0
2102977608 0.13728272914886475 0.0644405335187912 0.026635652408003807 -0.02038777619600296 0 0 0 0
2106699692 0.1704850047826767 0.05356985703110695 0.022078614681959152 -0.025547729805111885 0 0 0 0
2110421776 0.20173028111457825 0.03929638862609863 0.01674787700176239 -0.028917411342263222 0 0 0 0
2114143860 0.23077572882175446 0.0174600537866354 0.010490008629858494 -0.031235888600349426 0 0 0 0
2117865944 0.2553807497024536 -0.006809048354625702 0.00493653304874897 -0.03247752785682678 0 0 0 0
2121588028 0.27528634667396545 -0.03328734636306763 -0.001152070239186287 -0.03267617151141167 0 0 0 0
2125310112 0.2886386811733246 -0.06558544933795929 -0.008257290348410606 -0.031644560396671295 0 0 0 0
2129032196 0.29929688572883606 -0.0953758955001831 -0.013979597948491573 -0.028905155137181282 0 0 0 0
2132754280 0.3047122359275818 -0.12826700508594513 -0.018948815762996674 -0.02473992295563221 0 0 0 0
2136476364 0.3033652901649475 -0.16349577903747559 -0.02248433232307434 -0.019471265375614166 0 0 0 0
2140198448 0.29802682995796204 -0.19631356000900269 -0.0242669265717268 -0.014425678178668022 0 0 0 0
2143920532 0.283548504114151 -0.23046371340751648 -0.02521265670657158 -0.009585624560713768 0 0 0 0
2147642616 0.26939067244529724 -0.25614556670188904 -0.025238169357180595 -0.005502634681761265 0 0 0 0
2151364700 0.2486673891544342 -0.2819116711616516 -0.024863433092832565 -0.0018127206712961197 0 0 0 0
2155086784 0.2278146743774414 -0.30122464895248413 -0.024332577362656593 0.0017208745703101158 0 0 0 0
2158808868 0.1992325633764267 -0.3189351260662079 -0.02342582680284977 0.004711649380624294 0 0 0 0
2162530952 0.17089834809303284 -0.33093318343162537 -0.022477462887763977 0.007982638664543629 0 0 0 0
2166253036 0.13937020301818848 -0.33881524205207825 -0.021068105474114418 0.010711762122809887 0 0 0 0
2169975120 0.10862354934215546 -0.3410913944244385 -0.01991664431989193 0.0138606708496809 0 0 0 0
2173697204 0.08094726502895355 -0.3379923403263092 -0.01802647113800049 0.017222754657268524 0 0 0 0
2177419288 0.050453171133995056 -0.3320196568965912 -0.014832697808742523 0.020669512450695038 0 0 0 0
2181141372 0.02647840604186058 -0.32144594192504883 -0.011144704185426235 0.023174472153186798 0 0 0 0
2184863456 -0.004221491515636444 -0.3072471022605896 -0.006671334616839886 0.024776065722107887 0 0 0 0
2188585540 -0.025410816073417664 -0.28858333826065063 -0.002467317506670952 0.02564401552081108 0 0 0 0
2192307624 -0.04643110930919647 -0.26445502042770386 0.0022609420120716095 0.025988878682255745 0 0 0 0
2196029708 -0.061287544667720795 -0.23896785080432892 0.007364100776612759 0.025278687477111816 0 0 0 0
2199751792 -0.07074660062789917 -0.2106063812971115 0.012108168564736843 0.023193838074803352 0 0 0 0
2203473876 -0.08065915107727051 -0.1791454255580902 0.01659421995282173 0.019678806886076927 0 0 0 0
2207195960 -0.07774762809276581 -0.15284332633018494 0.019465306773781776 0.015969743952155113 0 0 0 0
2210918044 -0.07453961670398712 -0.12345874309539795 0.02144620195031166 0.011532451026141644 0 0 0 0
2214640128 -0.06726620346307755 -0.09584784507751465 0.022287264466285706 0.007037137635052204 0 0 0 0
2218362212 -0.05447716265916824 -0.07169072329998016 0.022161437198519707 0.002486424520611763 0 0 0 0
2222084296 -0.03971729800105095 -0.047801125794649124 0.021135326474905014 -0.0014310535043478012 0 0 0 0
2225806380 -0.02069152519106865 -0.02622707188129425 0.01993870735168457 -0.004399309866130352 0 0 0 0
2229528464 0.0027973251417279243 -0.008627962321043015 0.01880422607064247 -0.007303182035684586 0 0 0 0
2233250548 0.028896300122141838 0.004545895382761955 0.017207041382789612 -0.01039368286728859 0 0 0 0
2236972632 0.056966111063957214 0.012500433251261711 0.01513910386711359 -0.013222726993262768 0 0 0 0
2240694716 0.08633419126272202 0.016043055802583694 0.011915946379303932 -0.0162215456366539 0 0 0 0
2244416800 0.11538081616163254 0.012286070734262466 0.008416757918894291 -0.017876863479614258 0 0 0 0
2248138884 0.14232641458511353 0.004412952810525894 0.004437646828591824 -0.01856982707977295 0 0 0 0
2251860968 0.1673821359872818 -0.010521871037781239 0.00040308479219675064 -0.018936898559331894 0 0 0 0
2255583052 0.18811288475990295 -0.02813134714961052 -0.0029609734192490578 -0.0180324986577034 0 0 0 0
2259305136 0.20460189878940582 -0.04746938496828079 -0.005979116074740887 -0.01625951938331127 0 0 0 0
2263027220 0.21750469505786896 -0.06514400243759155 -0.008033467456698418 -0.014493584632873535 0 0 0 0
2266749304 0.22419579327106476 -0.09222211688756943 -0.00995712447911501 -0.012167058885097504 0 0 0 0
2270471388 0.23003725707530975 -0.11335483193397522 -0.011330821551382542 -0.009949149563908577 0 0 0 0
2274193472 0.23170337080955505 -0.13447430729866028 -0.012155315838754177 -0.007911067456007004 0 0 0 0
2277915556 0.22962909936904907 -0.15938323736190796 -0.012631593272089958 -0.006101093254983425 0 0 0 0
2281637640 0.22076858580112457 -0.185124009847641 -0.013163536787033081 -0.004080271348357201 0 0 0 0
2285359724 0.2119494378566742 -0.20270919799804688 -0.013305927626788616 -0.002541288733482361 0 0 0 0
2289081808 0.19854600727558136 -0.220340296626091 -0.01359968539327383 -0.0007649501785635948 0 0 0 0
2292803892 0.1803276240825653 -0.23541806638240814 -0.01337768230587244 0.0013556228950619698 0 0 0 0
2296525976 0.1658160537481308 -0.242593914270401 -0.012889664620161057 0.0028968127444386482 0 0 0 0
2300248060 0.13957282900810242 -0.25595909357070923 -0.012392476201057434 0.004586377181112766 0 0 0 0
2303970144 0.12639184296131134 -0.26235947012901306 -0.011362170800566673 0.006521088071167469 0 0 0 0
2307692228 0.10022156685590744 -0.2627646327018738 -0.010411676950752735 0.008252732455730438 0 0 0 0
2311414312 0.07794215530157089 -0.26181760430336 -0.008589301258325577 0.009806235320866108 0 0 0 0
2315136396 0.05776820331811905 -0.25562041997909546 -0.006020081229507923 0.01055070385336876 0 0 0 0
2318858480 0.03277621418237686 -0.2463376522064209 -0.004343977198004723 0.010203629732131958 0 0 0 0
2322580564 0.011560894548892975 -0.23211126029491425 -0.002767852507531643 0.009844494983553886 0 0 0 0
2326302648 -0.005514398217201233 -0.21417726576328278 -0.0014162445440888405 0.009472861886024475 0 0 0 0
2330024732 -0.016431372612714767 -0.1938726305961609 -0.00033179204910993576 0.008945796638727188 0 0 0 0
2333746816 -0.02841819077730179 -0.17157089710235596 0.00047574471682310104 0.008519536815583706 0 0 0 0
2337468900 -0.034026313573122025 -0.14729401469230652 0.001380421221256256 0.008045134134590626 0 0 0 0
2341190984 -0.03725334256887436 -0.12123924493789673 0.0023051444441080093 0.007350822910666466 0 0 0 0
2344913068 -0.034697066992521286 -0.0936216339468956 0.002820156514644623 0.0064628589898347855 0 0 0 0
2348635152 -0.026587584987282753 -0.06754714995622635 0.0030684908851981163 0.005191542208194733 0 0 0 0
2352357236 -0.015458734706044197 -0.041963979601860046 0.0029494483023881912 0.004500448703765869 0 0 0 0
2356079320 0.002592853270471096 -0.01912625879049301 0.002764785662293434 0.004226699471473694 0 0 0 0
2359801404 0.024793831631541252 0.00030398741364479065 0.002819598652422428 0.003644733689725399 0 0 0 0
2363523488 0.05014355480670929 0.015405086800456047 0.0027113454416394234 0.003320050425827503 0 0 0 0
2367245572 0.07758779078722 0.0254049114882946 0.0025923121720552444 0.0029307864606380463 0 0 0 0
2370967656 0.10681985318660736 0.03081469237804413 0.0023251697421073914 0.0029212981462478638 0 0 0 0
2374689740 0.1364368200302124 0.029901202768087387 0.002145504578948021 0.0032617412507534027 0 0 0 0
2378411824 0.16440287232398987 0.02311014011502266 0.002438257448375225 0.0032264254987239838 0 0 0 0
2382133908 0.19122125208377838 0.01570107415318489 0.0026241829618811607 0.0030905725434422493 0 0 0 0
2385855992 0.21758803725242615 -0.0004808148369193077 0.0029106419533491135 0.003049897961318493 0 0 0 0
2389578076 0.2400330752134323 -0.01696578413248062 0.0031298091635107994 0.0028227362781763077 0 0 0 0
2393300160 0.25888165831565857 -0.0407957062125206 0.003085453063249588 0.0029365401715040207 0 0 0 0
2397022244 0.2741072177886963 -0.06612051278352737 0.0034002605825662613 0.003275848925113678 0 0 0 0
2400744328 0.28462570905685425 -0.09326104074716568 0.004406115040183067 0.0033689849078655243 0 0 0 0
2404466412 0.2889963984489441 -0.122163325548172 0.00557323545217514 0.0030762776732444763 0 0 0 0
2408188496 0.292738139629364 -0.14686310291290283 0.00656380970031023 0.002209738828241825 0 0 0 0
2411910580 0.29146361351013184 -0.17299704253673553 0.007270295172929764 0.0012916065752506256 0 0 0 0
2415632664 0.2815716564655304 -0.20261114835739136 0.007693449035286903 -4.067458212375641e-05 0 0 0 0
2419354748 0.26607856154441833 -0.23181739449501038 0.0080990856513381 -0.0016527259722352028 0 0 0 0
2423076832 0.25306272506713867 -0.25171369314193726 0.008054944686591625 -0.0035606762394309044 0 0 0 0
2426798916 0.2363196611404419 -0.270233154296875 0.007246531546115875 -0.005291491746902466 0 0 0 0
2430521000 0.21271802484989166 -0.29010167717933655 0.005846270360052586 -0.006587039679288864 0 0 0 0
2434243084 0.19324730336666107 -0.3019949197769165 0.004474845714867115 -0.007113952189683914 0 0 0 0
2437965168 0.16767844557762146 -0.3149501383304596 0.0032997550442814827 -0.007646268233656883 0 0 0 0
2441687252 0.14203029870986938 -0.3236203193664551 0.002383679151535034 -0.00784135702997446 0 0 0 0
2445409336 0.11309615522623062 -0.3295590877532959 0.0013349717482924461 -0.008017564192414284 0 0 0 0
2449131420 0.08745230734348297 -0.3278025984764099 0.0008420553058385849 -0.008539761416614056 0 0 0 0
2452853504 0.05543253570795059 -0.3236899971961975 -0.000140482559800148 -0.008792245760560036 0 0 0 0
2456575588 0.03126786649227142 -0.31390073895454407 -0.001189596951007843 -0.009324485436081886 0 0 0 0
2460297672 0.006283000111579895 -0.30320611596107483 -0.0024848105385899544 -0.009950323030352592 0 0 0 0
2464019756 -0.019795335829257965 -0.2852782905101776 -0.00456570740789175 -0.010047203861176968 0 0 0 0
2467741840 -0.040344491600990295 -0.2660476863384247 -0.006305132061243057 -0.00982370413839817 0 0 0 0
2471463924 -0.058290526270866394 -0.2425922155380249 -0.008101483806967735 -0.009212972596287727 0 0 0 0
2475186008 -0.07341141998767853 -0.2175377905368805 -0.009814146906137466 -0.00826946459710598 0 0 0 0
2478908092 -0.08496178686618805 -0.18901826441287994 -0.011829338036477566 -0.006986190564930439 0 0 0 0
2482630176 -0.09059394896030426 -0.1598694920539856 -0.013489112257957458 -0.0054260678589344025 0 0 0 0
2486352260 -0.09233555942773819 -0.12777921557426453 -0.014955720864236355 -0.0030879173427820206 0 0 0 0
2490074344 -0.09086400270462036 -0.09598803520202637 -0.016260309144854546 -0.00017379876226186752 0 0 0 0
2493796428 -0.08117876201868057 -0.06534859538078308 -0.016597433015704155 0.003002181649208069 0 0 0 0
2497518512 -0.06809578090906143 -0.03667476400732994 -0.01589241251349449 0.006385440938174725 0 0 0 0
2501240596 -0.049824416637420654 -0.01149584911763668 -0.014457841403782368 0.009236260317265987 0 0 0 0
2504962680 -0.02843840979039669 0.010206315666437149 -0.012677624821662903 0.011593627743422985 0 0 0 0
2508684764 -0.004205618053674698 0.029314614832401276 -0.010470271110534668 0.013907095417380333 0 0 0 0
2512406848 0.023399710655212402 0.04409351944923401 -0.008073347620666027 0.015965213999152184 0 0 0 0
2516128932 0.05221405625343323 0.05491822585463524 -0.004808875732123852 0.017486173659563065 0 0 0 0
2519851016 0.08274247497320175 0.061169810593128204 -0.0012173522263765335 0.017945628613233566 0 0 0 0
2523573100 0.11458362638950348 0.060145556926727295 0.0024501746520400047 0.01705932430922985 0 0 0 0
2527295184 0.1459866166114807 0.054455097764730453 0.005388249643146992 0.01580244116485119 0 0 0 0
2531017268 0.17371903359889984 0.044242534786462784 0.007966249249875546 0.014267874881625175 0 0 0 0
2534739352 0.2004169523715973 0.02593926712870598 0.01009427197277546 0.012484279461205006 0 0 0 0
2538461436 0.22134625911712646 0.007005706429481506 0.012479458004236221 0.010455276817083359 0 0 0 0
2542183520 0.23877696692943573 -0.014268182218074799 0.014084458351135254 0.007855896838009357 0 0 0 0
2545905604 0.2521730959415436 -0.03777111694216728 0.015300897881388664 0.004814411513507366 0 0 0 0
2549627688 0.26118865609169006 -0.06157954782247543 0.015879804268479347 0.0015014056116342545 0 0 0 0
2553349772 0.26717260479927063 -0.08374212682247162 0.015405494719743729 -0.0021819602698087692 0 0 0 0
2557071856 0.2649393379688263 -0.11214949935674667 0.013908009976148605 -0.005462232977151871 0 0 0 0
2560793940 0.26611870527267456 -0.1326032280921936 0.011789616197347641 -0.00778160709887743 0 0 0 0
2564516024 0.2607717514038086 -0.15450096130371094 0.009490746073424816 -0.009297091513872147 0 0 0 0
2568238108 0.2516656517982483 -0.17579440772533417 0.0071709491312503815 -0.010310087352991104 0 0 0 0
2571960192 0.24139288067817688 -0.19323106110095978 0.005097575485706329 -0.010864458978176117 0 0 0 0
2575682276 0.23058052361011505 -0.20709586143493652 0.0030335290357470512 -0.010898618027567863 0 0 0 0
2579404360 0.21422570943832397 -0.22189660370349884 0.0012251678854227066 -0.01065120380371809 0 0 0 0
2583126444 0.19863303005695343 -0.23268820345401764 -0.00047207996249198914 -0.010238081216812134 0 0 0 0
2586848528 0.184963196516037 -0.24105000495910645 -0.0020028920844197273 -0.009867534041404724 0 0 0 0
2590570612 0.166060209274292 -0.24952779710292816 -0.00362312700599432 -0.009009763598442078 0 0 0 0
2594292696 0.1526956409215927 -0.2527340054512024 -0.004779147915542126 -0.007922215387225151 0 0 0 0
2598014780 0.1326248198747635 -0.2569638192653656 -0.0055187055841088295 -0.0068972911685705185 0 0 0 0
2601736864 0.11905823647975922 -0.2564111351966858 -0.00640216376632452 -0.005827907472848892 0 0 0 0
2605458948 0.09768591821193695 -0.2535446882247925 -0.007051683031022549 -0.00430601742118597 0 0 0 0
2609181032 0.08116814494132996 -0.24800953269004822 -0.007133143953979015 -0.002932417206466198 0 0 0 0
2612903116 0.0631168857216835 -0.23983776569366455 -0.006779830902814865 -0.0017065349966287613 0 0 0 0
2616625200 0.053854286670684814 -0.22822310030460358 -0.006409443914890289 -0.0008907997980713844 0 0 0 0
2620347284 0.04314921796321869 -0.21632471680641174 -0.0056995609775185585 -4.445016384124756e-05 0 0 0 0
2624069368 0.03210124373435974 -0.20402151346206665 -0.005189081653952599 0.0005379943177103996 0 0 0 0
2627791452 0.02722460776567459 -0.18892091512680054 -0.004579668864607811 0.00038054119795560837 0 0 0 0
2631513536 0.024168141186237335 -0.17360444366931915 -0.0045677535235881805 0.0003105783835053444 0 0 0 0
2635235620 0.023256272077560425 -0.15887896716594696 -0.004784679040312767 0.0003933236002922058 0 0 0 0
2638957704 0.025101959705352783 -0.1442919671535492 -0.004873943515121937 0.0008633127436041832 0 0 0 0
2642679788 0.028522102162241936 -0.13184741139411926 -0.004707742482423782 0.0015922058373689651 0 0 0 0
2646401872 0.034792643040418625 -0.1207214742898941 -0.004361804574728012 0.0022679176181554794 0 0 0 0
2650123956 0.04229714721441269 -0.11001669615507126 -0.0037471726536750793 0.0026240115985274315 0 0 0 0
2653846040 0.05093574523925781 -0.10043905675411224 -0.0031865742057561874 0.002725008875131607 0 0 0 0
2657568124 0.06327980011701584 -0.09404626488685608 -0.002645268104970455 0.00262268353253603 0 0 0 0
2661290208 0.07729487121105194 -0.09031467139720917 -0.0025542965158820152 0.002577919512987137 0 0 0 0
2665012292 0.09162594377994537 -0.08971358090639114 -0.00259571336209774 0.0028221551328897476 0 0 0 0
2668734376 0.1021585464477539 -0.09420842677354813 -0.002228710800409317 0.0030488474294543266 0 0 0 0
2672456460 0.11249243468046188 -0.10057609528303146 -0.0017969124019145966 0.0033731330186128616 0 0 0 0
2676178544 0.12091202288866043 -0.10870181769132614 -0.0014789029955863953 0.003391391597688198 0 0 0 0
2679900628 0.12607619166374207 -0.11874289810657501 -0.0010710079222917557 0.0036940863355994225 0 0 0 0
2683622712 0.12833039462566376 -0.12858790159225464 -0.0005976445972919464 0.003871908411383629 0 0 0 0
2687344796 0.12889675796031952 -0.13872532546520233 6.059091538190842e-05 0.004024946130812168 0 0 0 0
2691066880 0.1265445202589035 -0.14875660836696625 0.0008120536804199219 0.003926876932382584 0 0 0 0
2694788964 0.12426848709583282 -0.15700235962867737 0.001516314223408699 0.003910340368747711 0 0 0 0
2698511048 0.12090980261564255 -0.1641818881034851 0.0023763105273246765 0.0037451768293976784 0 0 0 0
2702233132 0.11588183045387268 -0.17030633985996246 0.0032105231657624245 0.0032201791182160378 0 0 0 0
2705955216 0.10926555097103119 -0.1771557778120041 0.003866948187351227 0.002335003577172756 0 0 0 0
2709677300 0.09940570592880249 -0.18371209502220154 0.004097347147762775 0.00115988589823246 0 0 0 0
2713399384 0.08959908783435822 -0.18771405518054962 0.004014243371784687 9.046867489814758e-05 0 0 0 0
2717121468 0.07792544364929199 -0.18949715793132782 0.003608863800764084 -0.0006047245115041733 0 0 0 0
2720843552 0.06577368080615997 -0.19121679663658142 0.00314519926905632 -0.0011625979095697403 0 0 0 0
2724565636 0.04987623915076256 -0.18817120790481567 0.0028149979189038277 -0.0015097828581929207 0 0 0 0
2728287720 0.038111113011837006 -0.18242883682250977 0.002323908731341362 -0.0018927259370684624 0 0 0 0
2732009804 0.027407586574554443 -0.1737200915813446 0.002008906565606594 -0.001972910948097706 0 0 0 0
2735731888 0.01666918955743313 -0.16280929744243622 0.001810460351407528 -0.002177589572966099 0 0 0 0
2739453972 0.011314203962683678 -0.15157628059387207 0.0015442250296473503 -0.0023537790402770042 0 0 0 0
2743176056 0.003110576421022415 -0.1374044418334961 0.0012019341811537743 -0.0025648511946201324 0 0 0 0
2746898140 -0.0023401975631713867 -0.12153467535972595 0.0008887071162462234 -0.002693070098757744 0 0 0 0
2750620224 -0.0031358003616333008 -0.1044243648648262 0.0007982132956385612 -0.002684696577489376 0 0 0 0
2754342308 -0.0016767829656600952 -0.08850288391113281 0.0006083892658352852 -0.0029833903536200523 0 0 0 0
2758064392 0.001590469852089882 -0.07271234691143036 -1.4914199709892273e-05 -0.00334725808352232 0 0 0 0
2761786476 0.008663224056363106 -0.05646814405918121 -0.0006847847253084183 -0.003412654623389244 0 0 0 0
2765508560 0.017967883497476578 -0.040944118052721024 -0.0015698662027716637 -0.003108866512775421 0 0 0 0
2769230644 0.02973175421357155 -0.026287339627742767 -0.0020366767421364784 -0.0023572584614157677 0 0 0 0
2772952728 0.04550565779209137 -0.013831639662384987 -0.002000967040657997 -0.00157859455794096 0 0 0 0
2776674812 0.06335055083036423 -0.004100160673260689 -0.001654336228966713 -0.0013746004551649094 0 0 0 0
2780396896 0.08342970162630081 0.0016973279416561127 -0.0017118677496910095 -0.0013596154749393463 0 0 0 0
2784118980 0.10326389968395233 0.005071837455034256 -0.0017597852274775505 -0.0012021595612168312 0 0 0 0
2787841064 0.12348764389753342 0.004133368842303753 -0.0017422763630747795 -0.0006656935438513756 0 0 0 0
2791563148 0.14408724009990692 0.0016154348850250244 -0.0015733512118458748 -0.0005279872566461563 0 0 0 0
2795285232 0.16490612924098969 -0.004218995571136475 -0.0013743722811341286 -0.00046884920448064804 0 0 0 0
2799007316 0.1848011314868927 -0.013538852334022522 -0.0011218562722206116 -0.0004305019974708557 0 0 0 0
2802729400 0.20330432057380676 -0.027284890413284302 -0.001042150892317295 -0.0006716195493936539 0 0 0 0
2806451484 0.21869850158691406 -0.04166525602340698 -0.0012635830789804459 -0.0009445603936910629 0 0 0 0
2810173568 0.23243506252765656 -0.06142769753932953 -0.00164733175188303 -0.0008266903460025787 0 0 0 0
2813895652 0.2451591193675995 -0.07939131557941437 -0.002019653096795082 -0.0003201337531208992 0 0 0 0
2817617736 0.25191518664360046 -0.10402120649814606 -0.002158678136765957 0.00019374582916498184 0 0 0 0
2821339820 0.25525370240211487 -0.12934395670890808 -0.0018427129834890366 0.0006368337199091911 0 0 0 0
2825061904 0.2550060749053955 -0.15383680164813995 -0.0014989543706178665 0.0010765967890620232 0 0 0 0
2828783988 0.2519041895866394 -0.17691265046596527 -0.0011211680248379707 0.0012802183628082275 0 0 0 0
2832506072 0.24501223862171173 -0.19867707788944244 -0.0007627652958035469 0.0013123350217938423 0 0 0 0
2836228156 0.23540975153446198 -0.22013066709041595 -0.00031201448291540146 0.00121288001537323 0 0 0 0
2839950240 0.21877607703208923 -0.24275586009025574 8.388422429561615e-06 0.0011698855087161064 0 0 0 0
2843672324 0.20666643977165222 -0.25733405351638794 0.0002500554546713829 0.0009531630203127861 0 0 0 0
2847394408 0.1906360685825348 -0.2720414996147156 0.0005267597734928131 0.0007174378260970116 0 0 0 0
2851116492 0.17036309838294983 -0.2882641553878784 0.0006476491689682007 0.0005533834919333458 0 0 0 0
2854838576 0.14869213104248047 -0.2999206781387329 0.0007187211886048317 0.0002721920609474182 0 0 0 0
2858560660 0.13033786416053772 -0.3088497221469879 0.0008862735703587532 -0.00020493566989898682 0 0 0 0
2862282744 0.10488813370466232 -0.316010981798172 0.0007677581161260605 -0.0003549773246049881 0 0 0 0
2866004828 0.08816174417734146 -0.31500616669654846 0.0007463609799742699 -0.00021422561258077621 0 0 0 0
2869726912 0.061062633991241455 -0.31656232476234436 0.0008158683776855469 -0.0004249121993780136 0 0 0 0
2873448996 0.03409573435783386 -0.31407997012138367 0.0009214896708726883 -0.000608581118285656 0 0 0 0
2877171080 0.012737080454826355 -0.30710482597351074 0.0009037433192133904 -0.0008939113467931747 0 0 0 0
2880893164 -0.01164102554321289 -0.2982485592365265 0.000635647214949131 -0.0010329792276024818 0 0 0 0
2884615248 -0.03253114968538284 -0.2855221629142761 0.0004919245839118958 -0.00107647106051445 0 0 0 0
2888337332 -0.05484519153833389 -0.27051451802253723 0.0002673063427209854 -0.0010520098730921745 0 0 0 0
2892059416 -0.07146917283535004 -0.2532896101474762 0.00018532760441303253 -0.0009176721796393394 0 0 0 0
2895781500 -0.08888089656829834 -0.2335190773010254 -1.949351280927658e-05 -0.0007487768307328224 0 0 0 0
2899503584 -0.09900474548339844 -0.21184362471103668 9.328126907348633e-06 -0.0006599696353077888 0 0 0 0
2903225668 -0.11374782025814056 -0.1859096735715866 0.00013096071779727936 -0.0005751056596636772 0 0 0 0
2906947752 -0.11842326819896698 -0.1624774932861328 0.00011515803635120392 -0.0004806090146303177 0 0 0 0
2910669836 -0.12349475175142288 -0.13511860370635986 0.00024620071053504944 -0.0005516018718481064 0 0 0 0
2914391920 -0.1223263368010521 -0.10777721554040909 0.00024191103875637054 -0.0005210144445300102 0 0 0 0
2918114004 -0.11805439740419388 -0.08103884756565094 0.0002911677584052086 -0.0004845503717660904 0 0 0 0
2921836088 -0.11049631983041763 -0.05701351910829544 0.00029883719980716705 -0.0005712211132049561 0 0 0 0
2925558172 -0.10112927854061127 -0.03315131366252899 0.0002923915162682533 -0.0005587534978985786 0 0 0 0
2929280256 -0.08770538866519928 -0.011157181113958359 0.00018412061035633087 -0.0005806926637887955 0 0 0 0
2933002340 -0.07298056781291962 0.008843855932354927 4.833471029996872e-05 -0.0005969936028122902 0 0 0 0
2936724424 -0.05475929006934166 0.028099413961172104 -0.0001432504504919052 -0.00043879635632038116 0 0 0 0
2940446508 -0.03521215170621872 0.04386632516980171 -0.00026367418467998505 -0.0003630341961979866 0 0 0 0
2944168592 -0.012690172530710697 0.05823315307497978 -0.000358053483068943 -3.4803524613380432e-06 0 0 0 0
2947890676 0.01088457740843296 0.0696411281824112 -0.00024393480271100998 0.00031635910272598267 0 0 0 0
2951612760 0.03748423606157303 0.07735174894332886 -6.90072774887085e-05 0.0006703026592731476 0 0 0 0
2955334844 0.06356792896986008 0.08219301700592041 0.0003441246226429939 0.0009501008316874504 0 0 0 0
2959056928 0.09313900023698807 0.08041195571422577 0.0007939329370856285 0.001064792275428772 0 0 0 0
2962779012 0.11916953325271606 0.07798466086387634 0.0013851886615157127 0.0010996842756867409 0 0 0 0
2966501096 0.1447795331478119 0.07068607211112976 0.0017916057258844376 0.0009068455547094345 0 0 0 0
2970223180 0.16811981797218323 0.05839020013809204 0.002428470179438591 0.00038496125489473343 0 0 0 0
2973945264 0.1894877851009369 0.04506321996450424 0.0026545394212007523 -0.00014479923993349075 0 0 0 0
2977667348 0.2104293256998062 0.027966231107711792 0.002750071696937084 -0.0007640654221177101 0 0 0 0
2981389432 0.2282904088497162 0.009809806942939758 0.0026895180344581604 -0.0013510780408978462 0 0 0 0
2985111516 0.24286818504333496 -0.010247588157653809 0.0025307582691311836 -0.0018137460574507713 0 0 0 0
2988833600 0.2538960874080658 -0.03305279091000557 0.0019547874107956886 -0.0022890176624059677 0 0 0 0
2992555684 0.2630777955055237 -0.057396210730075836 0.0014297738671302795 -0.0026938142254948616 0 0 0 0
2996277768 0.26690369844436646 -0.08259574323892593 0.000873989425599575 -0.002875871956348419 0 0 0 0
2999999852 0.26967644691467285 -0.10657335072755814 0.00023114774376153946 -0.0026969360187649727 0 0 0 0
