# HZ S RI R 50
1500000000 -0.15507455170154572 -0.003927390091121197 0.0709839016199112 -0.033100955188274384 0 0 0 0
1503722084 -0.13090288639068604 0.032386451959609985 0.06231824308633804 -0.04503955692052841 0 0 0 0
1507444168 -0.09969323873519897 0.0635392814874649 0.05155286192893982 -0.05506163090467453 0 0 0 0
1511166252 -0.061971940100193024 0.08949536085128784 0.03850448131561279 -0.06195927783846855 0 0 0 0
1514888336 -0.019494235515594482 0.1084841638803482 0.024671506136655807 -0.06521723419427872 0 0 0 0
1518610420 0.02756173349916935 0.12100688368082047 0.011667339131236076 -0.06527058780193329 0 0 0 0
1522332504 0.07727032899856567 0.12459466606378555 0.000275428406894207 -0.06309094280004501 0 0 0 0
1526054588 0.12852376699447632 0.11856157332658768 -0.009952683001756668 -0.0590270571410656 0 0 0 0
1529776672 0.17876002192497253 0.10520012676715851 -0.018621232360601425 -0.054115936160087585 0 0 0 0
1533498756 0.22715622186660767 0.08069080114364624 -0.026301482692360878 -0.04746313765645027 0 0 0 0
1537220840 0.27180856466293335 0.04809287190437317 -0.03212141990661621 -0.039865970611572266 0 0 0 0
1540942924 0.3100552260875702 0.006466604769229889 -0.03539659082889557 -0.03192448243498802 0 0 0 0
1544665008 0.34056660532951355 -0.038155652582645416 -0.03674989193677902 -0.024935990571975708 0 0 0 0
1548387092 0.3641253113746643 -0.08851855993270874 -0.037520840764045715 -0.019203677773475647 0 0 0 0
1552109176 0.37925392389297485 -0.1425023376941681 -0.03811702877283096 -0.013218989595770836 0 0 0 0
1555831260 0.3851706385612488 -0.20002146065235138 -0.03799949586391449 -0.007486595772206783 0 0 0 0
1559553344 0.3838115930557251 -0.2561347484588623 -0.036720383912324905 -0.0018824217841029167 0 0 0 0
1563275428 0.3711712956428528 -0.3147193193435669 -0.034692056477069855 0.0030963579192757607 0 0 0 0
1566997512 0.35262030363082886 -0.36869728565216064 -0.03236972168087959 0.007208976894617081 0 0 0 0
1570719596 0.3255550265312195 -0.418995201587677 -0.029520884156227112 0.010359358042478561 0 0 0 0
1574441680 0.28731095790863037 -0.4679836332798004 -0.02667521871626377 0.013007794506847858 0 0 0 0
1578163764 0.24566304683685303 -0.5084728598594666 -0.024205073714256287 0.015147469937801361 0 0 0 0
1581885848 0.19083058834075928 -0.5427311062812805 -0.021838637068867683 0.017225511372089386 0 0 0 0
1585607932 0.14021964371204376 -0.5664947032928467 -0.019196465611457825 0.019307613372802734 0 0 0 0
1589330016 0.08298921585083008 -0.5852383375167847 -0.016529196873307228 0.020905103534460068 0 0 0 0
1593052100 0.023962587118148804 -0.5961397886276245 -0.013920864090323448 0.022309035062789917 0 0 0 0
1596774184 -0.03771425783634186 -0.598212480545044 -0.01127617061138153 0.02374252676963806 0 0 0 0
1600496268 -0.10017889738082886 -0.5898869633674622 -0.008494524285197258 0.025098662823438644 0 0 0 0
1604218352 -0.15755893290042877 -0.5736913084983826 -0.005023735575377941 0.026422599330544472 0 0 0 0
1607940436 -0.21746663749217987 -0.5469635128974915 -0.001179289072751999 0.027157479897141457 0 0 0 0
1611662520 -0.2660270929336548 -0.5164670944213867 0.0026151463389396667 0.02713347226381302 0 0 0 0
1615384604 -0.3182651698589325 -0.47382864356040955 0.006878291256725788 0.02648112364113331 0 0 0 0
1619106688 -0.3613145351409912 -0.4260105490684509 0.010718565434217453 0.025257693603634834 0 0 0 0
1622828772 -0.39484280347824097 -0.37407585978507996 0.014514956623315811 0.02358664572238922 0 0 0 0
1626550856 -0.42118388414382935 -0.31765589118003845 0.018607385456562042 0.02129601687192917 0 0 0 0
1630272940 -0.4437612295150757 -0.2513982653617859 0.022371631115674973 0.01769138127565384 0 0 0 0
1633995024 -0.4564990699291229 -0.18872392177581787 0.025253480300307274 0.013259494677186012 0 0 0 0
1637717108 -0.46036863327026367 -0.12079386413097382 0.027129296213388443 0.008355949074029922 0 0 0 0
1641439192 -0.4549387991428375 -0.053514569997787476 0.02781505137681961 0.003152817487716675 0 0 0 0
1645161276 -0.4392002820968628 0.019151829183101654 0.027444496750831604 -0.0020561572164297104 0 0 0 0
1648883360 -0.41080453991889954 0.08833383023738861 0.026256009936332703 -0.006920788437128067 0 0 0 0
1652605444 -0.3719116449356079 0.151451975107193 0.024188008159399033 -0.011552424170076847 0 0 0 0
1656327528 -0.3233973979949951 0.2077970951795578 0.02088995836675167 -0.0158412903547287 0 0 0 0
1660049612 -0.2648297846317291 0.25854459404945374 0.0166484285145998 -0.019086292013525963 0 0 0 0
1663771696 -0.20083001255989075 0.2995082139968872 0.012265941128134727 -0.021016085520386696 0 0 0 0
1667493780 -0.13142834603786469 0.33134379982948303 0.0074713146314024925 -0.02213001437485218 0 0 0 0
1671215864 -0.05379341542720795 0.35432666540145874 0.0027577271685004234 -0.022038914263248444 0 0 0 0
1674937948 0.024436164647340775 0.3638954162597656 -0.0017568711191415787 -0.020591313019394875 0 0 0 0
1678660032 0.10689625144004822 0.36149102449417114 -0.00515340082347393 -0.01826472394168377 0 0 0 0
1682382116 0.18814067542552948 0.3445437252521515 -0.008002564311027527 -0.015465709380805492 0 0 0 0
1686104200 0.26436278223991394 0.31581756472587585 -0.009815029799938202 -0.012319674715399742 0 0 0 0
1689826284 0.3382859528064728 0.27373477816581726 -0.01051362045109272 -0.009227996692061424 0 0 0 0
1693548368 0.4032970070838928 0.2206849902868271 -0.010297872126102448 -0.0067227678373456 0 0 0 0
1697270452 0.4576611816883087 0.15840546786785126 -0.00983133353292942 -0.004368303343653679 0 0 0 0
1700992536 0.5010678768157959 0.09006951749324799 -0.008744113147258759 -0.0029553109779953957 0 0 0 0
1704714620 0.5334670543670654 0.009920503944158554 -0.007841507904231548 -0.001948726363480091 0 0 0 0
1708436704 0.5520462393760681 -0.06690996885299683 -0.00704648531973362 -0.001136956736445427 0 0 0 0
1712158788 0.5574975609779358 -0.14936482906341553 -0.006285944953560829 -0.0006933202967047691 0 0 0 0
1715880872 0.5518308281898499 -0.226319819688797 -0.005845348350703716 -0.0005421498790383339 0 0 0 0
1719602956 0.5325161814689636 -0.3041538596153259 -0.005301326513290405 -0.0002214331179857254 0 0 0 0
1723325040 0.5039662718772888 -0.37500348687171936 -0.004813828505575657 -0.00017209351062774658 0 0 0 0
1727047124 0.4654129445552826 -0.440735399723053 -0.004449028521776199 -0.0003226306289434433 0 0 0 0
1730769208 0.41448694467544556 -0.5002989172935486 -0.0044290293008089066 -0.0004964275285601616 0 0 0 0
1734491292 0.354642391204834 -0.5512779355049133 -0.004610475152730942 -0.0005381135269999504 0 0 0 0
1738213376 0.29184678196907043 -0.5886672735214233 -0.004901300184428692 -0.0003885030746459961 0 0 0 0
1741935460 0.22224968671798706 -0.6185294389724731 -0.005157708190381527 -0.00028376374393701553 0 0 0 0
1745657544 0.15806138515472412 -0.6333742737770081 -0.005561645142734051 -0.00021899864077568054 0 0 0 0
1749379628 0.0852874293923378 -0.6400086879730225 -0.006207305938005447 0.0002851393073797226 0 0 0 0
1753101712 0.010380387306213379 -0.635850191116333 -0.006590149365365505 0.0010116985067725182 0 0 0 0
1756823796 -0.05408477783203125 -0.6191678047180176 -0.0069390954449772835 0.0017688339576125145 0 0 0 0
1760545880 -0.11248132586479187 -0.5948240160942078 -0.006840799935162067 0.0025778887793421745 0 0 0 0
1764267964 -0.1723652482032776 -0.5599156618118286 -0.0067023299634456635 0.003372812643647194 0 0 0 0
1767990048 -0.22325924038887024 -0.5200383067131042 -0.006367454305291176 0.003816901706159115 0 0 0 0
1771712132 -0.2656770348548889 -0.4726196825504303 -0.00670559611171484 0.004097352735698223 0 0 0 0
1775434216 -0.2971610426902771 -0.4223659932613373 -0.007604123093187809 0.004923779517412186 0 0 0 0
1779156300 -0.32380712032318115 -0.3691307306289673 -0.008299604058265686 0.006707184948027134 0 0 0 0
1782878384 -0.3441658318042755 -0.311967670917511 -0.008160853758454323 0.008957085199654102 0 0 0 0
1786600468 -0.35531580448150635 -0.2550625801086426 -0.007544329389929771 0.011146865785121918 0 0 0 0
1790322552 -0.3570086658000946 -0.1995754837989807 -0.00623607262969017 0.013560744002461433 0 0 0 0
1794044636 -0.353412389755249 -0.1381291002035141 -0.004441720433533192 0.01567089557647705 0 0 0 0
1797766720 -0.34002700448036194 -0.08179906010627747 -0.001974858343601227 0.0177238080650568 0 0 0 0
1801488804 -0.31874167919158936 -0.02947847917675972 0.0010189693421125412 0.01973920874297619 0 0 0 0
1805210888 -0.2894567549228668 0.021693922579288483 0.005169901996850967 0.021227847784757614 0 0 0 0
1808932972 -0.25141581892967224 0.06680675595998764 0.010284868068993092 0.021471256390213966 0 0 0 0
1812655056 -0.20766639709472656 0.10540175437927246 0.015830354765057564 0.020153509452939034 0 0 0 0
1816377140 -0.15794533491134644 0.13572366535663605 0.020847003906965256 0.017623193562030792 0 0 0 0
1820099224 -0.10459883511066437 0.15762843191623688 0.02526700124144554 0.013614024966955185 0 0 0 0
1823821308 -0.049425672739744186 0.16852670907974243 0.028668111190199852 0.008115625008940697 0 0 0 0
1827543392 0.005340345203876495 0.17135801911354065 0.03031488135457039 0.0015293406322598457 0 0 0 0
1831265476 0.060152266174554825 0.16400602459907532 0.030281420797109604 -0.00493104662746191 0 0 0 0
1834987560 0.11011436581611633 0.14793042838573456 0.0289068054407835 -0.010745720006525517 0 0 0 0
1838709644 0.15533322095870972 0.125606968998909 0.026228167116642 -0.016080738976597786 0 0 0 0
1842431728 0.19598007202148438 0.0967218428850174 0.023020410910248756 -0.020726684480905533 0 0 0 0
1846153812 0.22816821932792664 0.06382565200328827 0.01955820620059967 -0.02419251948595047 0 0 0 0
1849875896 0.25457751750946045 0.025776155292987823 0.015225116163492203 -0.02756396494805813 0 0 0 0
1853597980 0.2751806378364563 -0.012826547026634216 0.010252922773361206 -0.030147813260555267 0 0 0 0
1857320064 0.28943920135498047 -0.05501057952642441 0.0048033734783530235 -0.03187279403209686 0 0 0 0
1861042148 0.2971784174442291 -0.09471265971660614 -0.0005030501633882523 -0.03290179744362831 0 0 0 0
1864764232 0.2963201701641083 -0.13692492246627808 -0.006589541211724281 -0.03328756242990494 0 0 0 0
1868486316 0.28933626413345337 -0.17498861253261566 -0.013104163110256195 -0.03198673576116562 0 0 0 0
1872208400 0.27759870886802673 -0.21114760637283325 -0.018686648458242416 -0.028887351974844933 0 0 0 0
1875930484 0.260903000831604 -0.24409496784210205 -0.023302901536226273 -0.02539665810763836 0 0 0 0
1879652568 0.24045835435390472 -0.27353402972221375 -0.027302192524075508 -0.020784102380275726 0 0 0 0
1883374652 0.21523717045783997 -0.29971712827682495 -0.0302125196903944 -0.016383305191993713 0 0 0 0
1887096736 0.18415182828903198 -0.32099977135658264 -0.03307579830288887 -0.01166085060685873 0 0 0 0
1890818820 0.1549602895975113 -0.3353642225265503 -0.035026513040065765 -0.006450500339269638 0 0 0 0
1894540904 0.12096535414457321 -0.34426623582839966 -0.036674294620752335 -0.0005303546786308289 0 0 0 0
1898262988 0.08459475636482239 -0.34854185581207275 -0.03758843243122101 0.006327805109322071 0 0 0 0
1901985072 0.0524948388338089 -0.34443193674087524 -0.03669533506035805 0.013874421827495098 0 0 0 0
1905707156 0.01908765733242035 -0.3344348073005676 -0.03411930054426193 0.020663850009441376 0 0 0 0
1909429240 -0.008743790909647942 -0.31990915536880493 -0.029845066368579865 0.02747667208313942 0 0 0 0
1913151324 -0.032514169812202454 -0.30082833766937256 -0.024492664262652397 0.033006809651851654 0 0 0 0
1916873408 -0.05273637920618057 -0.27776896953582764 -0.017666082829236984 0.037513814866542816 0 0 0 0
1920595492 -0.0670369565486908 -0.253215491771698 -0.01039363443851471 0.040309805423021317 0 0 0 0
1924317576 -0.07793644815683365 -0.22684819996356964 -0.002217663452029228 0.04194089397788048 0 0 0 0
1928039660 -0.0842759758234024 -0.19909638166427612 0.006002018228173256 0.041826263070106506 0 0 0 0
1931761744 -0.08632547408342361 -0.17145812511444092 0.014697985723614693 0.039309460669755936 0 0 0 0
1935483828 -0.08287698030471802 -0.14521554112434387 0.021799128502607346 0.035154975950717926 0 0 0 0
1939205912 -0.07699292153120041 -0.11767785996198654 0.02732778713107109 0.02958313375711441 0 0 0 0
1942927996 -0.06479405611753464 -0.0917036160826683 0.03117997571825981 0.023734623566269875 0 0 0 0
1946650080 -0.04802234098315239 -0.06812617927789688 0.034250408411026 0.017635999247431755 0 0 0 0
1950372164 -0.02631532773375511 -0.04835230112075806 0.03622344136238098 0.011884007602930069 0 0 0 0
1954094248 -0.0011921003460884094 -0.03371969982981682 0.03801664710044861 0.005565909668803215 0 0 0 0
1957816332 0.025760767981410027 -0.024434100836515427 0.03927769511938095 -0.001457979902625084 0 0 0 0
1961538416 0.05336559936404228 -0.02053956314921379 0.038292765617370605 -0.009380954317748547 0 0 0 0
1965260500 0.08060191571712494 -0.020850911736488342 0.035346973687410355 -0.01643611490726471 0 0 0 0
1968982584 0.10778868943452835 -0.028117958456277847 0.031399622559547424 -0.022662829607725143 0 0 0 0
1972704668 0.13169050216674805 -0.03909711539745331 0.026626477017998695 -0.027708332985639572 0 0 0 0
1976426752 0.15407639741897583 -0.05132000520825386 0.020738616585731506 -0.03203517943620682 0 0 0 0
1980148836 0.17319023609161377 -0.07135102152824402 0.013859021477401257 -0.03537860885262489 0 0 0 0
1983870920 0.1894122064113617 -0.09324143081903458 0.006949868984520435 -0.03716953843832016 0 0 0 0
1987593004 0.19998840987682343 -0.11692604422569275 -0.0003056563436985016 -0.03761968016624451 0 0 0 0
1991315088 0.20528638362884521 -0.1443442404270172 -0.007397707551717758 -0.03656424582004547 0 0 0 0
1995037172 0.206892192363739 -0.16944368183612823 -0.01434917189180851 -0.034295108169317245 0 0 0 0
1998759256 0.2042897641658783 -0.19588907063007355 -0.020246827974915504 -0.03028925508260727 0 0 0 0
2002481340 0.19617827236652374 -0.2195402979850769 -0.024543043226003647 -0.025811389088630676 0 0 0 0
2006203424 0.18434655666351318 -0.241130992770195 -0.028260696679353714 -0.020768148824572563 0 0 0 0
2009925508 0.1713489443063736 -0.2588769495487213 -0.031018884852528572 -0.015812894329428673 0 0 0 0
2013647592 0.15030907094478607 -0.27622801065444946 -0.03327604755759239 -0.01024495717138052 0 0 0 0
2017369676 0.12929895520210266 -0.29069995880126953 -0.03498329222202301 -0.004276270046830177 0 0 0 0
2021091760 0.10754398256540298 -0.302423357963562 -0.035287078469991684 0.0021560005843639374 0 0 0 0
2024813844 0.08168631792068481 -0.310290664434433 -0.034625474363565445 0.008953439071774483 0 0 0 0
2028535928 0.05438614636659622 -0.31264352798461914 -0.03193725645542145 0.015346750617027283 0 0 0 0
2032258012 0.02876460552215576 -0.3090668022632599 -0.027964765205979347 0.020968381315469742 0 0 0 0
2035980096 0.00046782195568084717 -0.3017132878303528 -0.02361374720931053 0.024626512080430984 0 0 0 0
2039702180 -0.024013616144657135 -0.2897978723049164 -0.018931254744529724 0.027609072625637054 0 0 0 0
2043424264 -0.04641013592481613 -0.2728477120399475 -0.013574743643403053 0.03031230717897415 0 0 0 0
2047146348 -0.0677458643913269 -0.25331392884254456 -0.008087389171123505 0.03147104009985924 0 0 0 0
2050868432 -0.0846804529428482 -0.23234277963638306 -0.003082484006881714 0.032058827579021454 0 0 0 0
2054590516 -0.09917163848876953 -0.20644325017929077 0.0018283622339367867 0.032079897820949554 0 0 0 0
2058312600 -0.110150545835495 -0.17645566165447235 0.0066543156281113625 0.031492847949266434 0 0 0 0
2062034684 -0.114168182015419 -0.14590871334075928 0.012263893149793148 0.029919510707259178 0 0 0 0
2065756768 -0.1143612489104271 -0.11357715725898743 0.017264772206544876 0.02702145092189312 0 0 0 0
2069478852 -0.1095050573348999 -0.08238255977630615 0.021219033747911453 0.023271573707461357 0 0 0 0
2073200936 -0.09971185773611069 -0.050590917468070984 0.024481114000082016 0.01868446171283722 0 0 0 0
2076923020 -0.08342422544956207 -0.01964326947927475 0.026382029056549072 0.014306703582406044 0 0 0 0
2080645104 -0.06178200989961624 0.00846654362976551 0.027508223429322243 0.01016160100698471 0 0 0 0
2084367188 -0.03503526374697685 0.03194698318839073 0.028019191697239876 0.006267812103033066 0 0 0 0
2088089272 -0.004261646419763565 0.05158001929521561 0.028893958777189255 0.0028425967320799828 0 0 0 0
2091811356 0.029208514839410782 0.06521112471818924 0.029898423701524734 -0.0009756553918123245 0 0 0 0
2095533440 0.06618006527423859 0.07204578816890717 0.030382271856069565 -0.006016254425048828 0 0 0 0
2099255524 0.10249175131320953 0.07282481342554092 0.030019648373126984 -0.011511453427374363 0 0 0 0
2102977608 0.13796526193618774 0.06862783432006836 0.028114113956689835 -0.017562076449394226 0 0 0 0
2106699692 0.17260226607322693 0.05644073337316513 0.0244533009827137 -0.023398809134960175 0 0 0 0
2110421776 0.20477575063705444 0.04031495004892349 0.019367044791579247 -0.028069041669368744 0 0 0 0
2114143860 0.23369649052619934 0.01686570979654789 0.013267186470329762 -0.0313703753054142 0 0 0 0
2117865944 0.25808554887771606 -0.007907718420028687 0.007511966861784458 -0.03310222178697586 0 0 0 0
2121588028 0.2765539884567261 -0.038452040404081345 0.0005537187680602074 -0.03448713198304176 0 0 0 0
2125310112 0.2903487980365753 -0.06673260778188705 -0.006269359029829502 -0.03401210159063339 0 0 0 0
2129032196 0.29915112257003784 -0.10092299431562424 -0.013349225744605064 -0.03139653429389 0 0 0 0
2132754280 0.30178794264793396 -0.13386863470077515 -0.01913282461464405 -0.02693132869899273 0 0 0 0
2136476364 0.30091720819473267 -0.16459624469280243 -0.0231663528829813 -0.021360741928219795 0 0 0 0
2140198448 0.29522067308425903 -0.19694197177886963 -0.025272633880376816 -0.015934579074382782 0 0 0 0
2143920532 0.2830740809440613 -0.2272876501083374 -0.026151005178689957 -0.01074715331196785 0 0 0 0
2147642616 0.2670519948005676 -0.25543859601020813 -0.026321323588490486 -0.00621108990162611 0 0 0 0
2151364700 0.24715200066566467 -0.27878037095069885 -0.025954635813832283 -0.002453237771987915 0 0 0 0
2155086784 0.22438764572143555 -0.30136919021606445 -0.025180591270327568 0.001543113961815834 0 0 0 0
2158808868 0.19632881879806519 -0.31789082288742065 -0.02418259158730507 0.0049316613003611565 0 0 0 0
2162530952 0.16888368129730225 -0.32973822951316833 -0.02264789305627346 0.008371458388864994 0 0 0 0
2166253036 0.1395881325006485 -0.3373761773109436 -0.020858149975538254 0.010932385921478271 0 0 0 0
2169975120 0.10848255455493927 -0.3403509259223938 -0.019248664379119873 0.013906537555158138 0 0 0 0
2173697204 0.08098294585943222 -0.33772730827331543 -0.0174542348831892 0.016868116334080696 0 0 0 0
2177419288 0.04974345117807388 -0.33208560943603516 -0.01443549059331417 0.019951166585087776 0 0 0 0
2181141372 0.023017965257167816 -0.3214346170425415 -0.010727443732321262 0.022359563037753105 0 0 0 0
2184863456 -0.0034354329109191895 -0.3064911365509033 -0.006602327339351177 0.023622851818799973 0 0 0 0
2188585540 -0.026005756109952927 -0.2876489758491516 -0.0024414928629994392 0.02426646649837494 0 0 0 0
2192307624 -0.045941613614559174 -0.2640922963619232 0.0013303039595484734 0.024625416845083237 0 0 0 0
2196029708 -0.06151052564382553 -0.23782776296138763 0.00609310157597065 0.024174893274903297 0 0 0 0
2199751792 -0.07247087359428406 -0.2111784964799881 0.01083305198699236 0.022639548406004906 0 0 0 0
2203473876 -0.07646659016609192 -0.18174168467521667 0.014858625829219818 0.019804108887910843 0 0 0 0
2207195960 -0.07998820394277573 -0.1516265720129013 0.01798972859978676 0.016362573951482773 0 0 0 0
2210918044 -0.07654213905334473 -0.12176182866096497 0.019980881363153458 0.012724827975034714 0 0 0 0
2214640128 -0.0661783516407013 -0.09526192396879196 0.021844135597348213 0.008401594124734402 0 0 0 0
2218362212 -0.05564458668231964 -0.06786530464887619 0.022487156093120575 0.00391915999352932 0 0 0 0
2222084296 -0.03857044875621796 -0.043967630714178085 0.021985391154885292 4.985742270946503e-05 0 0 0 0
2225806380 -0.01739003136754036 -0.023676782846450806 0.02095610462129116 -0.0033509833738207817 0 0 0 0
2229528464 0.006580641493201256 -0.007584594190120697 0.019872106611728668 -0.0068542007356882095 0 0 0 0
2233250548 0.03277411684393883 0.004284263588488102 0.018286045640707016 -0.010383031331002712 0 0 0 0
2236972632 0.060024674981832504 0.010663092136383057 0.01560857705771923 -0.013578344136476517 0 0 0 0
2240694716 0.08817706257104874 0.010944660753011703 0.012579265981912613 -0.01601255312561989 0 0 0 0
2244416800 0.11528235673904419 0.00843881070613861 0.009135136380791664 -0.0174801554530859 0 0 0 0
2248138884 0.14051851630210876 0.0013245344161987305 0.005282560363411903 -0.01848779432475567 0 0 0 0
2251860968 0.1621580272912979 -0.009237922728061676 0.0015977788716554642 -0.018274962902069092 0 0 0 0
2255583052 0.18371672928333282 -0.022447174414992332 -0.0017260489985346794 -0.0178640466183424 0 0 0 0
2259305136 0.20143626630306244 -0.04274991899728775 -0.004842876456677914 -0.016796831041574478 0 0 0 0
2263027220 0.21490992605686188 -0.06613748520612717 -0.007284811697900295 -0.015208525583148003 0 0 0 0
2266749304 0.2239285409450531 -0.08786641061306 -0.009469657205045223 -0.01326082181185484 0 0 0 0
2270471388 0.23359642922878265 -0.10629915446043015 -0.011078063398599625 -0.011166613548994064 0 0 0 0
2274193472 0.2357688546180725 -0.13155415654182434 -0.01255427859723568 -0.009160749614238739 0 0 0 0
2277915556 0.235835999250412 -0.15396256744861603 -0.013407852500677109 -0.006731897592544556 0 0 0 0
2281637640 0.22932279109954834 -0.18051448464393616 -0.01388780027627945 -0.004320420324802399 0 0 0 0
2285359724 0.21666519343852997 -0.20233961939811707 -0.013777665793895721 -0.0022331038489937782 0 0 0 0
2289081808 0.2016260325908661 -0.22168302536010742 -0.013614692725241184 -0.00031565409153699875 0 0 0 0
2292803892 0.1821954995393753 -0.2402588278055191 -0.013541544787585735 0.0014168396592140198 0 0 0 0
2296525976 0.1607505977153778 -0.2513226866722107 -0.012879250571131706 0.003416326828300953 0 0 0 0
2300248060 0.144889235496521 -0.25796979665756226 -0.01204696111381054 0.00500881765037775 0 0 0 0
2303970144 0.12572194635868073 -0.26637914776802063 -0.010896708816289902 0.006836879998445511 0 0 0 0
2307692228 0.09856864809989929 -0.2653549015522003 -0.009898563846945763 0.00806815829128027 0 0 0 0
2311414312 0.08040197193622589 -0.26087114214897156 -0.007994554936885834 0.009292643517255783 0 0 0 0
2315136396 0.050498224794864655 -0.25618624687194824 -0.005879041738808155 0.009816092438995838 0 0 0 0
2318858480 0.02903047949075699 -0.245829775929451 -0.004408827982842922 0.009738989174365997 0 0 0 0
2322580564 0.01256551593542099 -0.2304806411266327 -0.003163103014230728 0.009516354650259018 0 0 0 0
2326302648 -0.009251780807971954 -0.21172654628753662 -0.0021659620106220245 0.009297576732933521 0 0 0 0
2330024732 -0.017007499933242798 -0.19150540232658386 -0.0010223742574453354 0.008985423482954502 0 0 0 0
2333746816 -0.02765543758869171 -0.16897456347942352 -0.00017707422375679016 0.008859853260219097 0 0 0 0
2337468900 -0.032844267785549164 -0.1444879025220871 0.0006982581689953804 0.008620312437415123 0 0 0 0
2341190984 -0.03560694679617882 -0.11839595437049866 0.0019672662019729614 0.008007735013961792 0 0 0 0
2344913068 -0.030789023265242577 -0.09259273111820221 0.0026664240285754204 0.007028570398688316 0 0 0 0
2348635152 -0.0243561789393425 -0.06612210720777512 0.003300819545984268 0.006176759488880634 0 0 0 0
2352357236 -0.011355441063642502 -0.04201945662498474 0.0033513717353343964 0.005193239077925682 0 0 0 0
2356079320 0.006470660679042339 -0.019962938502430916 0.003322710283100605 0.004534064792096615 0 0 0 0
2359801404 0.02787109836935997 -0.0014304015785455704 0.003378218039870262 0.003959145396947861 0 0 0 0
2363523488 0.05235598236322403 0.012917913496494293 0.0036022700369358063 0.003459777683019638 0 0 0 0
2367245572 0.07995202392339706 0.023450251668691635 0.0033525628969073296 0.0029721222817897797 0 0 0 0
2370967656 0.10818561166524887 0.027517791837453842 0.0030130241066217422 0.00257700402289629 0 0 0 0
2374689740 0.13687489926815033 0.026298388838768005 0.0030255578458309174 0.002458963543176651 0 0 0 0
2378411824 0.16425079107284546 0.02009783312678337 0.002757357433438301 0.002091008238494396 0 0 0 0
2382133908 0.19050869345664978 0.010849006474018097 0.002751634456217289 0.0018144622445106506 0 0 0 0
2385855992 0.21455278992652893 -0.0027787871658802032 0.002548201009631157 0.0018915226683020592 0 0 0 0
2389578076 0.23587699234485626 -0.0203934907913208 0.002504955045878887 0.0021176980808377266 0 0 0 0
2393300160 0.2542829215526581 -0.04091402888298035 0.0023234160616993904 0.002258745953440666 0 0 0 0
2397022244 0.2679157853126526 -0.06531570851802826 0.002535143867135048 0.002878990024328232 0 0 0 0
2400744328 0.2798946797847748 -0.09196136891841888 0.00349984597414732 0.00340881384909153 0 0 0 0
2404466412 0.286435604095459 -0.11769638955593109 0.004966250620782375 0.003344561904668808 0 0 0 0
2408188496 0.28873738646507263 -0.14560727775096893 0.006218402646481991 0.002448752522468567 0 0 0 0
2411910580 0.2883574962615967 -0.17044977843761444 0.006966501474380493 0.0014015529304742813 0 0 0 0
2415632664 0.28147509694099426 -0.19956830143928528 0.00755454134196043 -8.592009544372559e-05 0 0 0 0
2419354748 0.26882249116897583 -0.22869521379470825 0.007784958928823471 -0.0015900656580924988 0 0 0 0
2423076832 0.2552418112754822 -0.2503332495689392 0.0077698733657598495 -0.0032233381643891335 0 0 0 0
2426798916 0.23784832656383514 -0.271523654460907 0.007066830061376095 -0.0052413661032915115 0 0 0 0
2430521000 0.21528717875480652 -0.29160088300704956 0.005622027441859245 -0.006317657418549061 0 0 0 0
2434243084 0.19419114291667938 -0.305154025554657 0.004079844802618027 -0.006982840597629547 0 0 0 0
2437965168 0.16728469729423523 -0.3176422417163849 0.002881411463022232 -0.00724191777408123 0 0 0 0
2441687252 0.14177581667900085 -0.32459351420402527 0.001818881370127201 -0.007359396666288376 0 0 0 0
2445409336 0.11462202668190002 -0.3290137052536011 0.0011514164507389069 -0.0073656924068927765 0 0 0 0
2449131420 0.08309991657733917 -0.327942430973053 0.0005926936864852905 -0.007651095278561115 0 0 0 0
2452853504 0.05664064735174179 -0.32165205478668213 -0.00016959011554718018 -0.008027142845094204 0 0 0 0
2456575588 0.02674395963549614 -0.3131970167160034 -0.0008562551811337471 -0.008638906292617321 0 0 0 0
2460297672 0.0030671656131744385 -0.29842501878738403 -0.0020146360620856285 -0.00939875841140747 0 0 0 0
2464019756 -0.018843643367290497 -0.282621830701828 -0.003790932707488537 -0.009791184216737747 0 0 0 0
2467741840 -0.041094161570072174 -0.26242130994796753 -0.005990906618535519 -0.00973692536354065 0 0 0 0
2471463924 -0.0594576820731163 -0.23997820913791656 -0.008001630194485188 -0.009208782576024532 0 0 0 0
2475186008 -0.07320176064968109 -0.21428170800209045 -0.00987937580794096 -0.008263702504336834 0 0 0 0
2478908092 -0.08211667835712433 -0.18634150922298431 -0.011678202077746391 -0.006803054362535477 0 0 0 0
2482630176 -0.08920680731534958 -0.1559717059135437 -0.013249753043055534 -0.0049130553379654884 0 0 0 0
2486352260 -0.08948642015457153 -0.12640134990215302 -0.014458675868809223 -0.002732846885919571 0 0 0 0
2490074344 -0.08689229190349579 -0.09581374377012253 -0.015303228981792927 -0.00020684674382209778 0 0 0 0
2493796428 -0.07777688652276993 -0.06625132262706757 -0.015568187460303307 0.002572501078248024 0 0 0 0
2497518512 -0.06494993716478348 -0.03888016566634178 -0.014949282631278038 0.005401541478931904 0 0 0 0
2501240596 -0.04771602898836136 -0.012448113411664963 -0.013989424332976341 0.008021560497581959 0 0 0 0
2504962680 -0.02583913505077362 0.010094870813190937 -0.01286307256668806 0.010331107303500175 0 0 0 0
2508684764 -0.0011384179815649986 0.02815786935389042 -0.011202337220311165 0.012825085781514645 0 0 0 0
2512406848 0.026417924091219902 0.04230561479926109 -0.009091301821172237 0.015446965582668781 0 0 0 0
2516128932 0.05532193183898926 0.05206494778394699 -0.005877598188817501 0.017090357840061188 0 0 0 0
2519851016 0.08514410257339478 0.05667965114116669 -0.0021874941885471344 0.018166905269026756 0 0 0 0
2523573100 0.11610573530197144 0.05513208359479904 0.0018175169825553894 0.017862845212221146 0 0 0 0
2527295184 0.14552906155586243 0.04959322139620781 0.004880315624177456 0.016953755170106888 0 0 0 0
2531017268 0.17349405586719513 0.0375857837498188 0.008133654482662678 0.01562729850411415 0 0 0 0
2534739352 0.19690081477165222 0.022946149110794067 0.010798376984894276 0.01360887661576271 0 0 0 0
2538461436 0.2177242785692215 0.006605394184589386 0.013375535607337952 0.010974714532494545 0 0 0 0
2542183520 0.23447158932685852 -0.015803806483745575 0.014916585758328438 0.007866383530199528 0 0 0 0
2545905604 0.2483171820640564 -0.03783825412392616 0.01600862853229046 0.004396376200020313 0 0 0 0
2549627688 0.258381724357605 -0.06189669668674469 0.016410283744335175 0.0009739706292748451 0 0 0 0
2553349772 0.2629900276660919 -0.08627811074256897 0.0158250629901886 -0.002774854190647602 0 0 0 0
2557071856 0.26235973834991455 -0.10821143537759781 0.014037386514246464 -0.006193690933287144 0 0 0 0
2560793940 0.26260146498680115 -0.1296864151954651 0.011426671408116817 -0.008388985879719257 0 0 0 0
2564516024 0.25669482350349426 -0.15249066054821014 0.008912863209843636 -0.009629018604755402 0 0 0 0
2568238108 0.2504885196685791 -0.17015224695205688 0.006469649262726307 -0.010157513432204723 0 0 0 0
2571960192 0.2398078441619873 -0.1891898214817047 0.004474923014640808 -0.010282687842845917 0 0 0 0
2575682276 0.2277977168560028 -0.20567616820335388 0.002460063435137272 -0.010021665133535862 0 0 0 0
2579404360 0.21569131314754486 -0.21882310509681702 0.0011076182126998901 -0.009647538885474205 0 0 0 0
2583126444 0.20162254571914673 -0.23076516389846802 1.6196630895137787e-05 -0.009242596104741096 0 0 0 0
2586848528 0.1846591830253601 -0.24065864086151123 -0.001138061285018921 -0.009143579751253128 0 0 0 0
2590570612 0.17102228105068207 -0.24611014127731323 -0.0023814206942915916 -0.008985956199467182 0 0 0 0
2594292696 0.15154114365577698 -0.2526949346065521 -0.0036520883440971375 -0.008403858169913292 0 0 0 0
2598014780 0.13331685960292816 -0.2553665041923523 -0.004756499081850052 -0.00777256116271019 0 0 0 0
2601736864 0.11712752282619476 -0.2540026307106018 -0.006163088604807854 -0.006696672178804874 0 0 0 0
2605458948 0.09912193566560745 -0.25145742297172546 -0.0070256562903523445 -0.005302174016833305 0 0 0 0
2609181032 0.08240985870361328 -0.24600982666015625 -0.007431753911077976 -0.0035478733479976654 0 0 0 0
2612903116 0.06819106638431549 -0.23805823922157288 -0.0071634454652667046 -0.002126455307006836 0 0 0 0
2616625200 0.057286396622657776 -0.22730258107185364 -0.00672866590321064 -0.001044752076268196 0 0 0 0
2620347284 0.046135593205690384 -0.21672546863555908 -0.006261496804654598 -0.00024123024195432663 0 0 0 0
2624069368 0.036059267818927765 -0.20433861017227173 -0.005518126301467419 0.000496765598654747 0 0 0 0
2627791452 0.03290051221847534 -0.18959259986877441 -0.004986354149878025 0.000499209389090538 0 0 0 0
2631513536 0.02852800488471985 -0.17535869777202606 -0.00503627210855484 0.0005536982789635658 0 0 0 0
2635235620 0.02496834471821785 -0.1621008813381195 -0.005041390657424927 0.0010858410969376564 0 0 0 0
2638957704 0.028281889855861664 -0.14964371919631958 -0.004592264071106911 0.0017004674300551414 0 0 0 0
2642679788 0.03210441395640373 -0.13635049760341644 -0.004236395470798016 0.002289709635078907 0 0 0 0
2646401872 0.03550385311245918 -0.12615948915481567 -0.0034663453698158264 0.002365448512136936 0 0 0 0
2650123956 0.04201841726899147 -0.11509542167186737 -0.0028457511216402054 0.00234903022646904 0 0 0 0
2653846040 0.05104314535856247 -0.10534962266683578 -0.0023591099306941032 0.002157764509320259 0 0 0 0
2657568124 0.061931222677230835 -0.09846387058496475 -0.0022428929805755615 0.0017423192039132118 0 0 0 0
2661290208 0.0749615877866745 -0.09516451507806778 -0.002623310312628746 0.001478421501815319 0 0 0 0
2665012292 0.08752131462097168 -0.0945834368467331 -0.0030144061893224716 0.0016339588910341263 0 0 0 0
2668734376 0.09677913039922714 -0.09844736009836197 -0.0034118471667170525 0.0022567054256796837 0 0 0 0
2672456460 0.10666623711585999 -0.10370928049087524 -0.0034013446420431137 0.0032260287553071976 0 0 0 0
2676178544 0.11364991217851639 -0.11088378727436066 -0.0029524769634008408 0.004266076721251011 0 0 0 0
2679900628 0.11802423745393753 -0.11808808147907257 -0.002071795053780079 0.005068422295153141 0 0 0 0
2683622712 0.12152701616287231 -0.126591295003891 -0.0006106318905949593 0.00571457389742136 0 0 0 0
2687344796 0.12305871397256851 -0.13352319598197937 0.0008417284116148949 0.00557483546435833 0 0 0 0
2691066880 0.1231279969215393 -0.14193302392959595 0.001970564015209675 0.004937487654387951 0 0 0 0
2694788964 0.1216462254524231 -0.14855170249938965 0.0027119237929582596 0.0042596496641635895 0 0 0 0
2698511048 0.11873815208673477 -0.15682685375213623 0.003296063281595707 0.003634827211499214 0 0 0 0
2702233132 0.11295488476753235 -0.16383379697799683 0.003911311738193035 0.002608290873467922 0 0 0 0
2705955216 0.10947148501873016 -0.16984280943870544 0.004388859495520592 0.0017554359510540962 0 0 0 0
2709677300 0.10081607848405838 -0.17677322030067444 0.00458213035017252 0.000607009045779705 0 0 0 0
2713399384 0.09190838038921356 -0.18193504214286804 0.004335206933319569 -0.0006891787052154541 0 0 0 0
2717121468 0.08374859392642975 -0.18398092687129974 0.003620399162173271 -0.0014477306976914406 0 0 0 0
2720843552 0.07075686752796173 -0.18600502610206604 0.0029817167669534683 -0.0019283322617411613 0 0 0 0
2724565636 0.05804593861103058 -0.1844508796930313 0.002281676046550274 -0.0021201279014348984 0 0 0 0
2728287720 0.04328558221459389 -0.1805710643529892 0.001657727174460888 -0.002159474417567253 0 0 0 0
2732009804 0.032343439757823944 -0.17331784963607788 0.0014730291441082954 -0.0020606163889169693 0 0 0 0
2735731888 0.023132074624300003 -0.16357262432575226 0.0014891233295202255 -0.001960432156920433 0 0 0 0
2739453972 0.015328668057918549 -0.1533452272415161 0.0012902077287435532 -0.0020633861422538757 0 0 0 0
2743176056 0.0076079219579696655 -0.13985788822174072 0.0010744975879788399 -0.00213633943349123 0 0 0 0
2746898140 0.002858765423297882 -0.12511596083641052 0.0011148396879434586 -0.0021151555702090263 0 0 0 0
2750620224 0.00183175690472126 -0.11040391772985458 0.001164236105978489 -0.002427450381219387 0 0 0 0
2754342308 0.0006163753569126129 -0.09503036737442017 0.0010979464277625084 -0.002853068523108959 0 0 0 0
2758064392 0.00386748556047678 -0.07924208790063858 0.0007527191191911697 -0.0034892577677965164 0 0 0 0
2761786476 0.008243776857852936 -0.06303970515727997 5.0815753638744354e-05 -0.003928204998373985 0 0 0 0
2765508560 0.016723107546567917 -0.04661460593342781 -0.0010440237820148468 -0.003969130106270313 0 0 0 0
2769230644 0.028300179168581963 -0.031938180327415466 -0.0019081365317106247 -0.003659798763692379 0 0 0 0
2772952728 0.042112044990062714 -0.01918877847492695 -0.0024592867121100426 -0.003103264607489109 0 0 0 0
2776674812 0.05939922854304314 -0.008111363276839256 -0.0026972806081175804 -0.0026208003982901573 0 0 0 0
2780396896 0.07845927029848099 -0.0018618572503328323 -0.0031610634177923203 -0.002101465128362179 0 0 0 0
2784118980 0.09774120897054672 0.0025438833981752396 -0.0034887827932834625 -0.0014519067481160164 0 0 0 0
2787841064 0.11804234981536865 0.00372975692152977 -0.0034525254741311073 -0.0006578024476766586 0 0 0 0
2791563148 0.1392405927181244 0.001475416123867035 -0.0032630516216158867 0.00012619979679584503 0 0 0 0
2795285232 0.16046129167079926 -0.0030764713883399963 -0.0027839327231049538 0.0008214665576815605 0 0 0 0
2799007316 0.18113838136196136 -0.010386573150753975 -0.0020645689219236374 0.0012787682935595512 0 0 0 0
2802729400 0.20038443803787231 -0.025330614298582077 -0.0013555288314819336 0.001188809983432293 0 0 0 0
2806451484 0.21629995107650757 -0.04112531989812851 -0.0010645026341080666 0.0008289497345685959 0 0 0 0
2810173568 0.23073740303516388 -0.05873607099056244 -0.0010353205725550652 0.0007404405623674393 0 0 0 0
2813895652 0.24377426505088806 -0.08050265908241272 -0.0008651139214634895 0.0007790010422468185 0 0 0 0
2817617736 0.25043052434921265 -0.10342495143413544 -0.0005727540701627731 0.0008797412738204002 0 0 0 0
2821339820 0.2527961730957031 -0.12800884246826172 -0.00023229699581861496 0.0007651988416910172 0 0 0 0
2825061904 0.2547595798969269 -0.14871934056282043 -0.0001437785103917122 0.00045125745236873627 0 0 0 0
2828783988 0.2517637610435486 -0.17294684052467346 -0.0002251928672194481 0.00033845286816358566 0 0 0 0
2832506072 0.24522516131401062 -0.19334284961223602 -0.00025359541177749634 0.00022166036069393158 0 0 0 0
2836228156 0.2347113937139511 -0.21605747938156128 -0.000324825756251812 0.00033807940781116486 0 0 0 0
2839950240 0.22270417213439941 -0.2385062873363495 -0.0002519730478525162 0.0004598386585712433 0 0 0 0
2843672324 0.21121948957443237 -0.2532515227794647 2.7921050786972046e-05 0.0005687475204467773 0 0 0 0
2847394408 0.1915753036737442 -0.2714178264141083 0.00025922153145074844 0.0004874132573604584 0 0 0 0
2851116492 0.17466787993907928 -0.28685200214385986 0.00040569063276052475 0.00036020204424858093 0 0 0 0
2854838576 0.15436483919620514 -0.2972222566604614 0.0005520349368453026 0.00018230732530355453 0 0 0 0
2858560660 0.1364927589893341 -0.30901047587394714 0.0005828039720654488 -0.00032753776758909225 0 0 0 0
2862282744 0.10907028615474701 -0.3149442970752716 0.0005994783714413643 -0.000386812724173069 0 0 0 0
2866004828 0.08751878887414932 -0.3174077570438385 0.0006977478042244911 -0.00035937782377004623 0 0 0 0
2869726912 0.06314699351787567 -0.31883704662323 0.0008227834478020668 -0.0006560245528817177 0 0 0 0
2873448996 0.038898568600416183 -0.31621360778808594 0.0007683560252189636 -0.0009876545518636703 0 0 0 0
2877171080 0.014682792127132416 -0.31062623858451843 0.0006193127483129501 -0.0012820754200220108 0 0 0 0
2880893164 -0.008885674178600311 -0.3021667003631592 0.0002660676836967468 -0.0012950478121638298 0 0 0 0
2884615248 -0.03155874088406563 -0.290017694234848 -0.0002435687929391861 -0.001249498687684536 0 0 0 0
2888337332 -0.05142519623041153 -0.2761625647544861 -0.0004336889833211899 -0.0009720921516418457 0 0 0 0
2892059416 -0.07194012403488159 -0.25807639956474304 -0.0004517361521720886 -0.0006769634783267975 0 0 0 0
2895781500 -0.08595787733793259 -0.23970676958560944 -0.0005246968939900398 -0.0004254290834069252 0 0 0 0
2899503584 -0.10133308917284012 -0.2160300761461258 -0.00043751485645771027 -8.830521255731583e-05 0 0 0 0
2903225668 -0.11708956211805344 -0.1896042376756668 -9.157322347164154e-05 0.00018971413373947144 0 0 0 0
2906947752 -0.12282033264636993 -0.16449704766273499 0.0002763783559203148 0.0002941479906439781 0 0 0 0
2910669836 -0.12643484771251678 -0.13715648651123047 0.0006099101155996323 0.00016552023589611053 0 0 0 0
2914391920 -0.1266925036907196 -0.1103292852640152 0.0009039891883730888 -0.00016026664525270462 0 0 0 0
2918114004 -0.12262751907110214 -0.08372581750154495 0.0009920690208673477 -0.0005720844492316246 0 0 0 0
2921836088 -0.1158781498670578 -0.05906379967927933 0.0007733171805739403 -0.0007933760061860085 0 0 0 0
2925558172 -0.10661038756370544 -0.032716281712055206 0.0006084991618990898 -0.0010296497493982315 0 0 0 0
2929280256 -0.093614861369133 -0.009417884983122349 0.0004100492224097252 -0.0010375436395406723 0 0 0 0
2933002340 -0.07735659182071686 0.012979632243514061 7.863622158765793e-05 -0.0010023387148976326 0 0 0 0
2936724424 -0.05803394690155983 0.03213511407375336 -0.00014374777674674988 -0.0008766278624534607 0 0 0 0
2940446508 -0.03714980185031891 0.04868978261947632 -0.0005099549889564514 -0.0006928332149982452 0 0 0 0
2944168592 -0.014137614518404007 0.06289109587669373 -0.0005386034026741982 -0.00027589593082666397 0 0 0 0
2947890676 0.01032344251871109 0.07497583329677582 -0.0005162255838513374 0.00025099702179431915 0 0 0 0
2951612760 0.03843708336353302 0.08235300332307816 -0.0002386840060353279 0.000680423341691494 0 0 0 0
2955334844 0.06619708240032196 0.08617055416107178 0.00039540883153676987 0.001087833195924759 0 0 0 0
2959056928 0.09479590505361557 0.08598017692565918 0.0008123498409986496 0.0012516472488641739 0 0 0 0
2962779012 0.12171007692813873 0.08197995275259018 0.0013891588896512985 0.001210806891322136 0 0 0 0
2966501096 0.14964120090007782 0.07181011885404587 0.0019350452348589897 0.0009353403002023697 0 0 0 0
2970223180 0.17271879315376282 0.060747288167476654 0.002434653230011463 0.0002519311383366585 0 0 0 0
2973945264 0.1953614205121994 0.045698486268520355 0.00268653966486454 -0.0004206206649541855 0 0 0 0
2977667348 0.21505148708820343 0.02745787426829338 0.002675873227417469 -0.0010583316907286644 0 0 0 0
2981389432 0.2334224134683609 0.010349251329898834 0.0022800201550126076 -0.001615874469280243 0 0 0 0
2985111516 0.24744606018066406 -0.013641126453876495 0.0020146891474723816 -0.0018873363733291626 0 0 0 0
2988833600 0.25733572244644165 -0.038016922771930695 0.0015732059255242348 -0.0021698419004678726 0 0 0 0
2992555684 0.26612284779548645 -0.06191562861204147 0.0010724104940891266 -0.0023087114095687866 0 0 0 0
2996277768 0.2698212265968323 -0.08589556813240051 0.0006013847887516022 -0.0022837799042463303 0 0 0 0
2999999852 0.27084657549858093 -0.11142557859420776 0.00034629832953214645 -0.0023343870416283607 0 0 0 0
