# HZ S RI R 50
1500000000 -0.13346819579601288 -0.0014599189162254333 0.054303623735904694 -0.03281978517770767 0 0 0 0
1503722084 -0.11030875146389008 0.030535250902175903 0.0455969013273716 -0.0406385101377964 0 0 0 0
1507444168 -0.08019153773784637 0.05818721652030945 0.03590890020132065 -0.045411575585603714 0 0 0 0
1511166252 -0.04319049417972565 0.07988740503787994 0.026108408346772194 -0.047907754778862 0 0 0 0
1514888336 -0.0036659017205238342 0.09547801315784454 0.0177302248775959 -0.048246875405311584 0 0 0 0
1518610420 0.03939880430698395 0.104368656873703 0.010773171670734882 -0.04791576787829399 0 0 0 0
1522332504 0.08575095236301422 0.10637069493532181 0.003776898607611656 -0.04768792539834976 0 0 0 0
1526054588 0.13293954730033875 0.10093441605567932 -0.003411410376429558 -0.04693116992712021 0 0 0 0
1529776672 0.17971347272396088 0.08662565797567368 -0.010368958115577698 -0.04475755989551544 0 0 0 0
1533498756 0.2252778708934784 0.0630413219332695 -0.01719958707690239 -0.040757760405540466 0 0 0 0
1537220840 0.2667379379272461 0.031524546444416046 -0.022315237671136856 -0.035704001784324646 0 0 0 0
1540942924 0.3017238974571228 -0.006603240966796875 -0.02575831115245819 -0.03055310994386673 0 0 0 0
1544665008 0.3304186463356018 -0.051413632929325104 -0.02839593216776848 -0.025811323896050453 0 0 0 0
1548387092 0.35058557987213135 -0.0986943244934082 -0.0306758563965559 -0.020810442045331 0 0 0 0
1552109176 0.36517584323883057 -0.14827877283096313 -0.03210419416427612 -0.015343929640948772 0 0 0 0
1555831260 0.37066930532455444 -0.20475907623767853 -0.032304901629686356 -0.009787654504179955 0 0 0 0
1559553344 0.3734593391418457 -0.2549557089805603 -0.03141854330897331 -0.005198265425860882 0 0 0 0
1563275428 0.3608763813972473 -0.3124048709869385 -0.03009817749261856 -0.0012325262650847435 0 0 0 0
1566997512 0.34233319759368896 -0.3676930367946625 -0.02865336649119854 0.002190766856074333 0 0 0 0
1570719596 0.31152063608169556 -0.4183777868747711 -0.02715824358165264 0.004873746074736118 0 0 0 0
1574441680 0.27579817175865173 -0.4636833369731903 -0.025918669998645782 0.0075179580599069595 0 0 0 0
1578163764 0.2348313182592392 -0.5014448761940002 -0.024538196623325348 0.010012480430305004 0 0 0 0
1581885848 0.18286597728729248 -0.5361940860748291 -0.02286870777606964 0.012734169140458107 0 0 0 0
1585607932 0.13060316443443298 -0.5589223504066467 -0.02102542482316494 0.015081394463777542 0 0 0 0
1589330016 0.07387867569923401 -0.572841227054596 -0.019044917076826096 0.01726934313774109 0 0 0 0
1593052100 0.013490892946720123 -0.5807262659072876 -0.016791123896837234 0.01950126327574253 0 0 0 0
1596774184 -0.04017280042171478 -0.5817517638206482 -0.014394737780094147 0.02183924801647663 0 0 0 0
1600496268 -0.09846121817827225 -0.5722475647926331 -0.010913572274148464 0.023817509412765503 0 0 0 0
1604218352 -0.1531783938407898 -0.5564411878585815 -0.007313381880521774 0.024927441030740738 0 0 0 0
1607940436 -0.2048618048429489 -0.5324000716209412 -0.0038544610142707825 0.025215227156877518 0 0 0 0
1611662520 -0.2558630406856537 -0.5031524300575256 -0.0008581448346376419 0.02547645941376686 0 0 0 0
1615384604 -0.3038804829120636 -0.4658094644546509 0.0022469600662589073 0.02618992328643799 0 0 0 0
1619106688 -0.34565114974975586 -0.42101413011550903 0.006444585509598255 0.026697495952248573 0 0 0 0
1622828772 -0.38225632905960083 -0.3705468773841858 0.011606800369918346 0.026184741407632828 0 0 0 0
1626550856 -0.4108803868293762 -0.3145444393157959 0.01669495925307274 0.023870006203651428 0 0 0 0
1630272940 -0.4314464330673218 -0.25419875979423523 0.021130459383130074 0.020110346376895905 0 0 0 0
1633995024 -0.4460742175579071 -0.1902843415737152 0.02457442507147789 0.0155175207182765 0 0 0 0
1637717108 -0.45086413621902466 -0.12167005985975266 0.026531081646680832 0.010342098772525787 0 0 0 0
1641439192 -0.44554761052131653 -0.057888567447662354 0.027341635897755623 0.005492647178471088 0 0 0 0
1645161276 -0.4298582673072815 0.013217180967330933 0.027580831199884415 0.0005664043128490448 0 0 0 0
1648883360 -0.40326714515686035 0.07923553138971329 0.026954203844070435 -0.004623883403837681 0 0 0 0
1652605444 -0.3651520311832428 0.14127671718597412 0.02526235021650791 -0.009457992389798164 0 0 0 0
1656327528 -0.31839996576309204 0.19776973128318787 0.02227410115301609 -0.014051313512027264 0 0 0 0
1660049612 -0.2642362117767334 0.2473667562007904 0.01828736811876297 -0.017672818154096603 0 0 0 0
1663771696 -0.20342369377613068 0.28744810819625854 0.014095587655901909 -0.01997222751379013 0 0 0 0
1667493780 -0.1341572403907776 0.3216242790222168 0.009537458419799805 -0.02136043831706047 0 0 0 0
1671215864 -0.060671884566545486 0.3449489176273346 0.004904827103018761 -0.021673312410712242 0 0 0 0
1674937948 0.018197406083345413 0.35611671209335327 0.0006258208304643631 -0.020772846415638924 0 0 0 0
1678660032 0.0969657152891159 0.35573601722717285 -0.0027178945019841194 -0.01912064477801323 0 0 0 0
1682382116 0.17832942306995392 0.3408365547657013 -0.006061410531401634 -0.017274610698223114 0 0 0 0
1686104200 0.256246417760849 0.31352126598358154 -0.008729967288672924 -0.014559818431735039 0 0 0 0
1689826284 0.327494740486145 0.2750232517719269 -0.010388363152742386 -0.011008188128471375 0 0 0 0
1693548368 0.3941258192062378 0.22125431895256042 -0.010779257863759995 -0.007593382149934769 0 0 0 0
1697270452 0.4503270983695984 0.16251367330551147 -0.009933904744684696 -0.0047084130346775055 0 0 0 0
1700992536 0.4952996075153351 0.0922931358218193 -0.008555540814995766 -0.002733907662332058 0 0 0 0
1704714620 0.5291107296943665 0.016619756817817688 -0.006954364478588104 -0.001582079567015171 0 0 0 0
1708436704 0.5497294068336487 -0.06025101989507675 -0.005287984386086464 -0.0010371999815106392 0 0 0 0
1712158788 0.5572303533554077 -0.14230288565158844 -0.004028956405818462 -0.0012594955042004585 0 0 0 0
1715880872 0.5504239201545715 -0.2242298722267151 -0.003314923495054245 -0.0020587360486388206 0 0 0 0
1719602956 0.5308873057365417 -0.30083560943603516 -0.0032055070623755455 -0.0029116664081811905 0 0 0 0
1723325040 0.5011513829231262 -0.37482649087905884 -0.003960875794291496 -0.003278934396803379 0 0 0 0
1727047124 0.46258485317230225 -0.4386230409145355 -0.004424219951033592 -0.0032397257164120674 0 0 0 0
1730769208 0.41259464621543884 -0.4968410134315491 -0.004858585074543953 -0.0029970742762088776 0 0 0 0
1734491292 0.35281240940093994 -0.5467369556427002 -0.005180535838007927 -0.0029529407620429993 0 0 0 0
1738213376 0.28790104389190674 -0.5877671241760254 -0.005587289109826088 -0.002951965667307377 0 0 0 0
1741935460 0.22393442690372467 -0.6132541298866272 -0.006332629360258579 -0.0031050974503159523 0 0 0 0
1745657544 0.156494140625 -0.6309503316879272 -0.007548023015260696 -0.002969088964164257 0 0 0 0
1749379628 0.08461128175258636 -0.6357653141021729 -0.00886506401002407 -0.0021376851946115494 0 0 0 0
1753101712 0.01912708580493927 -0.6306347846984863 -0.009743780829012394 -0.0009786905720829964 0 0 0 0
1756823796 -0.05246758460998535 -0.6155451536178589 -0.010536485351622105 0.00031969137489795685 0 0 0 0
1760545880 -0.11263515055179596 -0.5904080867767334 -0.010992681607604027 0.0018082931637763977 0 0 0 0
1764267964 -0.1697068065404892 -0.5579608678817749 -0.011181176640093327 0.0032983915880322456 0 0 0 0
1767990048 -0.21646422147750854 -0.5205035209655762 -0.011609767563641071 0.004821653477847576 0 0 0 0
1771712132 -0.26122555136680603 -0.4728012979030609 -0.011786745861172676 0.006434917449951172 0 0 0 0
1775434216 -0.29518815875053406 -0.42206984758377075 -0.01211259514093399 0.008540438488125801 0 0 0 0
1779156300 -0.3218610882759094 -0.36647188663482666 -0.011857600882649422 0.011368505656719208 0 0 0 0
1782878384 -0.33690086007118225 -0.31347182393074036 -0.01078646257519722 0.014121894724667072 0 0 0 0
1786600468 -0.3486228883266449 -0.25382599234580994 -0.00896909087896347 0.016862371936440468 0 0 0 0
1790322552 -0.35189756751060486 -0.19675707817077637 -0.006835772655904293 0.01951427385210991 0 0 0 0
1794044636 -0.34598538279533386 -0.14250023663043976 -0.003965793177485466 0.021946271881461143 0 0 0 0
1797766720 -0.3325835168361664 -0.08976387977600098 -0.0005416246131062508 0.024242863059043884 0 0 0 0
1801488804 -0.3140204846858978 -0.036000050604343414 0.004186115227639675 0.02642587386071682 0 0 0 0
1805210888 -0.287256121635437 0.012986734509468079 0.010055363178253174 0.02721036970615387 0 0 0 0
1808932972 -0.25279080867767334 0.05862177908420563 0.016438573598861694 0.026467492803931236 0 0 0 0
1812655056 -0.21013528108596802 0.09977570921182632 0.022792568430304527 0.024045085534453392 0 0 0 0
1816377140 -0.1599210947751999 0.13085731863975525 0.028863318264484406 0.01992674171924591 0 0 0 0
1820099224 -0.10674277693033218 0.15279588103294373 0.034403808414936066 0.014398980885744095 0 0 0 0
1823821308 -0.05152057111263275 0.1643538475036621 0.038371741771698 0.006708329543471336 0 0 0 0
1827543392 0.002539169043302536 0.16668365895748138 0.04022062569856644 -0.0019264649599790573 0 0 0 0
1831265476 0.05496284365653992 0.15957127511501312 0.03990624472498894 -0.01068159006536007 0 0 0 0
1834987560 0.10398207604885101 0.1454085409641266 0.03711051866412163 -0.01961425319314003 0 0 0 0
1838709644 0.14946594834327698 0.12353581935167313 0.03185603767633438 -0.027371183037757874 0 0 0 0
1842431728 0.18907912075519562 0.09733133018016815 0.02577146142721176 -0.03260093927383423 0 0 0 0
1846153812 0.22272264957427979 0.06554356962442398 0.019814658910036087 -0.03651690110564232 0 0 0 0
1849875896 0.25053006410598755 0.028002634644508362 0.01265636645257473 -0.04011314734816551 0 0 0 0
1853597980 0.2719874978065491 -0.009534064680337906 0.004794704727828503 -0.04176706820726395 0 0 0 0
1857320064 0.28564971685409546 -0.04909175634384155 -0.0033768881112337112 -0.04184768721461296 0 0 0 0
1861042148 0.2932707369327545 -0.09015542268753052 -0.010950560681521893 -0.04051704332232475 0 0 0 0
1864764232 0.2953360080718994 -0.12855151295661926 -0.018089691177010536 -0.03810184448957443 0 0 0 0
1868486316 0.2896340787410736 -0.16686153411865234 -0.024951692670583725 -0.03420788422226906 0 0 0 0
1872208400 0.28142568469047546 -0.20351123809814453 -0.03059203177690506 -0.02930475026369095 0 0 0 0
1875930484 0.2663235664367676 -0.2372618466615677 -0.034892477095127106 -0.02358567714691162 0 0 0 0
1879652568 0.24495473504066467 -0.27181053161621094 -0.03858295455574989 -0.017716988921165466 0 0 0 0
1883374652 0.22021833062171936 -0.2992897629737854 -0.042100705206394196 -0.011348210275173187 0 0 0 0
1887096736 0.18773087859153748 -0.32226866483688354 -0.04457543417811394 -0.0036782734096050262 0 0 0 0
1890818820 0.1537684202194214 -0.33680248260498047 -0.045052021741867065 0.004741509445011616 0 0 0 0
1894540904 0.12020082771778107 -0.3450220823287964 -0.044244322925806046 0.013241289183497429 0 0 0 0
1898262988 0.08553548902273178 -0.3473379611968994 -0.041520968079566956 0.021764788776636124 0 0 0 0
1901985072 0.05362668260931969 -0.3418397009372711 -0.036502327769994736 0.029612259939312935 0 0 0 0
1905707156 0.020979106426239014 -0.3308694362640381 -0.029648691415786743 0.035700906068086624 0 0 0 0
1909429240 -0.004210934042930603 -0.3178572952747345 -0.023502856492996216 0.039689984172582626 0 0 0 0
1913151324 -0.02868688851594925 -0.3001341223716736 -0.016394048929214478 0.04384489730000496 0 0 0 0
1916873408 -0.049612756818532944 -0.27849289774894714 -0.008783948607742786 0.04711276292800903 0 0 0 0
1920595492 -0.06457521766424179 -0.25443756580352783 0.0010348856449127197 0.04905678704380989 0 0 0 0
1924317576 -0.07520937919616699 -0.22833676636219025 0.011323124170303345 0.04834233969449997 0 0 0 0
1928039660 -0.08115985244512558 -0.2025059163570404 0.020874902606010437 0.04502606391906738 0 0 0 0
1931761744 -0.08323793113231659 -0.1766611933708191 0.030181266367435455 0.0390620194375515 0 0 0 0
1935483828 -0.0820450559258461 -0.1500951051712036 0.03621174022555351 0.031869906932115555 0 0 0 0
1939205912 -0.07780814170837402 -0.12269872426986694 0.040630850940942764 0.024266747757792473 0 0 0 0
1942927996 -0.06797444820404053 -0.0966031476855278 0.04425129294395447 0.016577523201704025 0 0 0 0
1946650080 -0.053125038743019104 -0.07166311889886856 0.046959634870290756 0.008282173424959183 0 0 0 0
1950372164 -0.03294086828827858 -0.04908391088247299 0.04773543402552605 -0.0017344467341899872 0 0 0 0
1954094248 -0.007193910889327526 -0.03161916881799698 0.046119026839733124 -0.011827885173261166 0 0 0 0
1957816332 0.021286509931087494 -0.02046850509941578 0.04221336171030998 -0.021162420511245728 0 0 0 0
1961538416 0.05059519410133362 -0.015257669612765312 0.03524266183376312 -0.029111113399267197 0 0 0 0
1965260500 0.0805143490433693 -0.016123179346323013 0.028059300035238266 -0.03417791798710823 0 0 0 0
1968982584 0.10922825336456299 -0.022900767624378204 0.02063375525176525 -0.03736051172018051 0 0 0 0
1972704668 0.13605724275112152 -0.0346367284655571 0.01362835057079792 -0.03969031572341919 0 0 0 0
1976426752 0.16018104553222656 -0.05089239403605461 0.006313879042863846 -0.04111013561487198 0 0 0 0
1980148836 0.17835436761379242 -0.07360094040632248 -0.0015156343579292297 -0.041876062750816345 0 0 0 0
1983870920 0.1926010400056839 -0.09775355458259583 -0.010110619477927685 -0.04103408753871918 0 0 0 0
1987593004 0.20184774696826935 -0.12197105586528778 -0.018366286531090736 -0.03766331821680069 0 0 0 0
1991315088 0.20464929938316345 -0.14797845482826233 -0.02529982663691044 -0.032094985246658325 0 0 0 0
1995037172 0.20482361316680908 -0.17229749262332916 -0.03046571835875511 -0.025119826197624207 0 0 0 0
1998759256 0.2022145390510559 -0.19636353850364685 -0.033594291657209396 -0.018604516983032227 0 0 0 0
2002481340 0.19288693368434906 -0.22194577753543854 -0.0351874902844429 -0.010949144139885902 0 0 0 0
2006203424 0.18251830339431763 -0.24263350665569305 -0.03609168529510498 -0.0047792354598641396 0 0 0 0
2009925508 0.164577454328537 -0.26271942257881165 -0.0354754664003849 0.0021422356367111206 0 0 0 0
2013647592 0.146620973944664 -0.2779290974140167 -0.033281825482845306 0.00874971505254507 0 0 0 0
2017369676 0.127248153090477 -0.29050013422966003 -0.030396070331335068 0.013934324495494366 0 0 0 0
2021091760 0.10305176675319672 -0.30174440145492554 -0.026144856587052345 0.018564429134130478 0 0 0 0
2024813844 0.07896409183740616 -0.3081027865409851 -0.02171456441283226 0.0219586081802845 0 0 0 0
2028535928 0.05043809488415718 -0.3101825416088104 -0.017636055126786232 0.024185357615351677 0 0 0 0
2032258012 0.025141187012195587 -0.3062171936035156 -0.013612011447548866 0.025906873866915703 0 0 0 0
2035980096 -0.0017566680908203125 -0.2987384498119354 -0.00970628671348095 0.027622127905488014 0 0 0 0
2039702180 -0.026638053357601166 -0.2862332761287689 -0.004654151387512684 0.029035359621047974 0 0 0 0
2043424264 -0.04909648001194 -0.2696932554244995 0.0005957940593361855 0.029333798214793205 0 0 0 0
2047146348 -0.0698360875248909 -0.24817776679992676 0.0059544797986745834 0.027492418885231018 0 0 0 0
2050868432 -0.0859009325504303 -0.2226949781179428 0.010561113245785236 0.02519935742020607 0 0 0 0
2054590516 -0.09682951867580414 -0.1966635286808014 0.013529330492019653 0.022486060857772827 0 0 0 0
2058312600 -0.10329309105873108 -0.1672390103340149 0.01660151034593582 0.019469840452075005 0 0 0 0
2062034684 -0.10445284098386765 -0.13924072682857513 0.01947818323969841 0.016315914690494537 0 0 0 0
2065756768 -0.10215779393911362 -0.11104719340801239 0.021636730059981346 0.012074079364538193 0 0 0 0
2069478852 -0.0971563309431076 -0.08252587169408798 0.02237541414797306 0.00770922563970089 0 0 0 0
2073200936 -0.08718879520893097 -0.05422058701515198 0.021894074976444244 0.0036079958081245422 0 0 0 0
2076923020 -0.07328047603368759 -0.0272279791533947 0.02075776644051075 0.0009005805477499962 0 0 0 0
2080645104 -0.055024653673172 -0.002855101600289345 0.02031729370355606 -0.0014342432841658592 0 0 0 0
2084367188 -0.03151557967066765 0.02009679563343525 0.019688066095113754 -0.003961753100156784 0 0 0 0
2088089272 -0.004737747833132744 0.03874688595533371 0.019350899383425713 -0.00678851455450058 0 0 0 0
2091811356 0.02526203729212284 0.052812837064266205 0.01835610158741474 -0.01041698269546032 0 0 0 0
2095533440 0.057695236057043076 0.06266949325799942 0.01606707274913788 -0.013759218156337738 0 0 0 0
2099255524 0.09242015331983566 0.06631793081760406 0.012785323895514011 -0.016589270904660225 0 0 0 0
2102977608 0.1275702267885208 0.06476905196905136 0.009103206917643547 -0.018202122300863266 0 0 0 0
2106699692 0.16192445158958435 0.056944411247968674 0.0052334824576973915 -0.0189029723405838 0 0 0 0
2110421776 0.19391444325447083 0.04303935170173645 0.0016135284677147865 -0.018533434718847275 0 0 0 0
2114143860 0.2245611995458603 0.02370394766330719 -0.001635851338505745 -0.017528941854834557 0 0 0 0
2117865944 0.2510416507720947 -0.000527210533618927 -0.004448209889233112 -0.01651090383529663 0 0 0 0
2121588028 0.27298566699028015 -0.02895810455083847 -0.006634602323174477 -0.014808062463998795 0 0 0 0
2125310112 0.28886398673057556 -0.06037869304418564 -0.008337398990988731 -0.012938734143972397 0 0 0 0
2129032196 0.2980373799800873 -0.09560813754796982 -0.009874346666038036 -0.01146768033504486 0 0 0 0
2132754280 0.30213889479637146 -0.12830883264541626 -0.011323192156851292 -0.009503779001533985 0 0 0 0
2136476364 0.30145907402038574 -0.16085007786750793 -0.012517699971795082 -0.007305072620511055 0 0 0 0
2140198448 0.2946496605873108 -0.19269290566444397 -0.013296755030751228 -0.00491759367287159 0 0 0 0
2143920532 0.28299641609191895 -0.22253389656543732 -0.013523802161216736 -0.002482198178768158 0 0 0 0
2147642616 0.26953989267349243 -0.24917912483215332 -0.01335167046636343 -0.00045991409569978714 0 0 0 0
2151364700 0.24838106334209442 -0.2769075334072113 -0.01279207319021225 0.0020825620740652084 0 0 0 0
2155086784 0.2287902534008026 -0.2948795557022095 -0.011703236028552055 0.004216992296278477 0 0 0 0
2158808868 0.20085957646369934 -0.3143814206123352 -0.010014007799327374 0.00607938040047884 0 0 0 0
2162530952 0.1754945069551468 -0.32597431540489197 -0.008138884790241718 0.007021493278443813 0 0 0 0
2166253036 0.14764288067817688 -0.3346037268638611 -0.006170275621116161 0.0073366183787584305 0 0 0 0
2169975120 0.11576545238494873 -0.3402295410633087 -0.004644392058253288 0.007413177751004696 0 0 0 0
2173697204 0.08870777487754822 -0.338683158159256 -0.0033744927495718002 0.006966819986701012 0 0 0 0
2177419288 0.05636296421289444 -0.33410024642944336 -0.002527373842895031 0.006397552788257599 0 0 0 0
2181141372 0.029278330504894257 -0.3239389657974243 -0.002061181701719761 0.005846838466823101 0 0 0 0
2184863456 0.0014705359935760498 -0.3096245527267456 -0.0017014574259519577 0.005817290395498276 0 0 0 0
2188585540 -0.018988702446222305 -0.291088342666626 -0.0012045064941048622 0.005691982805728912 0 0 0 0
2192307624 -0.038428958505392075 -0.2696298658847809 -0.0007864758372306824 0.005086516961455345 0 0 0 0
2196029708 -0.05502739176154137 -0.24580810964107513 -0.0010104924440383911 0.004369443282485008 0 0 0 0
2199751792 -0.0661974549293518 -0.22143873572349548 -0.001661764457821846 0.0043077170848846436 0 0 0 0
2203473876 -0.07802736759185791 -0.19286033511161804 -0.0023283306509256363 0.004889911040663719 0 0 0 0
2207195960 -0.08067626506090164 -0.16497041285037994 -0.002793526276946068 0.0062065646052360535 0 0 0 0
2210918044 -0.08188286423683167 -0.13500453531742096 -0.002222096547484398 0.00816340185701847 0 0 0 0
2214640128 -0.07479047775268555 -0.10683423280715942 -0.0006513567641377449 0.009782257489860058 0 0 0 0
2218362212 -0.06753625720739365 -0.07613174617290497 0.0018044635653495789 0.010537493042647839 0 0 0 0
2222084296 -0.05111481249332428 -0.049712009727954865 0.004271216690540314 0.010403779335319996 0 0 0 0
2225806380 -0.02999105304479599 -0.02670053392648697 0.00657131802290678 0.009361767210066319 0 0 0 0
2229528464 -0.0065892646089196205 -0.007450011558830738 0.00840727798640728 0.007991462014615536 0 0 0 0
2233250548 0.020308848470449448 0.0063643064349889755 0.009450763463973999 0.006049477495253086 0 0 0 0
2236972632 0.04842957854270935 0.015004875138401985 0.010173173621296883 0.004057726822793484 0 0 0 0
2240694716 0.07699262350797653 0.019412096589803696 0.01029989868402481 0.002424590289592743 0 0 0 0
2244416800 0.10602867603302002 0.01958223059773445 0.01035638339817524 0.0009463420137763023 0 0 0 0
2248138884 0.13443878293037415 0.013127528131008148 0.010329454205930233 -9.949877858161926e-05 0 0 0 0
2251860968 0.16079659759998322 0.002355128526687622 0.010414333082735538 -0.0015511643141508102 0 0 0 0
2255583052 0.18537680804729462 -0.013144992291927338 0.010722003877162933 -0.0028755683451890945 0 0 0 0
2259305136 0.20639260113239288 -0.03160422295331955 0.011069603264331818 -0.004510148428380489 0 0 0 0
2263027220 0.22309638559818268 -0.05372247099876404 0.011114584282040596 -0.007145589217543602 0 0 0 0
2266749304 0.23466715216636658 -0.08011476695537567 0.010265791788697243 -0.009839706122875214 0 0 0 0
2270471388 0.2424493134021759 -0.10464747995138168 0.008516769856214523 -0.012451199814677238 0 0 0 0
2274193472 0.24580013751983643 -0.13006971776485443 0.005541447550058365 -0.01415859442204237 0 0 0 0
2277915556 0.24137330055236816 -0.15745432674884796 0.0026273811236023903 -0.015196051448583603 0 0 0 0
2281637640 0.23468266427516937 -0.1827169805765152 -4.9724243581295013e-05 -0.015317710116505623 0 0 0 0
2285359724 0.22763016819953918 -0.2015937864780426 -0.0025445008650422096 -0.014938844367861748 0 0 0 0
2289081808 0.2066592574119568 -0.2271033376455307 -0.0046408819034695625 -0.014793021604418755 0 0 0 0
2292803892 0.19315753877162933 -0.24280114471912384 -0.00706874206662178 -0.014599999412894249 0 0 0 0
2296525976 0.17279982566833496 -0.253949373960495 -0.009746722877025604 -0.01422362681478262 0 0 0 0
2300248060 0.14457547664642334 -0.26871180534362793 -0.01305156946182251 -0.012955576181411743 0 0 0 0
2303970144 0.12849360704421997 -0.27382415533065796 -0.015919607132673264 -0.011221777647733688 0 0 0 0
2307692228 0.0993175208568573 -0.2728182375431061 -0.01769176311790943 -0.008232859894633293 0 0 0 0
2311414312 0.06783163547515869 -0.27052056789398193 -0.019329410046339035 -0.004883359186351299 0 0 0 0
2315136396 0.04820700362324715 -0.2616002857685089 -0.02022130787372589 -0.002071097493171692 0 0 0 0
2318858480 0.028090983629226685 -0.2507610619068146 -0.020614538341760635 0.0018221493810415268 0 0 0 0
2322580564 0.0023890361189842224 -0.23605075478553772 -0.02027086354792118 0.005816778168082237 0 0 0 0
2326302648 -0.007161326706409454 -0.21809989213943481 -0.019054871052503586 0.0088758934289217 0 0 0 0
2330024732 -0.026047978550195694 -0.19721132516860962 -0.017079301178455353 0.012249452993273735 0 0 0 0
2333746816 -0.03834463655948639 -0.17229974269866943 -0.015238765627145767 0.014579868875443935 0 0 0 0
2337468900 -0.04229702055454254 -0.14635562896728516 -0.012927772477269173 0.017012905329465866 0 0 0 0
2341190984 -0.047341033816337585 -0.11612403392791748 -0.00941852480173111 0.019176060333848 0 0 0 0
2344913068 -0.04127758368849754 -0.08698154985904694 -0.00586004089564085 0.020040268078446388 0 0 0 0
2348635152 -0.03142043575644493 -0.0596674419939518 -0.0022385763004422188 0.019963374361395836 0 0 0 0
2352357236 -0.01703154854476452 -0.03303951770067215 0.0006770174950361252 0.01940189301967621 0 0 0 0
2356079320 0.002833593636751175 -0.009845569729804993 0.003217756748199463 0.018305175006389618 0 0 0 0
2359801404 0.027263030409812927 0.00900217704474926 0.005485140718519688 0.01718832179903984 0 0 0 0
2363523488 0.054553862661123276 0.023246439173817635 0.007323877885937691 0.016130102798342705 0 0 0 0
2367245572 0.0846390351653099 0.03135025501251221 0.009373307228088379 0.015195011161267757 0 0 0 0
2370967656 0.11447736620903015 0.03448127210140228 0.011348097585141659 0.014083257876336575 0 0 0 0
2374689740 0.14412827789783478 0.03174277022480965 0.013798612169921398 0.012267271056771278 0 0 0 0
2378411824 0.17230965197086334 0.023405112326145172 0.015997599810361862 0.00983724370598793 0 0 0 0
2382133908 0.19875507056713104 0.013192281126976013 0.017525291070342064 0.0064863115549087524 0 0 0 0
2385855992 0.22210921347141266 -0.003076493740081787 0.018426546826958656 0.003141718916594982 0 0 0 0
2389578076 0.24293988943099976 -0.021669901907444 0.018646012991666794 -0.00039658229798078537 0 0 0 0
2393300160 0.260880708694458 -0.044217243790626526 0.0180584117770195 -0.003870430402457714 0 0 0 0
2397022244 0.27501317858695984 -0.06949291378259659 0.016548356041312218 -0.007653767243027687 0 0 0 0
2400744328 0.28368642926216125 -0.09896759688854218 0.013818261213600636 -0.010727094486355782 0 0 0 0
2404466412 0.2915721535682678 -0.12418922781944275 0.01055364403873682 -0.012679657898843288 0 0 0 0
2408188496 0.2912062108516693 -0.1567825973033905 0.006948063150048256 -0.01360204629600048 0 0 0 0
2411910580 0.28745049238204956 -0.18195290863513947 0.004272175021469593 -0.013685394078493118 0 0 0 0
2415632664 0.2797034680843353 -0.20948559045791626 0.0016756067052483559 -0.013346721418201923 0 0 0 0
2419354748 0.26629066467285156 -0.23568731546401978 -0.0005582179874181747 -0.012500694952905178 0 0 0 0
2423076832 0.2487933337688446 -0.2584336996078491 -0.0024161143228411674 -0.011303085833787918 0 0 0 0
2426798916 0.22751186788082123 -0.27891895174980164 -0.003956642933189869 -0.010179858654737473 0 0 0 0
2430521000 0.2059270143508911 -0.2942506968975067 -0.005012493580579758 -0.008799460716545582 0 0 0 0
2434243084 0.18063664436340332 -0.3056457042694092 -0.006908100098371506 -0.007134158164262772 0 0 0 0
2437965168 0.15724074840545654 -0.3134848177433014 -0.006597265601158142 -0.006291953846812248 0 0 0 0
2441687252 0.13186010718345642 -0.3169708251953125 -0.006857190281152725 -0.005277133546769619 0 0 0 0
2445409336 0.1061590239405632 -0.32026976346969604 -0.007092294283211231 -0.004122430458664894 0 0 0 0
2449131420 0.08018910139799118 -0.3188343942165375 -0.007381012663245201 -0.003131336532533169 0 0 0 0
2452853504 0.05106852948665619 -0.31431931257247925 -0.007465178146958351 -0.0018451446667313576 0 0 0 0
2456575588 0.026465877890586853 -0.3048148453235626 -0.007209441624581814 -0.0006138468161225319 0 0 0 0
2460297672 0.004406139254570007 -0.29097920656204224 -0.006798787973821163 0.00019788462668657303 0 0 0 0
2464019756 -0.01834242045879364 -0.27270522713661194 -0.0061404649168252945 0.0011353278532624245 0 0 0 0
2467741840 -0.03683222830295563 -0.2531581521034241 -0.005622134543955326 0.0016082888469099998 0 0 0 0
2471463924 -0.05326617881655693 -0.22961586713790894 -0.004943743348121643 0.0020672213286161423 0 0 0 0
2475186008 -0.06639520823955536 -0.2048514485359192 -0.004203295335173607 0.0023681772872805595 0 0 0 0
2478908092 -0.07349831610918045 -0.17883148789405823 -0.003531038761138916 0.0023597488179802895 0 0 0 0
2482630176 -0.07566424459218979 -0.15179477632045746 -0.003235485404729843 0.00198310986161232 0 0 0 0
2486352260 -0.07663436233997345 -0.12264415621757507 -0.0032670656219124794 0.0017897523939609528 0 0 0 0
2490074344 -0.07258676737546921 -0.09498602896928787 -0.0033169081434607506 0.0018930770456790924 0 0 0 0
2493796428 -0.06380227208137512 -0.06782503426074982 -0.0031169019639492035 0.002277810126543045 0 0 0 0
2497518512 -0.049966227263212204 -0.04463471472263336 -0.0028570368885993958 0.0025455020368099213 0 0 0 0
2501240596 -0.03362712264060974 -0.022208765149116516 -0.0024902671575546265 0.002669030800461769 0 0 0 0
2504962680 -0.01429232768714428 -0.0033259205520153046 -0.0021666493266820908 0.0026116110384464264 0 0 0 0
2508684764 0.007837837561964989 0.012873154133558273 -0.0017486661672592163 0.0025621065869927406 0 0 0 0
2512406848 0.03150603175163269 0.024426406249403954 -0.001428188756108284 0.0023498786613345146 0 0 0 0
2516128932 0.05658164620399475 0.031936317682266235 -0.0015308931469917297 0.0018954910337924957 0 0 0 0
2519851016 0.08245224505662918 0.03557407855987549 -0.0018227593973279 0.001767185516655445 0 0 0 0
2523573100 0.1076488047838211 0.03516079857945442 -0.002036229707300663 0.0018534399569034576 0 0 0 0
2527295184 0.13205964863300323 0.03126269578933716 -0.002216220833361149 0.0020851045846939087 0 0 0 0
2531017268 0.15512073040008545 0.024325668811798096 -0.0024048900231719017 0.0022949343547225 0 0 0 0
2534739352 0.1757299304008484 0.0134972482919693 -0.002693180926144123 0.0027803806588053703 0 0 0 0
2538461436 0.1963733732700348 0.0016793590039014816 -0.0027356958016753197 0.003458624705672264 0 0 0 0
2542183520 0.21395078301429749 -0.013109907507896423 -0.0029130643233656883 0.004100748337805271 0 0 0 0
2545905604 0.22887484729290009 -0.030707649886608124 -0.0025901030749082565 0.005063989199697971 0 0 0 0
2549627688 0.23930999636650085 -0.05142885446548462 -0.0022385315969586372 0.006223211996257305 0 0 0 0
2553349772 0.24693627655506134 -0.07176798582077026 -0.0011173877865076065 0.007843652740120888 0 0 0 0
2557071856 0.25066906213760376 -0.09143348783254623 0.0009207697585225105 0.008785445243120193 0 0 0 0
2560793940 0.2550303041934967 -0.11085466295480728 0.003388751298189163 0.00897935125976801 0 0 0 0
2564516024 0.253123939037323 -0.13391920924186707 0.006119276396930218 0.008052055723965168 0 0 0 0
2568238108 0.25068292021751404 -0.15124322474002838 0.007750163786113262 0.006353914737701416 0 0 0 0
2571960192 0.2465822845697403 -0.16848570108413696 0.008952421136200428 0.0043317656964063644 0 0 0 0
2575682276 0.23988744616508484 -0.18718752264976501 0.009646493941545486 0.002449329011142254 0 0 0 0
2579404360 0.22846826910972595 -0.20690035820007324 0.009727182798087597 0.0006315205246210098 0 0 0 0
2583126444 0.21689850091934204 -0.221033975481987 0.009683662094175816 -0.0012241518124938011 0 0 0 0
2586848528 0.2001972794532776 -0.23593956232070923 0.009226894937455654 -0.002614126540720463 0 0 0 0
2590570612 0.18072977662086487 -0.24759580194950104 0.008980315178632736 -0.004102925769984722 0 0 0 0
2594292696 0.16607369482517242 -0.2527436912059784 0.008684216998517513 -0.0055742450058460236 0 0 0 0
2598014780 0.14564034342765808 -0.2568175196647644 0.007899370975792408 -0.007287846878170967 0 0 0 0
2601736864 0.12847043573856354 -0.25610631704330444 0.006942263804376125 -0.008907805196940899 0 0 0 0
2605458948 0.10968576371669769 -0.256098210811615 0.005492476746439934 -0.010512703098356724 0 0 0 0
2609181032 0.09362161159515381 -0.2525409162044525 0.0037758611142635345 -0.011741199530661106 0 0 0 0
2612903116 0.07791395485401154 -0.24669665098190308 0.0016820644959807396 -0.01278175413608551 0 0 0 0
2616625200 0.06229168921709061 -0.23840418457984924 -0.000601484440267086 -0.013443438336253166 0 0 0 0
2620347284 0.049019910395145416 -0.22801050543785095 -0.003379520960152149 -0.013857300393283367 0 0 0 0
2624069368 0.03667418658733368 -0.216129332780838 -0.006495418027043343 -0.013208500109612942 0 0 0 0
2627791452 0.030031779780983925 -0.20095306634902954 -0.009086111560463905 -0.0119548998773098 0 0 0 0
2631513536 0.023730942979454994 -0.1872880458831787 -0.011095235124230385 -0.009878699667751789 0 0 0 0
2635235620 0.020441453903913498 -0.1731414496898651 -0.012745395302772522 -0.007929909974336624 0 0 0 0
2638957704 0.02097504213452339 -0.15752427279949188 -0.013922082260251045 -0.005525918677449226 0 0 0 0
2642679788 0.022120002657175064 -0.14442817866802216 -0.014863720163702965 -0.0032703084871172905 0 0 0 0
2646401872 0.026815731078386307 -0.13125446438789368 -0.015253541991114616 -0.00040609855204820633 0 0 0 0
2650123956 0.033226143568754196 -0.11944331228733063 -0.01504631619900465 0.0023562703281641006 0 0 0 0
2653846040 0.04080599918961525 -0.10916382074356079 -0.014313760213553905 0.005043606273829937 0 0 0 0
2657568124 0.04959629103541374 -0.10163400322198868 -0.012970399111509323 0.007590975612401962 0 0 0 0
2661290208 0.05941244214773178 -0.09700462222099304 -0.011249097995460033 0.010046252980828285 0 0 0 0
2665012292 0.07024343311786652 -0.09327761083841324 -0.00912636797875166 0.011707115918397903 0 0 0 0
2668734376 0.08082377165555954 -0.09092701226472855 -0.006447234191000462 0.01289170142263174 0 0 0 0
2672456460 0.09212036430835724 -0.09144984930753708 -0.003804151900112629 0.013808500953018665 0 0 0 0
2676178544 0.10338977724313736 -0.09456978738307953 -0.0010113324970006943 0.014273358508944511 0 0 0 0
2679900628 0.11256123334169388 -0.10030828416347504 0.0023446567356586456 0.013885595835745335 0 0 0 0
2683622712 0.11983555555343628 -0.10690692067146301 0.005136557854712009 0.012159287929534912 0 0 0 0
2687344796 0.12595224380493164 -0.11516907066106796 0.006977591663599014 0.010430842638015747 0 0 0 0
2691066880 0.13012659549713135 -0.12401003390550613 0.00837850384414196 0.008344637230038643 0 0 0 0
2694788964 0.1319512128829956 -0.13372090458869934 0.00951743870973587 0.006228489801287651 0 0 0 0
2698511048 0.13183459639549255 -0.14601922035217285 0.009949235245585442 0.003770977258682251 0 0 0 0
2702233132 0.13105857372283936 -0.15583117306232452 0.009801818057894707 0.0018352856859564781 0 0 0 0
2705955216 0.12381783127784729 -0.16729789972305298 0.009456746280193329 -7.530953735113144e-05 0 0 0 0
2709677300 0.11601267755031586 -0.17669475078582764 0.008878303691744804 -0.0015699602663516998 0 0 0 0
2713399384 0.10640121251344681 -0.18303030729293823 0.007964929565787315 -0.0029617706313729286 0 0 0 0
2717121468 0.09613677859306335 -0.1870361715555191 0.0070271240547299385 -0.0039621395990252495 0 0 0 0
2720843552 0.08237627893686295 -0.19246533513069153 0.0062137171626091 -0.004801402799785137 0 0 0 0
2724565636 0.06878479570150375 -0.1932949274778366 0.005315978080034256 -0.005457036197185516 0 0 0 0
2728287720 0.054784659296274185 -0.19036228954792023 0.004741227254271507 -0.006007789634168148 0 0 0 0
2732009804 0.042299047112464905 -0.18584126234054565 0.004104829393327236 -0.006933403201401234 0 0 0 0
2735731888 0.029792115092277527 -0.1778741329908371 0.0029394393786787987 -0.007993292063474655 0 0 0 0
2739453972 0.018107082694768906 -0.16883021593093872 0.0012058867141604424 -0.008688819594681263 0 0 0 0
2743176056 0.0068994611501693726 -0.15545231103897095 -0.0005717845633625984 -0.008753709495067596 0 0 0 0
2746898140 -0.0017335079610347748 -0.1408500373363495 -0.0022985050454735756 -0.008576488122344017 0 0 0 0
2750620224 -0.006709054112434387 -0.12373115122318268 -0.004119880497455597 -0.007821734994649887 0 0 0 0
2754342308 -0.01061287708580494 -0.10610117763280869 -0.00545661523938179 -0.006781247444450855 0 0 0 0
2758064392 -0.008832395076751709 -0.08740192651748657 -0.006539482623338699 -0.005235291086137295 0 0 0 0
2761786476 -0.005576511844992638 -0.06781817972660065 -0.007089278660714626 -0.0037230439484119415 0 0 0 0
2765508560 0.0033960845321416855 -0.04855596274137497 -0.007509181275963783 -0.002028336748480797 0 0 0 0
2769230644 0.015037501230835915 -0.031183814629912376 -0.007278319448232651 -0.0003925887867808342 0 0 0 0
2772952728 0.029453177005052567 -0.01623576134443283 -0.006688667461276054 0.0011129751801490784 0 0 0 0
2776674812 0.04732781648635864 -0.0028592534363269806 -0.005743381567299366 0.002020464278757572 0 0 0 0
2780396896 0.06776918470859528 0.006458117626607418 -0.005005943588912487 0.0026722801849246025 0 0 0 0
2784118980 0.08950043469667435 0.01311713457107544 -0.004306798800826073 0.003374638967216015 0 0 0 0
2787841064 0.11293136328458786 0.015615604817867279 -0.0032844115048646927 0.004069098271429539 0 0 0 0
2791563148 0.137107253074646 0.012640610337257385 -0.0021862415596842766 0.004305562935769558 0 0 0 0
2795285232 0.15944379568099976 0.007212430238723755 -0.0012958105653524399 0.004355357959866524 0 0 0 0
2799007316 0.18118008971214294 -0.0038752034306526184 -0.00041326507925987244 0.0043732644990086555 0 0 0 0
2802729400 0.2015284299850464 -0.01598723977804184 0.0004984838888049126 0.004427085630595684 0 0 0 0
2806451484 0.21789759397506714 -0.03273662179708481 0.0016339374706149101 0.003848956897854805 0 0 0 0
2810173568 0.23298616707324982 -0.049667228013277054 0.0024353517219424248 0.003196052275598049 0 0 0 0
2813895652 0.2462211549282074 -0.06974465399980545 0.0030253417789936066 0.002460116520524025 0 0 0 0
2817617736 0.2566261887550354 -0.09171431511640549 0.003466852940618992 0.001602022908627987 0 0 0 0
2821339820 0.26325497031211853 -0.11649663746356964 0.003749013878405094 0.000719727948307991 0 0 0 0
2825061904 0.26667577028274536 -0.14430004358291626 0.003849330358207226 -0.00011500436812639236 0 0 0 0
2828783988 0.26383906602859497 -0.17014843225479126 0.0036986637860536575 -0.0009449142962694168 0 0 0 0
2832506072 0.25784003734588623 -0.1947813183069229 0.00348857045173645 -0.0018469663336873055 0 0 0 0
2836228156 0.24521757662296295 -0.22046157717704773 0.002965847961604595 -0.0027100034058094025 0 0 0 0
2839950240 0.23394174873828888 -0.2418135553598404 0.0022210441529750824 -0.00329581368714571 0 0 0 0
2843672324 0.22198471426963806 -0.2594362199306488 0.0014679450541734695 -0.003561730496585369 0 0 0 0
2847394408 0.20022058486938477 -0.2788911461830139 0.0007187975570559502 -0.0039050839841365814 0 0 0 0
2851116492 0.18057125806808472 -0.2955082952976227 -0.00012297183275222778 -0.0039840154349803925 0 0 0 0
2854838576 0.15473327040672302 -0.3108704686164856 -0.0008445950224995613 -0.003841143101453781 0 0 0 0
2858560660 0.13812869787216187 -0.3178888261318207 -0.00141800194978714 -0.003880777396261692 0 0 0 0
2862282744 0.10928428173065186 -0.3270335793495178 -0.002203522250056267 -0.003317558206617832 0 0 0 0
2866004828 0.08291822671890259 -0.32953786849975586 -0.002482566051185131 -0.0026376936584711075 0 0 0 0
2869726912 0.05499275028705597 -0.3283751904964447 -0.0025637922808527946 -0.0019835010170936584 0 0 0 0
2873448996 0.03153253719210625 -0.3244650661945343 -0.0025847414508461952 -0.0016121938824653625 0 0 0 0
2877171080 0.007559165358543396 -0.3159516751766205 -0.002606770023703575 -0.0013695238158106804 0 0 0 0
2880893164 -0.017005236819386482 -0.3069893717765808 -0.0028056539595127106 -0.0009602988138794899 0 0 0 0
2884615248 -0.042031385004520416 -0.2932879328727722 -0.0030487990006804466 -0.000580846332013607 0 0 0 0
2888337332 -0.0674344003200531 -0.2752048969268799 -0.0030894987285137177 5.673617124557495e-05 0 0 0 0
2892059416 -0.0833444595336914 -0.25512388348579407 -0.0030975546687841415 0.0006279861554503441 0 0 0 0
2895781500 -0.09744580090045929 -0.23341725766658783 -0.0028251400217413902 0.0014364086091518402 0 0 0 0
2899503584 -0.11059010773897171 -0.20766106247901917 -0.0025174831971526146 0.0019773878157138824 0 0 0 0
2903225668 -0.12074103951454163 -0.18289679288864136 -0.0018730508163571358 0.002698349766433239 0 0 0 0
2906947752 -0.12648355960845947 -0.15628769993782043 -0.0012988336384296417 0.0033088168129324913 0 0 0 0
2910669836 -0.12989749014377594 -0.12795275449752808 -0.00021781492978334427 0.003609861247241497 0 0 0 0
2914391920 -0.12898188829421997 -0.10014845430850983 0.000851411372423172 0.003641895018517971 0 0 0 0
2918114004 -0.12322515994310379 -0.0742805153131485 0.0017888937145471573 0.0033452296629548073 0 0 0 0
2921836088 -0.11485067754983902 -0.04651059955358505 0.002337692305445671 0.0028406204655766487 0 0 0 0
2925558172 -0.1027250662446022 -0.02150796726346016 0.0030687833204865456 0.0022811703383922577 0 0 0 0
2929280256 -0.08629240095615387 0.0009554550051689148 0.0034640664234757423 0.001650243066251278 0 0 0 0
2933002340 -0.06727144867181778 0.021507510915398598 0.003684256225824356 0.0007884148508310318 0 0 0 0
2936724424 -0.04641425237059593 0.03880108892917633 0.0036918194964528084 0.00022195279598236084 0 0 0 0
2940446508 -0.02346271276473999 0.05333726108074188 0.0036208229139447212 -0.00028026197105646133 0 0 0 0
2944168592 0.0010989867150783539 0.06317268311977386 0.0034196143969893456 -0.000868532806634903 0 0 0 0
2947890676 0.026347367092967033 0.0693376436829567 0.0032818904146552086 -0.0013535944744944572 0 0 0 0
2951612760 0.051685575395822525 0.07315026223659515 0.003074631094932556 -0.0018573841080069542 0 0 0 0
2955334844 0.07612278312444687 0.07292820513248444 0.00267937034368515 -0.002263120375573635 0 0 0 0
2959056928 0.0990566536784172 0.07131320238113403 0.0022484539076685905 -0.0023095877841115 0 0 0 0
2962779012 0.12208183109760284 0.06613842397928238 0.0019743535667657852 -0.002299133688211441 0 0 0 0
2966501096 0.14447742700576782 0.058883074671030045 0.0018756669014692307 -0.0025515593588352203 0 0 0 0
2970223180 0.16688963770866394 0.049011729657649994 0.0016384795308113098 -0.0028021521866321564 0 0 0 0
2973945264 0.18651427328586578 0.034968577325344086 0.001167990267276764 -0.002729003317654133 0 0 0 0
2977667348 0.2049555778503418 0.01964797079563141 0.001076187938451767 -0.002893376164138317 0 0 0 0
2981389432 0.22054016590118408 0.0028542280197143555 0.0007874974980950356 -0.003069826401770115 0 0 0 0
2985111516 0.23340512812137604 -0.015890758484601974 0.00023516174405813217 -0.0031441878527402878 0 0 0 0
2988833600 0.24495404958724976 -0.03471183776855469 -0.00022079143673181534 -0.002962106838822365 0 0 0 0
2992555684 0.2537176012992859 -0.057935237884521484 -0.0005323123186826706 -0.0027203084900975227 0 0 0 0
2996277768 0.25986307859420776 -0.0779317170381546 -0.0009147180244326591 -0.0025751255452632904 0 0 0 0
2999999852 0.26339295506477356 -0.10090883076190948 -0.0014518806710839272 -0.002276487648487091 0 0 0 0
