# HZ S RI R 50
1500000000 -0.1569644957780838 -0.005524902604520321 0.0729653611779213 -0.03647905960679054 0 0 0 0
1503722084 -0.1323641836643219 0.030179060995578766 0.06331661343574524 -0.04846366122364998 0 0 0 0
1507444168 -0.10091881453990936 0.061677198857069016 0.05020859092473984 -0.058782849460840225 0 0 0 0
1511166252 -0.06333627551794052 0.08781345188617706 0.03587161377072334 -0.06525339931249619 0 0 0 0
1514888336 -0.02109011635184288 0.1066960021853447 0.02133682370185852 -0.0670967772603035 0 0 0 0
1518610420 0.026195229962468147 0.11817535758018494 0.00819818489253521 -0.06577529013156891 0 0 0 0
1522332504 0.07594314962625504 0.12037564069032669 -0.003532515838742256 -0.062257442623376846 0 0 0 0
1526054588 0.1248835101723671 0.11476686596870422 -0.012909725308418274 -0.057093389332294464 0 0 0 0
1529776672 0.17312563955783844 0.10141398757696152 -0.02034648135304451 -0.05159560218453407 0 0 0 0
1533498756 0.21909338235855103 0.07948001474142075 -0.027036011219024658 -0.044732049107551575 0 0 0 0
1537220840 0.2634703516960144 0.0502408966422081 -0.03166889399290085 -0.037932273000478745 0 0 0 0
1540942924 0.30306383967399597 0.011068902909755707 -0.034943412989377975 -0.03029412031173706 0 0 0 0
1544665008 0.33592545986175537 -0.03154289722442627 -0.036358367651700974 -0.023658988997340202 0 0 0 0
1548387092 0.36090174317359924 -0.08118018507957458 -0.03704822063446045 -0.0176974106580019 0 0 0 0
1552109176 0.37867671251296997 -0.1355905383825302 -0.037389371544122696 -0.011725734919309616 0 0 0 0
1555831260 0.3867926597595215 -0.19384045898914337 -0.036816421896219254 -0.005907556042075157 0 0 0 0
1559553344 0.38661089539527893 -0.2503970265388489 -0.035243574529886246 -0.0007532760500907898 0 0 0 0
1563275428 0.37367820739746094 -0.3096567988395691 -0.032987210899591446 0.0037080710753798485 0 0 0 0
1566997512 0.3574063777923584 -0.3653467893600464 -0.030498947948217392 0.007361754775047302 0 0 0 0
1570719596 0.32906100153923035 -0.4167022109031677 -0.02766501158475876 0.01035850029438734 0 0 0 0
1574441680 0.29185059666633606 -0.4656151235103607 -0.024971062317490578 0.012405536137521267 0 0 0 0
1578163764 0.24719439446926117 -0.5067615509033203 -0.022690584883093834 0.014247898943722248 0 0 0 0
1581885848 0.19974444806575775 -0.5402117967605591 -0.020819030702114105 0.016018874943256378 0 0 0 0
1585607932 0.1438423991203308 -0.5668697953224182 -0.01844661682844162 0.017810890451073647 0 0 0 0
1589330016 0.08659449219703674 -0.5854573249816895 -0.016004130244255066 0.01917136274278164 0 0 0 0
1593052100 0.028886228799819946 -0.5959594249725342 -0.013982821255922318 0.02019437402486801 0 0 0 0
1596774184 -0.032019492238759995 -0.5996180772781372 -0.012182338163256645 0.02165931649506092 0 0 0 0
1600496268 -0.09191547334194183 -0.5936692953109741 -0.010032261721789837 0.023522038012742996 0 0 0 0
1604218352 -0.15073221921920776 -0.5793721675872803 -0.007049385458230972 0.02534923516213894 0 0 0 0
1607940436 -0.21149605512619019 -0.554824948310852 -0.0032297037541866302 0.026650913059711456 0 0 0 0
1611662520 -0.2651001214981079 -0.5236143469810486 0.0007270332425832748 0.027195559814572334 0 0 0 0
1615384604 -0.3182108402252197 -0.4819990396499634 0.004894239827990532 0.027121158316731453 0 0 0 0
1619106688 -0.3630562126636505 -0.43267640471458435 0.00915488414466381 0.026599228382110596 0 0 0 0
1622828772 -0.40010523796081543 -0.3807591199874878 0.013617231510579586 0.025435589253902435 0 0 0 0
1626550856 -0.42869240045547485 -0.31985944509506226 0.018336767330765724 0.023061614483594894 0 0 0 0
1630272940 -0.4502730965614319 -0.2556535601615906 0.02253270335495472 0.019374312832951546 0 0 0 0
1633995024 -0.46325474977493286 -0.18915101885795593 0.02583128958940506 0.014760803431272507 0 0 0 0
1637717108 -0.46663898229599 -0.12123788893222809 0.027997389435768127 0.009470256045460701 0 0 0 0
1641439192 -0.4612349271774292 -0.05230867862701416 0.02873171865940094 0.004054008051753044 0 0 0 0
1645161276 -0.4452066719532013 0.01920989900827408 0.028269100934267044 -0.0013062246143817902 0 0 0 0
1648883360 -0.4158002436161041 0.09066841751337051 0.02715904638171196 -0.006270715035498142 0 0 0 0
1652605444 -0.37688884139060974 0.1561206877231598 0.025293594226241112 -0.010940825566649437 0 0 0 0
1656327528 -0.3289928138256073 0.21225401759147644 0.022378144785761833 -0.01520669274032116 0 0 0 0
1660049612 -0.27078187465667725 0.2642260491847992 0.018604924902319908 -0.01877646893262863 0 0 0 0
1663771696 -0.2041103094816208 0.30766069889068604 0.014090466313064098 -0.021503020077943802 0 0 0 0
1667493780 -0.13406528532505035 0.3389703035354614 0.009372679516673088 -0.023138994351029396 0 0 0 0
1671215864 -0.053764693439006805 0.36149176955223083 0.0040377965196967125 -0.02365635521709919 0 0 0 0
1674937948 0.026426896452903748 0.3713310956954956 -0.0009390302002429962 -0.022563356906175613 0 0 0 0
1678660032 0.11008011549711227 0.3675239682197571 -0.004789446480572224 -0.02035880647599697 0 0 0 0
1682382116 0.19435369968414307 0.34923192858695984 -0.007795463316142559 -0.017693351954221725 0 0 0 0
1686104200 0.27212753891944885 0.3182353675365448 -0.009984228760004044 -0.014958696439862251 0 0 0 0
1689826284 0.3436104655265808 0.2754412889480591 -0.011312813498079777 -0.012306357733905315 0 0 0 0
1693548368 0.4077903628349304 0.2210724651813507 -0.012026873417198658 -0.009723489172756672 0 0 0 0
1697270452 0.461452841758728 0.15683569014072418 -0.012606048956513405 -0.007038883864879608 0 0 0 0
1700992536 0.5045359134674072 0.0870458334684372 -0.012646299786865711 -0.004845541901886463 0 0 0 0
1704714620 0.5359187126159668 0.01037762314081192 -0.01212249230593443 -0.0023862356320023537 0 0 0 0
1708436704 0.5538075566291809 -0.06864678859710693 -0.011534085497260094 -0.00015253201127052307 0 0 0 0
1712158788 0.5609270334243774 -0.14866863191127777 -0.010102887637913227 0.001648755744099617 0 0 0 0
1715880872 0.553911030292511 -0.22795581817626953 -0.00842558965086937 0.002931220456957817 0 0 0 0
1719602956 0.5335736274719238 -0.3066405653953552 -0.006493447348475456 0.0035176072269678116 0 0 0 0
1723325040 0.5046070218086243 -0.37929049134254456 -0.0048810699954628944 0.003444856032729149 0 0 0 0
1727047124 0.4651199281215668 -0.44248849153518677 -0.003725741058588028 0.0028824713081121445 0 0 0 0
1730769208 0.41528162360191345 -0.5017328858375549 -0.003279220312833786 0.0020658010616898537 0 0 0 0
1734491292 0.3548199534416199 -0.5529885292053223 -0.0031111305579543114 0.0015924274921417236 0 0 0 0
1738213376 0.2930523157119751 -0.5922437310218811 -0.002957172691822052 0.0012120893225073814 0 0 0 0
1741935460 0.22353260219097137 -0.6195380687713623 -0.003139561042189598 0.0007691886276006699 0 0 0 0
1745657544 0.15217596292495728 -0.6363815665245056 -0.003564809449017048 0.0005209017544984818 0 0 0 0
1749379628 0.08181746304035187 -0.642422080039978 -0.004131925292313099 0.0006748279556632042 0 0 0 0
1753101712 0.011748194694519043 -0.6363608837127686 -0.004414789378643036 0.0009838780388236046 0 0 0 0
1756823796 -0.052108362317085266 -0.6222773194313049 -0.00466182641685009 0.0013060402125120163 0 0 0 0
1760545880 -0.11713173240423203 -0.5964592099189758 -0.005036209709942341 0.0017222296446561813 0 0 0 0
1764267964 -0.17489324510097504 -0.5621854662895203 -0.00512991938740015 0.0021594734862446785 0 0 0 0
1767990048 -0.2221105545759201 -0.5244020223617554 -0.005474034696817398 0.0026179347187280655 0 0 0 0
1771712132 -0.26809224486351013 -0.47453436255455017 -0.005898024886846542 0.0031090080738067627 0 0 0 0
1775434216 -0.301622211933136 -0.42345982789993286 -0.006608356721699238 0.003938247449696064 0 0 0 0
1779156300 -0.3279116153717041 -0.368506520986557 -0.007020208984613419 0.005380415357649326 0 0 0 0
1782878384 -0.34771353006362915 -0.3102928400039673 -0.007093050517141819 0.006925520487129688 0 0 0 0
1786600468 -0.3579074740409851 -0.2510208189487457 -0.00709375087171793 0.008710047230124474 0 0 0 0
1790322552 -0.3591660261154175 -0.19340243935585022 -0.0068279774859547615 0.011032960377633572 0 0 0 0
1794044636 -0.3534007966518402 -0.13461823761463165 -0.005686578340828419 0.013489183969795704 0 0 0 0
1797766720 -0.3386695384979248 -0.07685831189155579 -0.0034807687625288963 0.01610807701945305 0 0 0 0
1801488804 -0.31630873680114746 -0.025547340512275696 -0.0008906833827495575 0.018391022458672523 0 0 0 0
1805210888 -0.2871617078781128 0.023270465433597565 0.0029503265395760536 0.020300766453146935 0 0 0 0
1808932972 -0.24993804097175598 0.06817029416561127 0.007574540562927723 0.02124158665537834 0 0 0 0
1812655056 -0.20537637174129486 0.10688648372888565 0.012893172912299633 0.021001867949962616 0 0 0 0
1816377140 -0.15349812805652618 0.13764774799346924 0.018384993076324463 0.01946396939456463 0 0 0 0
1820099224 -0.10052984207868576 0.15701903402805328 0.024046583101153374 0.01640719547867775 0 0 0 0
1823821308 -0.044615115970373154 0.16681240499019623 0.028991270810365677 0.010470615699887276 0 0 0 0
1827543392 0.009824378415942192 0.1669982522726059 0.03143056109547615 0.0035757459700107574 0 0 0 0
1831265476 0.06022247299551964 0.1593133509159088 0.03214972838759422 -0.003955538384616375 0 0 0 0
1834987560 0.10848024487495422 0.1438729166984558 0.030583135783672333 -0.010642005130648613 0 0 0 0
1838709644 0.15328270196914673 0.12141784280538559 0.027394810691475868 -0.016875943168997765 0 0 0 0
1842431728 0.19156646728515625 0.09585815668106079 0.0234991405159235 -0.021673142910003662 0 0 0 0
1846153812 0.22561471164226532 0.06268951296806335 0.018884431570768356 -0.02538111060857773 0 0 0 0
1849875896 0.25340378284454346 0.02788403630256653 0.014027622528374195 -0.0280570350587368 0 0 0 0
1853597980 0.2744957208633423 -0.012173794209957123 0.009094508364796638 -0.030047208070755005 0 0 0 0
1857320064 0.2890172004699707 -0.052038051187992096 0.004017057828605175 -0.03131089359521866 0 0 0 0
1861042148 0.29681235551834106 -0.09443172812461853 -0.0010199043899774551 -0.03211485221982002 0 0 0 0
1864764232 0.2967456579208374 -0.13377484679222107 -0.006700348109006882 -0.032458338886499405 0 0 0 0
1868486316 0.28965115547180176 -0.17475377023220062 -0.013030892238020897 -0.03127454221248627 0 0 0 0
1872208400 0.2780800461769104 -0.21206134557724 -0.0190426092594862 -0.02864127606153488 0 0 0 0
1875930484 0.2634508013725281 -0.2436574101448059 -0.024075791239738464 -0.024569572880864143 0 0 0 0
1879652568 0.24036219716072083 -0.27544450759887695 -0.027736559510231018 -0.01997298374772072 0 0 0 0
1883374652 0.2156507670879364 -0.3011007010936737 -0.030869461596012115 -0.015035941265523434 0 0 0 0
1887096736 0.18472105264663696 -0.3229086995124817 -0.03331625461578369 -0.009957033209502697 0 0 0 0
1890818820 0.15146398544311523 -0.3376620411872864 -0.03499332815408707 -0.004412785172462463 0 0 0 0
1894540904 0.11963138729333878 -0.34485456347465515 -0.036085087805986404 0.0015513096004724503 0 0 0 0
1898262988 0.08536006510257721 -0.3468303680419922 -0.03626098111271858 0.007795475423336029 0 0 0 0
1901985072 0.0519554577767849 -0.3426783084869385 -0.03447260335087776 0.015139194205403328 0 0 0 0
1905707156 0.021439366042613983 -0.33254653215408325 -0.03138856217265129 0.02100367657840252 0 0 0 0
1909429240 -0.0053678229451179504 -0.31948497891426086 -0.027544142678380013 0.02630334347486496 0 0 0 0
1913151324 -0.030762523412704468 -0.30089446902275085 -0.02281769923865795 0.03144625946879387 0 0 0 0
1916873408 -0.052334778010845184 -0.2790789306163788 -0.01705210655927658 0.0358533151447773 0 0 0 0
1920595492 -0.0678175687789917 -0.25450071692466736 -0.010023643262684345 0.039340540766716 0 0 0 0
1924317576 -0.0783541202545166 -0.2276618778705597 -0.001576102338731289 0.04108837991952896 0 0 0 0
1928039660 -0.08413723856210709 -0.20011012256145477 0.00691422913223505 0.040671758353710175 0 0 0 0
1931761744 -0.0867287665605545 -0.17295679450035095 0.015334933996200562 0.03764069080352783 0 0 0 0
1935483828 -0.08259055018424988 -0.1473928540945053 0.021617013961076736 0.032954148948192596 0 0 0 0
1939205912 -0.07698206603527069 -0.12031812965869904 0.026344534009695053 0.02704399824142456 0 0 0 0
1942927996 -0.06494180113077164 -0.09560026973485947 0.02918883040547371 0.021548351272940636 0 0 0 0
1946650080 -0.05036190152168274 -0.072454072535038 0.031239958480000496 0.016362257301807404 0 0 0 0
1950372164 -0.0312640517950058 -0.05198448523879051 0.03303641825914383 0.011668568477034569 0 0 0 0
1954094248 -0.007563169114291668 -0.03488296642899513 0.03492932766675949 0.0064857276156544685 0 0 0 0
1957816332 0.019017308950424194 -0.023850930854678154 0.03662971034646034 0.00035617686808109283 0 0 0 0
1961538416 0.04791681841015816 -0.01661643385887146 0.03663181513547897 -0.006370866671204567 0 0 0 0
1965260500 0.07695342600345612 -0.016382824629545212 0.03455345332622528 -0.013645135797560215 0 0 0 0
1968982584 0.10571055114269257 -0.022180253639817238 0.031489722430706024 -0.019723843783140182 0 0 0 0
1972704668 0.1320144534111023 -0.03311510384082794 0.027847418561577797 -0.025475088506937027 0 0 0 0
1976426752 0.15584935247898102 -0.047760821878910065 0.022950604557991028 -0.030541356652975082 0 0 0 0
1980148836 0.17730315029621124 -0.06753033399581909 0.016412528231739998 -0.03500457853078842 0 0 0 0
1983870920 0.19309557974338531 -0.09145545959472656 0.008406570181250572 -0.037487782537937164 0 0 0 0
1987593004 0.2045583873987198 -0.11609731614589691 0.00045504793524742126 -0.037915971130132675 0 0 0 0
1991315088 0.21023708581924438 -0.14421093463897705 -0.0067181820049881935 -0.036622628569602966 0 0 0 0
1995037172 0.20944060385227203 -0.17171578109264374 -0.013548502698540688 -0.03365279361605644 0 0 0 0
1998759256 0.20543944835662842 -0.19663402438163757 -0.018905527889728546 -0.029353244230151176 0 0 0 0
2002481340 0.19754956662654877 -0.22112028300762177 -0.022764647379517555 -0.024938464164733887 0 0 0 0
2006203424 0.18272462487220764 -0.24411137402057648 -0.02553490735590458 -0.020838623866438866 0 0 0 0
2009925508 0.1679663062095642 -0.2625250518321991 -0.0282359030097723 -0.016911694779992104 0 0 0 0
2013647592 0.15053096413612366 -0.27782973647117615 -0.03106563538312912 -0.012609073892235756 0 0 0 0
2017369676 0.12908880412578583 -0.29252269864082336 -0.03327523544430733 -0.007831571623682976 0 0 0 0
2021091760 0.10629347711801529 -0.3031718134880066 -0.035369597375392914 -0.0016022222116589546 0 0 0 0
2024813844 0.07960851490497589 -0.3089999854564667 -0.035516008734703064 0.0051924725994467735 0 0 0 0
2028535928 0.05349466949701309 -0.31052932143211365 -0.03396347910165787 0.012286912649869919 0 0 0 0
2032258012 0.02736179530620575 -0.3075750172138214 -0.030868493020534515 0.01831657439470291 0 0 0 0
2035980096 -6.71781599521637e-05 -0.30088746547698975 -0.026540182530879974 0.02344697341322899 0 0 0 0
2039702180 -0.022513531148433685 -0.2901093065738678 -0.022443698719143867 0.027511000633239746 0 0 0 0
2043424264 -0.04556378349661827 -0.27346271276474 -0.016844868659973145 0.030801795423030853 0 0 0 0
2047146348 -0.0659642368555069 -0.2543061673641205 -0.011382900178432465 0.032933544367551804 0 0 0 0
2050868432 -0.08454360067844391 -0.23087140917778015 -0.005399557761847973 0.03423679247498512 0 0 0 0
2054590516 -0.09756901860237122 -0.20582740008831024 0.00011774338781833649 0.03432798758149147 0 0 0 0
2058312600 -0.10868611186742783 -0.176621675491333 0.006005584262311459 0.033837784081697464 0 0 0 0
2062034684 -0.11326657980680466 -0.14802007377147675 0.011683626100420952 0.03244387358427048 0 0 0 0
2065756768 -0.11387724429368973 -0.11677995324134827 0.017512314021587372 0.03021789714694023 0 0 0 0
2069478852 -0.11086151748895645 -0.08512292802333832 0.02279694378376007 0.02663499489426613 0 0 0 0
2073200936 -0.10185562819242477 -0.052180223166942596 0.026955612003803253 0.021232357248663902 0 0 0 0
2076923020 -0.0866493433713913 -0.021156366914510727 0.029384199529886246 0.015411032363772392 0 0 0 0
2080645104 -0.06551945954561234 0.007989825680851936 0.03012457862496376 0.010152851231396198 0 0 0 0
2084367188 -0.03952232748270035 0.03292557969689369 0.03038611263036728 0.005783296190202236 0 0 0 0
2088089272 -0.007953332737088203 0.053568992763757706 0.031006261706352234 0.0019210996106266975 0 0 0 0
2091811356 0.026052717119455338 0.06855303049087524 0.03166881203651428 -0.002347131259739399 0 0 0 0
2095533440 0.062923863530159 0.07613366842269897 0.03205200657248497 -0.0075968047603964806 0 0 0 0
2099255524 0.10120002925395966 0.07755428552627563 0.0311117060482502 -0.013805011287331581 0 0 0 0
2102977608 0.13806310296058655 0.07231342792510986 0.02855507656931877 -0.020132802426815033 0 0 0 0
2106699692 0.17319829761981964 0.06176172196865082 0.024398479610681534 -0.02594457007944584 0 0 0 0
2110421776 0.20606651902198792 0.045562442392110825 0.018687132745981216 -0.030260730534791946 0 0 0 0
2114143860 0.23649150133132935 0.0218330230563879 0.01218702457845211 -0.03328847140073776 0 0 0 0
2117865944 0.26079875230789185 -0.004995524883270264 0.005476334132254124 -0.03510428965091705 0 0 0 0
2121588028 0.2804448902606964 -0.03451542556285858 -0.0016004117205739021 -0.035662584006786346 0 0 0 0
2125310112 0.2946787476539612 -0.06564264744520187 -0.00901306327432394 -0.03409028798341751 0 0 0 0
2129032196 0.30447912216186523 -0.09981079399585724 -0.015754060819745064 -0.031031424179673195 0 0 0 0
2132754280 0.30749964714050293 -0.13273894786834717 -0.021416787058115005 -0.02628607675433159 0 0 0 0
2136476364 0.30560946464538574 -0.16745847463607788 -0.025370778515934944 -0.020250286906957626 0 0 0 0
2140198448 0.2983472943305969 -0.20142486691474915 -0.027216441929340363 -0.014134606346487999 0 0 0 0
2143920532 0.2851322591304779 -0.23370300233364105 -0.027898333966732025 -0.009097009897232056 0 0 0 0
2147642616 0.26852983236312866 -0.2593824863433838 -0.027927452698349953 -0.004071570932865143 0 0 0 0
2151364700 0.2497999370098114 -0.2841755747795105 -0.027096664533019066 0.00029134098440408707 0 0 0 0
2155086784 0.22456982731819153 -0.3047807514667511 -0.0258246511220932 0.004238671623170376 0 0 0 0
2158808868 0.19602099061012268 -0.32246044278144836 -0.024135245010256767 0.007965519092977047 0 0 0 0
2162530952 0.16686175763607025 -0.33195504546165466 -0.022403083741664886 0.0108280498534441 0 0 0 0
2166253036 0.13615576922893524 -0.3386627435684204 -0.020388729870319366 0.01373777724802494 0 0 0 0
2169975120 0.1055392175912857 -0.33988645672798157 -0.01830904930830002 0.016694964841008186 0 0 0 0
2173697204 0.07827814668416977 -0.3365877866744995 -0.015754472464323044 0.019712943583726883 0 0 0 0
2177419288 0.0487397164106369 -0.33010146021842957 -0.011961361393332481 0.02234835736453533 0 0 0 0
2181141372 0.025608520954847336 -0.3200761079788208 -0.007760249078273773 0.023880235850811005 0 0 0 0
2184863456 -0.002404823899269104 -0.30635127425193787 -0.0038050543516874313 0.02459675818681717 0 0 0 0
2188585540 -0.02580885961651802 -0.28785815834999084 0.0003238823264837265 0.024872180074453354 0 0 0 0
2192307624 -0.04547278583049774 -0.264638215303421 0.004881300963461399 0.024716198444366455 0 0 0 0
2196029708 -0.06258034706115723 -0.23830197751522064 0.0097428597509861 0.023264801129698753 0 0 0 0
2199751792 -0.07221955060958862 -0.20990252494812012 0.014184616506099701 0.020512806251645088 0 0 0 0
2203473876 -0.07876569032669067 -0.18205389380455017 0.017308082431554794 0.01699296198785305 0 0 0 0
2207195960 -0.08034960925579071 -0.15267245471477509 0.019902408123016357 0.01289643719792366 0 0 0 0
2210918044 -0.07804471254348755 -0.1224236860871315 0.02113010734319687 0.008572926744818687 0 0 0 0
2214640128 -0.06734822690486908 -0.09636333584785461 0.021484164521098137 0.004444950260221958 0 0 0 0
2218362212 -0.057939134538173676 -0.06748583912849426 0.02061091549694538 0.0001833578571677208 0 0 0 0
2222084296 -0.04060199484229088 -0.04400426894426346 0.019155343994498253 -0.0029858779162168503 0 0 0 0
2225806380 -0.019204840064048767 -0.023884234949946404 0.01808830164372921 -0.00534561462700367 0 0 0 0
2229528464 0.00414878036826849 -0.006690137088298798 0.017167363315820694 -0.007884953171014786 0 0 0 0
2233250548 0.030536320060491562 0.005664680153131485 0.015321772545576096 -0.011236850172281265 0 0 0 0
2236972632 0.058740757405757904 0.01484287902712822 0.012818615883588791 -0.01371751632541418 0 0 0 0
2240694716 0.08806237578392029 0.01587691903114319 0.009537048637866974 -0.01600545458495617 0 0 0 0
2244416800 0.11763209104537964 0.011937640607357025 0.005854682065546513 -0.01706187054514885 0 0 0 0
2248138884 0.14517277479171753 0.008203752338886261 0.0024763718247413635 -0.017287418246269226 0 0 0 0
2251860968 0.16959550976753235 -0.009086482226848602 -0.001177891157567501 -0.016703974455595016 0 0 0 0
2255583052 0.19127553701400757 -0.027515538036823273 -0.0041278209537267685 -0.015242272056639194 0 0 0 0
2259305136 0.20868635177612305 -0.047804154455661774 -0.006078952923417091 -0.013399293646216393 0 0 0 0
2263027220 0.22272516787052155 -0.06932583451271057 -0.0073014553636312485 -0.01170376781374216 0 0 0 0
2266749304 0.23019306361675262 -0.09503903985023499 -0.008623601868748665 -0.010308215394616127 0 0 0 0
2270471388 0.23611298203468323 -0.11576468497514725 -0.009497693739831448 -0.008956101723015308 0 0 0 0
2274193472 0.2327427864074707 -0.1433883011341095 -0.01048001553863287 -0.007219881750643253 0 0 0 0
2277915556 0.22778993844985962 -0.16928812861442566 -0.011278210207819939 -0.00594350416213274 0 0 0 0
2281637640 0.21936270594596863 -0.1917116940021515 -0.011968056671321392 -0.004250275902450085 0 0 0 0
2285359724 0.20395730435848236 -0.21235032379627228 -0.012498736381530762 -0.002544068731367588 0 0 0 0
2289081808 0.19123178720474243 -0.22536250948905945 -0.012781918980181217 -0.0007323967292904854 0 0 0 0
2292803892 0.17140042781829834 -0.23825299739837646 -0.012623373419046402 0.001265253871679306 0 0 0 0
2296525976 0.14949339628219604 -0.2485291063785553 -0.011935763992369175 0.0030628982931375504 0 0 0 0
2300248060 0.12907853722572327 -0.2537538409233093 -0.011335587128996849 0.004449796862900257 0 0 0 0
2303970144 0.1146886795759201 -0.2556334137916565 -0.010564757511019707 0.005793058313429356 0 0 0 0
2307692228 0.09015008807182312 -0.2551649510860443 -0.009573372080922127 0.007397227920591831 0 0 0 0
2311414312 0.06944354623556137 -0.25245216488838196 -0.007583918049931526 0.008823740296065807 0 0 0 0
2315136396 0.053950995206832886 -0.24419660866260529 -0.005864392034709454 0.009310905821621418 0 0 0 0
2318858480 0.029372816905379295 -0.23383888602256775 -0.0040842583402991295 0.009064018726348877 0 0 0 0
2322580564 0.014855451881885529 -0.2187151312828064 -0.002938111312687397 0.008821684867143631 0 0 0 0
2326302648 -0.00284644216299057 -0.20187053084373474 -0.0019261958077549934 0.008580219931900501 0 0 0 0
2330024732 -0.010814450681209564 -0.18279573321342468 -0.0011026142165064812 0.008234336972236633 0 0 0 0
2333746816 -0.016331756487488747 -0.16259753704071045 -0.0005729114636778831 0.008119017817080021 0 0 0 0
2337468900 -0.02076258882880211 -0.14002738893032074 0.00038632098585367203 0.008107755333185196 0 0 0 0
2341190984 -0.022986702620983124 -0.11690295487642288 0.0016928687691688538 0.007541107013821602 0 0 0 0
2344913068 -0.019211361184716225 -0.09251714497804642 0.0025208573788404465 0.006617178209125996 0 0 0 0
2348635152 -0.013199122622609138 -0.06923281401395798 0.0028400346636772156 0.005600231699645519 0 0 0 0
2352357236 -0.0006582438945770264 -0.0479804091155529 0.0028609847649931908 0.004799801856279373 0 0 0 0
2356079320 0.01588592678308487 -0.028657807037234306 0.0028088586404919624 0.0038960184901952744 0 0 0 0
2359801404 0.03361513465642929 -0.012377536855638027 0.0028515439480543137 0.0035548554733395576 0 0 0 0
2363523488 0.054889384657144547 0.001132105477154255 0.00264775101095438 0.003014487214386463 0 0 0 0
2367245572 0.07887280732393265 0.01140328124165535 0.002211431972682476 0.0027375509962439537 0 0 0 0
2370967656 0.10446789115667343 0.016599420458078384 0.0018707523122429848 0.002890956588089466 0 0 0 0
2374689740 0.1309472769498825 0.01698068529367447 0.0020071016624569893 0.003071162849664688 0 0 0 0
2378411824 0.15667957067489624 0.01447790116071701 0.0022113872691988945 0.002971208654344082 0 0 0 0
2382133908 0.1817096769809723 0.007267214357852936 0.0024273162707686424 0.0028857672587037086 0 0 0 0
2385855992 0.2054426670074463 -0.004488904029130936 0.0025762012228369713 0.0026626186445355415 0 0 0 0
2389578076 0.22839881479740143 -0.0180349163711071 0.002465618774294853 0.00263158418238163 0 0 0 0
2393300160 0.2470848262310028 -0.039677031338214874 0.002144990488886833 0.0026366207748651505 0 0 0 0
2397022244 0.26272138953208923 -0.06062491983175278 0.0023310650140047073 0.003282013349235058 0 0 0 0
2400744328 0.2754229009151459 -0.08551684021949768 0.0034616095945239067 0.004039367660880089 0 0 0 0
2404466412 0.2844068109989166 -0.11229680478572845 0.004967458546161652 0.004035806283354759 0 0 0 0
2408188496 0.28849130868911743 -0.1405077874660492 0.006265859119594097 0.0032676681876182556 0 0 0 0
2411910580 0.29016390442848206 -0.16829484701156616 0.007453993894159794 0.0021636486053466797 0 0 0 0
2415632664 0.2840457558631897 -0.19771449267864227 0.008108306676149368 0.0007153991609811783 0 0 0 0
2419354748 0.2735382616519928 -0.22382916510105133 0.00858323648571968 -0.0009720129892230034 0 0 0 0
2423076832 0.26014477014541626 -0.2479938268661499 0.008678404614329338 -0.0028586937114596367 0 0 0 0
2426798916 0.24118341505527496 -0.2719045877456665 0.008034048601984978 -0.004879028536379337 0 0 0 0
2430521000 0.22025619447231293 -0.28982019424438477 0.006853089667856693 -0.006436801515519619 0 0 0 0
2434243084 0.19422727823257446 -0.30798786878585815 0.005373929627239704 -0.007477288134396076 0 0 0 0
2437965168 0.16975346207618713 -0.31957244873046875 0.004314388148486614 -0.007961913011968136 0 0 0 0
2441687252 0.14194047451019287 -0.32870763540267944 0.0029307175427675247 -0.008405780419707298 0 0 0 0
2445409336 0.11195409297943115 -0.33395981788635254 0.0019812528043985367 -0.008822930045425892 0 0 0 0
2449131420 0.08323855698108673 -0.3318953514099121 0.0011387700214982033 -0.009226877242326736 0 0 0 0
2452853504 0.054904498159885406 -0.3256373107433319 3.790762275457382e-05 -0.009727698750793934 0 0 0 0
2456575588 0.02466645836830139 -0.3167549967765808 -0.0012277252972126007 -0.010377713479101658 0 0 0 0
2460297672 -0.00029778480529785156 -0.30142295360565186 -0.0029214657843112946 -0.010737381875514984 0 0 0 0
2464019756 -0.023000728338956833 -0.28361979126930237 -0.005019678734242916 -0.011074066162109375 0 0 0 0
2467741840 -0.046006351709365845 -0.26145482063293457 -0.007245088927447796 -0.010541373863816261 0 0 0 0
2471463924 -0.0626782774925232 -0.2375309020280838 -0.009135568514466286 -0.009600434452295303 0 0 0 0
2475186008 -0.07554173469543457 -0.21100261807441711 -0.010942050255835056 -0.008650004863739014 0 0 0 0
2478908092 -0.08599941432476044 -0.18147380650043488 -0.013083618134260178 -0.007011918351054192 0 0 0 0
2482630176 -0.08999412506818771 -0.15173402428627014 -0.014765293337404728 -0.004830516874790192 0 0 0 0
2486352260 -0.08928699791431427 -0.12148381769657135 -0.016077738255262375 -0.0022716401144862175 0 0 0 0
2490074344 -0.08441369980573654 -0.09116309881210327 -0.017028409987688065 0.000588761642575264 0 0 0 0
2493796428 -0.07469595968723297 -0.06126350536942482 -0.017137406393885612 0.003981965593993664 0 0 0 0
2497518512 -0.06080744415521622 -0.03415340930223465 -0.01613660715520382 0.00741036981344223 0 0 0 0
2501240596 -0.04185374453663826 -0.010998159646987915 -0.014722796157002449 0.010208941996097565 0 0 0 0
2504962680 -0.020228538662195206 0.009627804160118103 -0.012690601870417595 0.01272976491600275 0 0 0 0
2508684764 0.004198366776108742 0.025994103401899338 -0.010467533022165298 0.014863486401736736 0 0 0 0
2512406848 0.03027285821735859 0.03812574967741966 -0.007764680311083794 0.016720905900001526 0 0 0 0
2516128932 0.057717110961675644 0.047246817499399185 -0.004108968190848827 0.01830112561583519 0 0 0 0
2519851016 0.08599820733070374 0.05163470283150673 -0.0003504408523440361 0.018495025113224983 0 0 0 0
2523573100 0.11514860391616821 0.050307683646678925 0.0032622767612338066 0.017763329669833183 0 0 0 0
2527295184 0.14282992482185364 0.04588136449456215 0.006616299040615559 0.01614961214363575 0 0 0 0
2531017268 0.1698816567659378 0.03443088382482529 0.009125631302595139 0.014467885717749596 0 0 0 0
2534739352 0.19274677336215973 0.021364979445934296 0.011177684180438519 0.012365198694169521 0 0 0 0
2538461436 0.2130475491285324 0.003342151641845703 0.013295017182826996 0.009718595072627068 0 0 0 0
2542183520 0.23006774485111237 -0.014653787016868591 0.014604587107896805 0.0068252794444561005 0 0 0 0
2545905604 0.24345454573631287 -0.03561720252037048 0.015232231467962265 0.003711378201842308 0 0 0 0
2549627688 0.2544957995414734 -0.05639677867293358 0.01541670598089695 0.0006658043712377548 0 0 0 0
2553349772 0.26129207015037537 -0.08071354031562805 0.014769334346055984 -0.002596244215965271 0 0 0 0
2557071856 0.26279887557029724 -0.10219310969114304 0.01316704973578453 -0.005594771355390549 0 0 0 0
2560793940 0.2646579146385193 -0.12411847710609436 0.011067787185311317 -0.007626757957041264 0 0 0 0
2564516024 0.2595605254173279 -0.14858587086200714 0.008817368187010288 -0.008663434535264969 0 0 0 0
2568238108 0.2544121742248535 -0.16773483157157898 0.006685848347842693 -0.009495828300714493 0 0 0 0
2571960192 0.2458316683769226 -0.1871299147605896 0.004901713691651821 -0.00971921905875206 0 0 0 0
2575682276 0.2340390384197235 -0.2029145509004593 0.003222036175429821 -0.00977308675646782 0 0 0 0
2579404360 0.21977895498275757 -0.2200040966272354 0.0019479217007756233 -0.009413220919668674 0 0 0 0
2583126444 0.20874932408332825 -0.23002900183200836 0.0008793193846940994 -0.00947791151702404 0 0 0 0
2586848528 0.1893511563539505 -0.2449890375137329 -0.0005361661314964294 -0.009847274050116539 0 0 0 0
2590570612 0.17394021153450012 -0.25088372826576233 -0.002123401500284672 -0.0096212113276124 0 0 0 0
2594292696 0.1550976186990738 -0.25674673914909363 -0.00360148586332798 -0.00896504893898964 0 0 0 0
2598014780 0.13625846803188324 -0.26158928871154785 -0.00489895511418581 -0.008066032081842422 0 0 0 0
2601736864 0.11825016140937805 -0.2604970932006836 -0.00616084411740303 -0.007020056247711182 0 0 0 0
2605458948 0.09858830273151398 -0.25798723101615906 -0.00707252137362957 -0.005391408689320087 0 0 0 0
2609181032 0.07898823171854019 -0.25290095806121826 -0.0074538011103868484 -0.00397639162838459 0 0 0 0
2612903116 0.06093742698431015 -0.2432643473148346 -0.007195141166448593 -0.0024721408262848854 0 0 0 0
2616625200 0.049022845923900604 -0.2300531566143036 -0.006690100766718388 -0.0014517810195684433 0 0 0 0
2620347284 0.03778943791985512 -0.2162148505449295 -0.006326472386717796 -0.0006044209003448486 0 0 0 0
2624069368 0.028617244213819504 -0.20219731330871582 -0.00565157737582922 0.0001469198614358902 0 0 0 0
2627791452 0.024150822311639786 -0.1859014630317688 -0.005162486806511879 0.0003276430070400238 0 0 0 0
2631513536 0.021348105743527412 -0.16951316595077515 -0.004795648157596588 0.0004180148243904114 0 0 0 0
2635235620 0.021417364478111267 -0.1540769785642624 -0.004780169576406479 0.0005983877927064896 0 0 0 0
2638957704 0.025382772088050842 -0.1396433711051941 -0.0048175109550356865 0.0008900482207536697 0 0 0 0
2642679788 0.030606459826231003 -0.12796396017074585 -0.004556023515760899 0.0013889763504266739 0 0 0 0
2646401872 0.038083918392658234 -0.11676209419965744 -0.004394120536744595 0.0018324153497815132 0 0 0 0
2650123956 0.04715308919548988 -0.10782521218061447 -0.0041248127818107605 0.0022522294893860817 0 0 0 0
2653846040 0.05568808689713478 -0.10056895762681961 -0.0038120700046420097 0.0026149991899728775 0 0 0 0
2657568124 0.06845281273126602 -0.09544966369867325 -0.0035069724544882774 0.002927526831626892 0 0 0 0
2661290208 0.08117129653692245 -0.09405019134283066 -0.0031289057806134224 0.003146739676594734 0 0 0 0
2665012292 0.09318355470895767 -0.09518401324748993 -0.0029493141919374466 0.003509359434247017 0 0 0 0
2668734376 0.10241163522005081 -0.09925378113985062 -0.00229652039706707 0.004030562937259674 0 0 0 0
2672456460 0.11132428050041199 -0.10557955503463745 -0.0016804737970232964 0.00431461539119482 0 0 0 0
2676178544 0.117164745926857 -0.11232172697782516 -0.0008947206661105156 0.004257901571691036 0 0 0 0
2679900628 0.122496098279953 -0.12032380700111389 -0.00014310237020254135 0.0042447661980986595 0 0 0 0
2683622712 0.1262970268726349 -0.1277093142271042 0.0005024131387472153 0.0040020570158958435 0 0 0 0
2687344796 0.1266806274652481 -0.1369316279888153 0.0010409699752926826 0.0036538271233439445 0 0 0 0
2691066880 0.12575367093086243 -0.1455121785402298 0.0013210643082857132 0.003157263621687889 0 0 0 0
2694788964 0.12112300843000412 -0.15529242157936096 0.0013838307932019234 0.002964865416288376 0 0 0 0
2698511048 0.12074969708919525 -0.16110944747924805 0.0017233975231647491 0.0031652897596359253 0 0 0 0
2702233132 0.11366424709558487 -0.16858191788196564 0.002780616283416748 0.002926494926214218 0 0 0 0
2705955216 0.10669966042041779 -0.17557688057422638 0.0036040237173438072 0.0022024549543857574 0 0 0 0
2709677300 0.09875861555337906 -0.1818285882472992 0.0039107222110033035 0.001145155169069767 0 0 0 0
2713399384 0.08922826498746872 -0.18639934062957764 0.0038567334413528442 0.0002176417037844658 0 0 0 0
2717121468 0.07890589535236359 -0.18806318938732147 0.0035539092496037483 -0.0005350494757294655 0 0 0 0
2720843552 0.06784947216510773 -0.18811047077178955 0.0034223096445202827 -0.0012415340170264244 0 0 0 0
2724565636 0.05310409888625145 -0.18772730231285095 0.0029322411864995956 -0.001823732629418373 0 0 0 0
2728287720 0.03991285711526871 -0.18224583566188812 0.0022471724078059196 -0.0021504871547222137 0 0 0 0
2732009804 0.031244002282619476 -0.17463234066963196 0.001814344897866249 -0.002324647270143032 0 0 0 0
2735731888 0.019637545570731163 -0.16466130316257477 0.0013852296397089958 -0.002160429023206234 0 0 0 0
2739453972 0.012146491557359695 -0.1533336639404297 0.0011385409161448479 -0.002245829440653324 0 0 0 0
2743176056 0.002826385200023651 -0.13936078548431396 0.0009330222383141518 -0.0022796224802732468 0 0 0 0
2746898140 -0.0017562620341777802 -0.12424128502607346 0.0007931916043162346 -0.0022196369245648384 0 0 0 0
2750620224 -0.00348789244890213 -0.1084240972995758 0.0007742606103420258 -0.0023721856996417046 0 0 0 0
2754342308 -0.002650350332260132 -0.09170863777399063 0.0007843952625989914 -0.0026819128543138504 0 0 0 0
2758064392 -0.0007703453302383423 -0.07516380399465561 0.00036710966378450394 -0.0031089093536138535 0 0 0 0
2761786476 0.005601085722446442 -0.058534733951091766 -0.00026055239140987396 -0.0033392421901226044 0 0 0 0
2765508560 0.014393475838005543 -0.04159796983003616 -0.0010312460362911224 -0.0031954078003764153 0 0 0 0
2769230644 0.026225049048662186 -0.026466403156518936 -0.001588132232427597 -0.0026903562247753143 0 0 0 0
2772952728 0.04212862625718117 -0.013167203404009342 -0.0017195753753185272 -0.0022844653576612473 0 0 0 0
2776674812 0.059921544045209885 -0.0024947933852672577 -0.0015192963182926178 -0.0020710211247205734 0 0 0 0
2780396896 0.07991000264883041 0.004613742232322693 -0.001640230417251587 -0.001967380754649639 0 0 0 0
2784118980 0.10070006549358368 0.008485039696097374 -0.0021078120917081833 -0.0019108261913061142 0 0 0 0
2787841064 0.12163230776786804 0.009533438831567764 -0.00224936380982399 -0.001473311334848404 0 0 0 0
2791563148 0.14377696812152863 0.006234221160411835 -0.0022999076172709465 -0.001148916780948639 0 0 0 0
2795285232 0.1650199145078659 0.0013672634959220886 -0.00236478541046381 -0.0007911780849099159 0 0 0 0
2799007316 0.18706119060516357 -0.010255372151732445 -0.002147945575416088 -0.0005303351208567619 0 0 0 0
2802729400 0.20707714557647705 -0.023262150585651398 -0.002016086131334305 -0.0004516672343015671 0 0 0 0
2806451484 0.2222098410129547 -0.04159156233072281 -0.002286297269165516 -0.0005113175138831139 0 0 0 0
2810173568 0.23789483308792114 -0.057197559624910355 -0.002433186396956444 -0.00017347559332847595 0 0 0 0
2813895652 0.24833232164382935 -0.08376815915107727 -0.002532179467380047 0.0004570102319121361 0 0 0 0
2817617736 0.25741249322891235 -0.10278213024139404 -0.0022521493956446648 0.0009623980149626732 0 0 0 0
2821339820 0.2599065899848938 -0.13135653734207153 -0.0018314532935619354 0.001410224474966526 0 0 0 0
2825061904 0.2596210837364197 -0.15565527975559235 -0.0015060016885399818 0.0017419541254639626 0 0 0 0
2828783988 0.25645920634269714 -0.17857380211353302 -0.0008727600798010826 0.001867426559329033 0 0 0 0
2832506072 0.24787750840187073 -0.20103266835212708 -0.00029897037893533707 0.001859704963862896 0 0 0 0
2836228156 0.23781612515449524 -0.22332799434661865 0.0001547178253531456 0.0017378851771354675 0 0 0 0
2839950240 0.22231951355934143 -0.24729886651039124 0.00067147146910429 0.0014748284593224525 0 0 0 0
2843672324 0.20599593222141266 -0.26307412981987 0.0010852459818124771 0.0010245349258184433 0 0 0 0
2847394408 0.1909806877374649 -0.27761319279670715 0.00131185632199049 0.0005775494500994682 0 0 0 0
2851116492 0.16902169585227966 -0.2916266620159149 0.0013029975816607475 0.0001312047243118286 0 0 0 0
2854838576 0.14759516716003418 -0.3025525212287903 0.0010384786874055862 -0.0003393525257706642 0 0 0 0
2858560660 0.1305471658706665 -0.3115489184856415 0.001009250059723854 -0.0008784355595707893 0 0 0 0
2862282744 0.10231389105319977 -0.31703054904937744 0.0005263369530439377 -0.0009041000157594681 0 0 0 0
2866004828 0.08113689720630646 -0.3174890875816345 0.0005807047709822655 -0.000718158669769764 0 0 0 0
2869726912 0.056654565036296844 -0.3169116973876953 0.0007017031311988831 -0.0008550742641091347 0 0 0 0
2873448996 0.031063202768564224 -0.3133336901664734 0.0006497511640191078 -0.0009072916582226753 0 0 0 0
2877171080 0.006547987461090088 -0.3056011199951172 0.0005482695996761322 -0.001024775207042694 0 0 0 0
2880893164 -0.014342613518238068 -0.2979891002178192 0.0003889473155140877 -0.0011371197178959846 0 0 0 0
2884615248 -0.03846147283911705 -0.28366339206695557 0.00023240968585014343 -0.0012002550065517426 0 0 0 0
2888337332 -0.05451849102973938 -0.26900407671928406 0.00014925561845302582 -0.001111108809709549 0 0 0 0
2892059416 -0.07334820181131363 -0.250509113073349 3.674160689115524e-05 -0.0010183816775679588 0 0 0 0
2895781500 -0.08814813941717148 -0.23063550889492035 -2.3769214749336243e-05 -0.0010739406570792198 0 0 0 0
2899503584 -0.10147418081760406 -0.208245187997818 -0.00024000834673643112 -0.0009947549551725388 0 0 0 0
2903225668 -0.11283642053604126 -0.18238680064678192 -0.00024525634944438934 -0.0007976330816745758 0 0 0 0
2906947752 -0.11807620525360107 -0.15772363543510437 -0.00030238740146160126 -0.000690157525241375 0 0 0 0
2910669836 -0.1203337013721466 -0.13117744028568268 -0.00018124282360076904 -0.0005658380687236786 0 0 0 0
2914391920 -0.11842761933803558 -0.10460973531007767 -0.0003209151327610016 -0.0003691287711262703 0 0 0 0
2918114004 -0.11347135156393051 -0.08058200776576996 3.679748624563217e-05 -0.00033065956085920334 0 0 0 0
2921836088 -0.10608375072479248 -0.057674966752529144 2.3381784558296204e-05 -0.0002979375422000885 0 0 0 0
2925558172 -0.09817163646221161 -0.03395118564367294 0.00027718860656023026 -0.0003901459276676178 0 0 0 0
2929280256 -0.08583494275808334 -0.0126615259796381 0.00032061710953712463 -0.00028805527836084366 0 0 0 0
2933002340 -0.07118554413318634 0.008695585653185844 0.00012381281703710556 -0.00035222433507442474 0 0 0 0
2936724424 -0.05286650359630585 0.02752983570098877 5.503557622432709e-05 -0.0003334563225507736 0 0 0 0
2940446508 -0.03335672616958618 0.042834073305130005 8.549541234970093e-06 -0.0003447132185101509 0 0 0 0
2944168592 -0.01104620099067688 0.05668565630912781 -0.00019712094217538834 -0.00019946228712797165 0 0 0 0
2947890676 0.013139298185706139 0.06769915670156479 -3.7680380046367645e-05 6.691273301839828e-05 0 0 0 0
2951612760 0.037297867238521576 0.0756504014134407 2.9892660677433014e-05 0.000489475205540657 0 0 0 0
2955334844 0.06277132034301758 0.0810224711894989 0.00022519472986459732 0.0006594695150852203 0 0 0 0
2959056928 0.09086240082979202 0.08112753182649612 0.0007266327738761902 0.0006940625607967377 0 0 0 0
2962779012 0.11848260462284088 0.07620899379253387 0.0009835651144385338 0.0008989321067929268 0 0 0 0
2966501096 0.14435820281505585 0.06768496334552765 0.0016870219260454178 0.0009151650592684746 0 0 0 0
2970223180 0.16767676174640656 0.05780600383877754 0.0020936010405421257 0.00043125543743371964 0 0 0 0
2973945264 0.1899787336587906 0.042754799127578735 0.0022969925776124 -0.00017254985868930817 0 0 0 0
2977667348 0.20954272150993347 0.025989660993218422 0.002370898611843586 -0.0007271375507116318 0 0 0 0
2981389432 0.2271713763475418 0.0076429583132267 0.0021942052990198135 -0.0010953238233923912 0 0 0 0
2985111516 0.24104845523834229 -0.012265041470527649 0.0019193356856703758 -0.001300770789384842 0 0 0 0
2988833600 0.25213170051574707 -0.03515390306711197 0.0016463007777929306 -0.0016117244958877563 0 0 0 0
2992555684 0.25964492559432983 -0.05717567354440689 0.0013672448694705963 -0.0017712321132421494 0 0 0 0
2996277768 0.26474452018737793 -0.07927000522613525 0.000907515175640583 -0.0016926322132349014 0 0 0 0
2999999852 0.2676738500595093 -0.1039309948682785 0.0009059691801667213 -0.0017720703035593033 0 0 0 0
