# HZ S RI R 50
1500000000 -0.15270139276981354 0.004282703623175621 0.07239891588687897 -0.032935332506895065 0 0 0 0
1503722084 -0.12645094096660614 0.03933851420879364 0.06374014168977737 -0.04533820599317551 0 0 0 0
1507444168 -0.09420496225357056 0.06767649203538895 0.05283033475279808 -0.05547499656677246 0 0 0 0
1511166252 -0.05517522245645523 0.09224344789981842 0.03937172889709473 -0.06311434507369995 0 0 0 0
1514888336 -0.012958131730556488 0.10945922136306763 0.025260847061872482 -0.06683050841093063 0 0 0 0
1518610420 0.03392188251018524 0.12009964883327484 0.011215469799935818 -0.06717085838317871 0 0 0 0
1522332504 0.08337715268135071 0.1217612624168396 -0.0008710315451025963 -0.06464031338691711 0 0 0 0
1526054588 0.13254882395267487 0.1150849312543869 -0.011632474139332771 -0.06007415056228638 0 0 0 0
1529776672 0.181437149643898 0.10061144828796387 -0.020705290138721466 -0.05422181636095047 0 0 0 0
1533498756 0.22793474793434143 0.07764878123998642 -0.02799726277589798 -0.04679083079099655 0 0 0 0
1537220840 0.27172714471817017 0.046325355768203735 -0.03284776210784912 -0.03890947997570038 0 0 0 0
1540942924 0.3104672431945801 0.005073957145214081 -0.03572496026754379 -0.031164880841970444 0 0 0 0
1544665008 0.3410152792930603 -0.04029407352209091 -0.037008192390203476 -0.0244363434612751 0 0 0 0
1548387092 0.36401137709617615 -0.09218133240938187 -0.03804692253470421 -0.01821834407746792 0 0 0 0
1552109176 0.37821391224861145 -0.14740829169750214 -0.038424842059612274 -0.012378637678921223 0 0 0 0
1555831260 0.38543039560317993 -0.2007276713848114 -0.03799628093838692 -0.006642180494964123 0 0 0 0
1559553344 0.3826732039451599 -0.25742605328559875 -0.03663429617881775 -0.001169458031654358 0 0 0 0
1563275428 0.36908432841300964 -0.31736549735069275 -0.034497205168008804 0.003694121725857258 0 0 0 0
1566997512 0.3505690097808838 -0.37040331959724426 -0.032013777643442154 0.007997809909284115 0 0 0 0
1570719596 0.32099536061286926 -0.42235639691352844 -0.029072962701320648 0.01106725912541151 0 0 0 0
1574441680 0.2813568413257599 -0.4691542387008667 -0.025980759412050247 0.013744748197495937 0 0 0 0
1578163764 0.2397061288356781 -0.5085711479187012 -0.023547552525997162 0.015571060590445995 0 0 0 0
1581885848 0.18912239372730255 -0.5394159555435181 -0.021122200414538383 0.0173420961946249 0 0 0 0
1585607932 0.1370081901550293 -0.5638642311096191 -0.01830901950597763 0.01929488405585289 0 0 0 0
1589330016 0.08357538282871246 -0.5818800926208496 -0.0158500075340271 0.02062414400279522 0 0 0 0
1593052100 0.021869122982025146 -0.592275083065033 -0.013307856395840645 0.021822329610586166 0 0 0 0
1596774184 -0.03630155324935913 -0.5947668552398682 -0.011183079332113266 0.022894755005836487 0 0 0 0
1600496268 -0.09769053757190704 -0.5877021551132202 -0.008541210554540157 0.02443789318203926 0 0 0 0
1604218352 -0.15603506565093994 -0.5727854371070862 -0.0054482873529195786 0.025982774794101715 0 0 0 0
1607940436 -0.2109706848859787 -0.5470340847969055 -0.0012618377804756165 0.026916569098830223 0 0 0 0
1611662520 -0.2652285099029541 -0.5151717662811279 0.0026418082416057587 0.02703663520514965 0 0 0 0
1615384604 -0.31601154804229736 -0.47292444109916687 0.006856824271380901 0.02632099762558937 0 0 0 0
1619106688 -0.35802996158599854 -0.42674505710601807 0.010946357622742653 0.02516215108335018 0 0 0 0
1622828772 -0.39409559965133667 -0.37439703941345215 0.015019169077277184 0.023509927093982697 0 0 0 0
1626550856 -0.42185452580451965 -0.31629201769828796 0.019196277484297752 0.020786507055163383 0 0 0 0
1630272940 -0.4422086477279663 -0.2545621991157532 0.022759675979614258 0.016858557239174843 0 0 0 0
1633995024 -0.4559290111064911 -0.1906161904335022 0.02537824586033821 0.012292060069739819 0 0 0 0
1637717108 -0.4604841470718384 -0.12147268652915955 0.026992037892341614 0.00717061385512352 0 0 0 0
1641439192 -0.45566925406455994 -0.053637176752090454 0.027181921526789665 0.0017916606739163399 0 0 0 0
1645161276 -0.4398741126060486 0.01865626685321331 0.026087984442710876 -0.002990998327732086 0 0 0 0
1648883360 -0.4123619794845581 0.08649829030036926 0.024586066603660583 -0.007258012890815735 0 0 0 0
1652605444 -0.3729475140571594 0.15135976672172546 0.022328760474920273 -0.011406775563955307 0 0 0 0
1656327528 -0.3249158561229706 0.2085796594619751 0.01936832256615162 -0.014904607087373734 0 0 0 0
1660049612 -0.26905378699302673 0.25719910860061646 0.01574975624680519 -0.017530065029859543 0 0 0 0
1663771696 -0.20394936203956604 0.29989057779312134 0.011670625768601894 -0.019367927685379982 0 0 0 0
1667493780 -0.13345523178577423 0.33269697427749634 0.007582697086036205 -0.020451035350561142 0 0 0 0
1671215864 -0.05678275227546692 0.35513681173324585 0.0033873673528432846 -0.02079027332365513 0 0 0 0
1674937948 0.022958502173423767 0.36653292179107666 -0.0010443972423672676 -0.01980012282729149 0 0 0 0
1678660032 0.10349966585636139 0.3644334077835083 -0.004464338533580303 -0.017666634172201157 0 0 0 0
1682382116 0.18605099618434906 0.3481598198413849 -0.006780427880585194 -0.015251888893544674 0 0 0 0
1686104200 0.26657870411872864 0.3177505135536194 -0.008669231086969376 -0.012597482651472092 0 0 0 0
1689826284 0.33928677439689636 0.2747189700603485 -0.009630233980715275 -0.009976271539926529 0 0 0 0
1693548368 0.40441012382507324 0.22066017985343933 -0.010052316822111607 -0.007451157085597515 0 0 0 0
1697270452 0.4567708969116211 0.1600426733493805 -0.009839130565524101 -0.005124896764755249 0 0 0 0
1700992536 0.5024778842926025 0.08694566786289215 -0.009117916226387024 -0.0033208755776286125 0 0 0 0
1704714620 0.5336772203445435 0.011582329869270325 -0.008238743990659714 -0.002061189152300358 0 0 0 0
1708436704 0.552710235118866 -0.06658748537302017 -0.007405264303088188 -0.0011525899171829224 0 0 0 0
1712158788 0.5590153336524963 -0.14812755584716797 -0.00649508461356163 -0.0006451979279518127 0 0 0 0
1715880872 0.5537063479423523 -0.22616232931613922 -0.005913469009101391 -0.00044327881187200546 0 0 0 0
1719602956 0.5348880887031555 -0.3017556071281433 -0.005510670132935047 -0.0002133399248123169 0 0 0 0
1723325040 0.5042221546173096 -0.3757708966732025 -0.005105088464915752 -2.6785768568515778e-05 0 0 0 0
1727047124 0.46529433131217957 -0.44073086977005005 -0.004820125177502632 0.0001373831182718277 0 0 0 0
1730769208 0.4161662459373474 -0.4997197985649109 -0.004699351266026497 0.000248689204454422 0 0 0 0
1734491292 0.3583589494228363 -0.5497121810913086 -0.004486146382987499 0.0002529723569750786 0 0 0 0
1738213376 0.2920286953449249 -0.5922587513923645 -0.0043984223157167435 0.0002666451036930084 0 0 0 0
1741935460 0.22814776003360748 -0.6174885630607605 -0.004441527649760246 6.969086825847626e-05 0 0 0 0
1745657544 0.15364158153533936 -0.6358344554901123 -0.004906495101749897 -6.178673356771469e-05 0 0 0 0
1749379628 0.08503901958465576 -0.6419388651847839 -0.005402248352766037 0.0003397958353161812 0 0 0 0
1753101712 0.014845041558146477 -0.63636714220047 -0.0056866127997636795 0.0008713752031326294 0 0 0 0
1756823796 -0.0547642707824707 -0.6206858158111572 -0.005854004994034767 0.001314978115260601 0 0 0 0
1760545880 -0.11553464829921722 -0.595246434211731 -0.006121492013335228 0.00192162673920393 0 0 0 0
1764267964 -0.17507049441337585 -0.5607255101203918 -0.006201022304594517 0.0023443344980478287 0 0 0 0
1767990048 -0.222284734249115 -0.5223562121391296 -0.006333507597446442 0.0027665598317980766 0 0 0 0
1771712132 -0.26706522703170776 -0.47369682788848877 -0.006765519268810749 0.003166080452501774 0 0 0 0
1775434216 -0.29921647906303406 -0.4232776165008545 -0.007662104442715645 0.0038218125700950623 0 0 0 0
1779156300 -0.32611143589019775 -0.36819660663604736 -0.00867839902639389 0.005313416011631489 0 0 0 0
1782878384 -0.345107764005661 -0.3120479881763458 -0.009350718930363655 0.007456470280885696 0 0 0 0
1786600468 -0.356230229139328 -0.2527206242084503 -0.009300539270043373 0.010408895090222359 0 0 0 0
1790322552 -0.358503133058548 -0.1944347321987152 -0.0082477992400527 0.013618426397442818 0 0 0 0
1794044636 -0.3519800007343292 -0.13895481824874878 -0.006079253740608692 0.01651718094944954 0 0 0 0
1797766720 -0.33876773715019226 -0.08192891627550125 -0.003194858320057392 0.018902365118265152 0 0 0 0
1801488804 -0.31789833307266235 -0.02813410386443138 0.0004426203668117523 0.020927265286445618 0 0 0 0
1805210888 -0.288722425699234 0.021279335021972656 0.0047089168801903725 0.022389817982912064 0 0 0 0
1808932972 -0.2523883581161499 0.06686927378177643 0.00995404738932848 0.02294197306036949 0 0 0 0
1812655056 -0.20780938863754272 0.10627855360507965 0.015574704855680466 0.02179768681526184 0 0 0 0
1816377140 -0.1577712744474411 0.13709525763988495 0.020976558327674866 0.0191813837736845 0 0 0 0
1820099224 -0.10348837077617645 0.15833549201488495 0.026095500215888023 0.01530324388295412 0 0 0 0
1823821308 -0.04789771884679794 0.16877007484436035 0.030245698988437653 0.009593411348760128 0 0 0 0
1827543392 0.00817757099866867 0.17051498591899872 0.03252352401614189 0.0027001695707440376 0 0 0 0
1831265476 0.06141487881541252 0.16220565140247345 0.03272426873445511 -0.004805169999599457 0 0 0 0
1834987560 0.10993275791406631 0.1461571455001831 0.0314146988093853 -0.01123080775141716 0 0 0 0
1838709644 0.15543687343597412 0.12285281717777252 0.028507854789495468 -0.017391912639141083 0 0 0 0
1842431728 0.1939549595117569 0.09565462172031403 0.02479376457631588 -0.022672757506370544 0 0 0 0
1846153812 0.22729061543941498 0.06259354948997498 0.019982527941465378 -0.02683858945965767 0 0 0 0
1849875896 0.2534167170524597 0.025934278964996338 0.014577426947653294 -0.029793821275234222 0 0 0 0
1853597980 0.27509549260139465 -0.013056036084890366 0.0091494619846344 -0.03183842822909355 0 0 0 0
1857320064 0.2889738976955414 -0.05446889251470566 0.004104120656847954 -0.033124636858701706 0 0 0 0
1861042148 0.2958357036113739 -0.09643451869487762 -0.0014894325286149979 -0.03391742706298828 0 0 0 0
1864764232 0.2948838770389557 -0.1359911561012268 -0.0072373636066913605 -0.034116510301828384 0 0 0 0
1868486316 0.28746655583381653 -0.17632398009300232 -0.01414482481777668 -0.032716646790504456 0 0 0 0
1872208400 0.2774311304092407 -0.20977962017059326 -0.0199446901679039 -0.029679767787456512 0 0 0 0
1875930484 0.2591798007488251 -0.2449796348810196 -0.025116488337516785 -0.02561449259519577 0 0 0 0
1879652568 0.2364421784877777 -0.27488964796066284 -0.028711259365081787 -0.021219126880168915 0 0 0 0
1883374652 0.2139778882265091 -0.29815873503685 -0.032221730798482895 -0.01649242639541626 0 0 0 0
1887096736 0.1837986260652542 -0.3189098536968231 -0.03560098633170128 -0.011062663048505783 0 0 0 0
1890818820 0.15179291367530823 -0.3342987298965454 -0.03794091194868088 -0.004700302146375179 0 0 0 0
1894540904 0.11924051493406296 -0.3421734571456909 -0.03905842453241348 0.0025613801553845406 0 0 0 0
1898262988 0.08512108027935028 -0.34487971663475037 -0.03848908841609955 0.010002167895436287 0 0 0 0
1901985072 0.05042935162782669 -0.34144923090934753 -0.03606664761900902 0.01778462529182434 0 0 0 0
1905707156 0.0239618718624115 -0.3303690254688263 -0.03204099088907242 0.02344149351119995 0 0 0 0
1909429240 -0.005043564364314079 -0.3169819712638855 -0.02728300169110298 0.028643162921071053 0 0 0 0
1913151324 -0.028675546869635582 -0.2989990711212158 -0.02226961776614189 0.03294270858168602 0 0 0 0
1916873408 -0.048875562846660614 -0.2781142592430115 -0.015959057956933975 0.03704168647527695 0 0 0 0
1920595492 -0.06512731313705444 -0.2535446584224701 -0.00890946015715599 0.04004989191889763 0 0 0 0
1924317576 -0.07595781981945038 -0.22711291909217834 -0.0010346481576561928 0.04155406355857849 0 0 0 0
1928039660 -0.08126245439052582 -0.20064958930015564 0.0076163150370121 0.040956273674964905 0 0 0 0
1931761744 -0.08472181856632233 -0.17319367825984955 0.01580432802438736 0.038074541836977005 0 0 0 0
1935483828 -0.08161758631467819 -0.1472475826740265 0.02251232974231243 0.033192239701747894 0 0 0 0
1939205912 -0.07591216266155243 -0.12038623541593552 0.027378076687455177 0.02749989926815033 0 0 0 0
1942927996 -0.06432990729808807 -0.0951942652463913 0.030636727809906006 0.021793514490127563 0 0 0 0
1946650080 -0.048872627317905426 -0.07208935171365738 0.03284651041030884 0.016271039843559265 0 0 0 0
1950372164 -0.029108725488185883 -0.05199183523654938 0.03471533954143524 0.010682789608836174 0 0 0 0
1954094248 -0.004975144751369953 -0.03606283292174339 0.03616071119904518 0.005254632793366909 0 0 0 0
1957816332 0.021265527233481407 -0.025949181988835335 0.03737783432006836 -0.0011078696697950363 0 0 0 0
1961538416 0.04862255975604057 -0.02062634564936161 0.03659193217754364 -0.008433012291789055 0 0 0 0
1965260500 0.07647771388292313 -0.02001555636525154 0.0342671200633049 -0.014765257015824318 0 0 0 0
1968982584 0.10426855832338333 -0.02491600811481476 0.030859578400850296 -0.020889179781079292 0 0 0 0
1972704668 0.12948249280452728 -0.03562776744365692 0.02648140676319599 -0.0260869562625885 0 0 0 0
1976426752 0.15337158739566803 -0.04850876331329346 0.021529341116547585 -0.030550844967365265 0 0 0 0
1980148836 0.1736413836479187 -0.06710265576839447 0.015325181186199188 -0.03440362960100174 0 0 0 0
1983870920 0.19055137038230896 -0.09100313484668732 0.007970236241817474 -0.03731783106923103 0 0 0 0
1987593004 0.2037489116191864 -0.1156342476606369 0.0006425920873880386 -0.037939030677080154 0 0 0 0
1991315088 0.20877483487129211 -0.14397500455379486 -0.00682168360799551 -0.03702991455793381 0 0 0 0
1995037172 0.20935353636741638 -0.17175951600074768 -0.013983752578496933 -0.03442442789673805 0 0 0 0
1998759256 0.2062438726425171 -0.19676126539707184 -0.01988396979868412 -0.030002301558852196 0 0 0 0
2002481340 0.19587792456150055 -0.2225053310394287 -0.023919727653265 -0.025349928066134453 0 0 0 0
2006203424 0.18018753826618195 -0.24574559926986694 -0.027635982260107994 -0.020659472793340683 0 0 0 0
2009925508 0.16417968273162842 -0.26362356543540955 -0.03004332073032856 -0.016035456210374832 0 0 0 0
2013647592 0.14713867008686066 -0.2781214416027069 -0.03273841366171837 -0.01148503553122282 0 0 0 0
2017369676 0.1246696338057518 -0.29201751947402954 -0.03488742932677269 -0.005227453075349331 0 0 0 0
2021091760 0.10392703860998154 -0.30082181096076965 -0.03606167435646057 0.0011816415935754776 0 0 0 0
2024813844 0.07835403084754944 -0.3066343367099762 -0.03533586487174034 0.008496357128024101 0 0 0 0
2028535928 0.0512545108795166 -0.3081786036491394 -0.0324908047914505 0.015744224190711975 0 0 0 0
2032258012 0.028098195791244507 -0.30529820919036865 -0.02829178422689438 0.021005909889936447 0 0 0 0
2035980096 0.0030156075954437256 -0.29864054918289185 -0.02312747947871685 0.025086093693971634 0 0 0 0
2039702180 -0.022871550172567368 -0.2873336374759674 -0.01804395206272602 0.027792751789093018 0 0 0 0
2043424264 -0.045475833117961884 -0.27121374011039734 -0.012865233235061169 0.02986769750714302 0 0 0 0
2047146348 -0.06556794792413712 -0.252502977848053 -0.007721317932009697 0.030849842354655266 0 0 0 0
2050868432 -0.08343637734651566 -0.23052963614463806 -0.003028303384780884 0.031209925189614296 0 0 0 0
2054590516 -0.09770640730857849 -0.2043878138065338 0.002334234304726124 0.031499817967414856 0 0 0 0
2058312600 -0.1069021075963974 -0.1759970784187317 0.007209669798612595 0.030464351177215576 0 0 0 0
2062034684 -0.11204259842634201 -0.14668403565883636 0.012163746170699596 0.02849636599421501 0 0 0 0
2065756768 -0.11353059858083725 -0.11585310101509094 0.01656714826822281 0.025774190202355385 0 0 0 0
2069478852 -0.10932929068803787 -0.0836847797036171 0.020226910710334778 0.022155078127980232 0 0 0 0
2073200936 -0.10028133541345596 -0.051349788904190063 0.023423898965120316 0.01844002492725849 0 0 0 0
2076923020 -0.08462361246347427 -0.020084116607904434 0.02532491460442543 0.01387922465801239 0 0 0 0
2080645104 -0.06320545077323914 0.008503444492816925 0.026304032653570175 0.010188279673457146 0 0 0 0
2084367188 -0.03633345663547516 0.03255271911621094 0.0271183829754591 0.00609298050403595 0 0 0 0
2088089272 -0.005330996587872505 0.05199868232011795 0.027626793831586838 0.003034026362001896 0 0 0 0
2091811356 0.028615348041057587 0.06559817492961884 0.028513656929135323 -0.0006336849182844162 0 0 0 0
2095533440 0.06451822817325592 0.07278808206319809 0.029415065422654152 -0.005498870275914669 0 0 0 0
2099255524 0.10087382793426514 0.07376816868782043 0.029270630329847336 -0.010804167948663235 0 0 0 0
2102977608 0.13670119643211365 0.0688350647687912 0.02737426571547985 -0.016598308458924294 0 0 0 0
2106699692 0.17120172083377838 0.058885954320430756 0.02391648292541504 -0.02246989868581295 0 0 0 0
2110421776 0.2034025937318802 0.04323041811585426 0.0188398789614439 -0.02692173235118389 0 0 0 0
2114143860 0.2335292398929596 0.022499531507492065 0.013302703388035297 -0.029753707349300385 0 0 0 0
2117865944 0.25867968797683716 -0.0036961883306503296 0.007465279661118984 -0.03154744952917099 0 0 0 0
2121588028 0.278942346572876 -0.03427852317690849 0.001281166449189186 -0.03274250030517578 0 0 0 0
2125310112 0.29327213764190674 -0.06610765308141708 -0.00550430454313755 -0.03256834298372269 0 0 0 0
2129032196 0.30243971943855286 -0.09913235902786255 -0.012451907619833946 -0.030151324346661568 0 0 0 0
2132754280 0.3060612380504608 -0.1323322057723999 -0.017931785434484482 -0.02578723058104515 0 0 0 0
2136476364 0.30500322580337524 -0.166147381067276 -0.021769793704152107 -0.020816553384065628 0 0 0 0
2140198448 0.2969737946987152 -0.200194850564003 -0.023651836439967155 -0.015362237580120564 0 0 0 0
2143920532 0.2845543622970581 -0.23166872560977936 -0.024355893954634666 -0.011027024127542973 0 0 0 0
2147642616 0.2683754563331604 -0.25847020745277405 -0.02474585548043251 -0.007025878876447678 0 0 0 0
2151364700 0.2467394769191742 -0.28260132670402527 -0.024868067353963852 -0.0034496020525693893 0 0 0 0
2155086784 0.22295841574668884 -0.30288052558898926 -0.024694854393601418 0.00024036969989538193 0 0 0 0
2158808868 0.1954353004693985 -0.31940630078315735 -0.02440493367612362 0.0037167035043239594 0 0 0 0
2162530952 0.16842633485794067 -0.33041858673095703 -0.023302538320422173 0.007151844911277294 0 0 0 0
2166253036 0.1369185447692871 -0.33736974000930786 -0.021792137995362282 0.010431662201881409 0 0 0 0
2169975120 0.10638156533241272 -0.338932067155838 -0.02025977335870266 0.013519572094082832 0 0 0 0
2173697204 0.07860475778579712 -0.33662620186805725 -0.01828879863023758 0.01690032333135605 0 0 0 0
2177419288 0.05096191540360451 -0.3298177421092987 -0.015660090371966362 0.020179737359285355 0 0 0 0
2181141372 0.026214875280857086 -0.3196812570095062 -0.01189122162759304 0.02269136533141136 0 0 0 0
2184863456 -0.0022991150617599487 -0.3056028485298157 -0.007617573253810406 0.02430075779557228 0 0 0 0
2188585540 -0.022593259811401367 -0.28698229789733887 -0.003550587221980095 0.02529717981815338 0 0 0 0
2192307624 -0.04273257404565811 -0.2639971971511841 0.0005981680005788803 0.025822166353464127 0 0 0 0
2196029708 -0.059934139251708984 -0.2388772815465927 0.005613232962787151 0.02582571655511856 0 0 0 0
2199751792 -0.06944641470909119 -0.21238973736763 0.010707356967031956 0.02458547055721283 0 0 0 0
2203473876 -0.07673464715480804 -0.1833290159702301 0.015828745439648628 0.021337099373340607 0 0 0 0
2207195960 -0.07677595317363739 -0.1572147160768509 0.019312826916575432 0.01772179640829563 0 0 0 0
2210918044 -0.0790027529001236 -0.12511512637138367 0.021839214488863945 0.013006776571273804 0 0 0 0
2214640128 -0.06999580562114716 -0.0974331721663475 0.02325156331062317 0.007952396757900715 0 0 0 0
2218362212 -0.05804869160056114 -0.07134519517421722 0.023388538509607315 0.003209752030670643 0 0 0 0
2222084296 -0.04240422695875168 -0.04631178081035614 0.022222109138965607 -0.0011126454919576645 0 0 0 0
2225806380 -0.02131144143640995 -0.025353625416755676 0.020706765353679657 -0.004656678065657616 0 0 0 0
2229528464 0.0031510917469859123 -0.007574976421892643 0.019255904480814934 -0.007542802020907402 0 0 0 0
2233250548 0.02953401952981949 0.004534125328063965 0.01749841310083866 -0.010508723556995392 0 0 0 0
2236972632 0.05736280605196953 0.011591458693146706 0.015100356191396713 -0.013488898053765297 0 0 0 0
2240694716 0.0858408585190773 0.0123569555580616 0.0121696088463068 -0.015918808057904243 0 0 0 0
2244416800 0.11301245540380478 0.006716069765388966 0.008451451547443867 -0.01768455095589161 0 0 0 0
2248138884 0.13836808502674103 0.0038412846624851227 0.004795202054083347 -0.018387487158179283 0 0 0 0
2251860968 0.16185630857944489 -0.007420778274536133 0.0013686036691069603 -0.018423790112137794 0 0 0 0
2255583052 0.182820662856102 -0.024914413690567017 -0.001984240487217903 -0.01765281893312931 0 0 0 0
2259305136 0.202088862657547 -0.03846870735287666 -0.004763934761285782 -0.016351714730262756 0 0 0 0
2263027220 0.21500176191329956 -0.06451933085918427 -0.007258306257426739 -0.01485939510166645 0 0 0 0
2266749304 0.224985733628273 -0.08696582168340683 -0.00924677774310112 -0.01306620892137289 0 0 0 0
2270471388 0.23358120024204254 -0.1068311333656311 -0.010881004855036736 -0.011362452991306782 0 0 0 0
2274193472 0.23281317949295044 -0.13427673280239105 -0.012176530435681343 -0.009380191564559937 0 0 0 0
2277915556 0.23043261468410492 -0.16078713536262512 -0.013371167704463005 -0.006908162496984005 0 0 0 0
2281637640 0.22719800472259521 -0.18026694655418396 -0.013738768175244331 -0.004717933014035225 0 0 0 0
2285359724 0.21346619725227356 -0.2028544396162033 -0.01396785769611597 -0.0028271684423089027 0 0 0 0
2289081808 0.19714869558811188 -0.22167381644248962 -0.013971950858831406 -0.0005777375772595406 0 0 0 0
2292803892 0.1822279393672943 -0.23589742183685303 -0.01353487465530634 0.0016232822090387344 0 0 0 0
2296525976 0.16084101796150208 -0.2470606565475464 -0.013157825917005539 0.0033214064314961433 0 0 0 0
2300248060 0.14256736636161804 -0.2547016739845276 -0.012240066193044186 0.005016140639781952 0 0 0 0
2303970144 0.12757226824760437 -0.26042547821998596 -0.011208410374820232 0.006707428023219109 0 0 0 0
2307692228 0.09843849390745163 -0.26201608777046204 -0.010304715484380722 0.008096196688711643 0 0 0 0
2311414312 0.0832890123128891 -0.2584126889705658 -0.008659402839839458 0.009471901692450047 0 0 0 0
2315136396 0.055578555911779404 -0.25442078709602356 -0.006177275441586971 0.010456220246851444 0 0 0 0
2318858480 0.03713501989841461 -0.24643462896347046 -0.004418761469423771 0.010316784493625164 0 0 0 0
2322580564 0.01485077291727066 -0.2318335771560669 -0.002794252708554268 0.010284659452736378 0 0 0 0
2326302648 -0.0033903419971466064 -0.21503165364265442 -0.0014015650376677513 0.009851976297795773 0 0 0 0
2330024732 -0.01546637061983347 -0.1956467181444168 -0.00012919213622808456 0.009340145625174046 0 0 0 0
2333746816 -0.024484902620315552 -0.17374345660209656 0.0008749524131417274 0.008769076317548752 0 0 0 0
2337468900 -0.03311979025602341 -0.14848430454730988 0.0018779439851641655 0.007810627110302448 0 0 0 0
2341190984 -0.03825259953737259 -0.12135264277458191 0.002740769647061825 0.006861714646220207 0 0 0 0
2344913068 -0.03318048268556595 -0.09450945258140564 0.0030241552740335464 0.005899976938962936 0 0 0 0
2348635152 -0.027231667190790176 -0.06722670048475266 0.0030711237341165543 0.004772642627358437 0 0 0 0
2352357236 -0.01393049955368042 -0.04235077649354935 0.0027293767780065536 0.004340548068284988 0 0 0 0
2356079320 0.004069127142429352 -0.01933642476797104 0.002602766267955303 0.003866954706609249 0 0 0 0
2359801404 0.02619454264640808 -0.00035420432686805725 0.002466500736773014 0.003679940477013588 0 0 0 0
2363523488 0.0509360134601593 0.014695943333208561 0.002665214240550995 0.0034970734268426895 0 0 0 0
2367245572 0.07945248484611511 0.024210195988416672 0.0026935935020446777 0.00313727930188179 0 0 0 0
2370967656 0.10797889530658722 0.02848961390554905 0.0025394950062036514 0.002736354246735573 0 0 0 0
2374689740 0.13668014109134674 0.027001801878213882 0.0025925030931830406 0.0025872215628623962 0 0 0 0
2378411824 0.16448692977428436 0.021653328090906143 0.0025991015136241913 0.002349347807466984 0 0 0 0
2382133908 0.1904379427433014 0.011223668232560158 0.0023063644766807556 0.002432717941701412 0 0 0 0
2385855992 0.2160520702600479 -0.0020310701802372932 0.002342609688639641 0.0025396523997187614 0 0 0 0
2389578076 0.23790839314460754 -0.01913413405418396 0.002262130379676819 0.002692802809178829 0 0 0 0
2393300160 0.25604015588760376 -0.04252132028341293 0.002101118676364422 0.002894766628742218 0 0 0 0
2397022244 0.2703593373298645 -0.0654841884970665 0.002822677604854107 0.0038670161738991737 0 0 0 0
2400744328 0.2825039327144623 -0.09181871265172958 0.0040956586599349976 0.004075899720191956 0 0 0 0
2404466412 0.2885068953037262 -0.11833461374044418 0.005613020621240139 0.0036734333261847496 0 0 0 0
2408188496 0.2884399890899658 -0.14887931942939758 0.006895492784678936 0.0024751927703619003 0 0 0 0
2411910580 0.28895336389541626 -0.172490656375885 0.007541784085333347 0.001107717864215374 0 0 0 0
2415632664 0.2794383764266968 -0.20409831404685974 0.007867942564189434 -0.00025459006428718567 0 0 0 0
2419354748 0.26826632022857666 -0.22722303867340088 0.008082832209765911 -0.0018992237746715546 0 0 0 0
2423076832 0.2556663155555725 -0.24859647452831268 0.007906408980488777 -0.003329082392156124 0 0 0 0
2426798916 0.23440733551979065 -0.2718792259693146 0.006957752630114555 -0.005290023982524872 0 0 0 0
2430521000 0.21377381682395935 -0.2899884283542633 0.005701569840312004 -0.006477395072579384 0 0 0 0
2434243084 0.1912374049425125 -0.3044566512107849 0.004290781915187836 -0.007206078618764877 0 0 0 0
2437965168 0.16712172329425812 -0.315613716840744 0.0033446596935391426 -0.007592127658426762 0 0 0 0
2441687252 0.13985085487365723 -0.3251552879810333 0.0022141560912132263 -0.007954087108373642 0 0 0 0
2445409336 0.11418446153402328 -0.3288564085960388 0.0012472337111830711 -0.00830087810754776 0 0 0 0
2449131420 0.08455011248588562 -0.3279513120651245 0.00044366344809532166 -0.008606242015957832 0 0 0 0
2452853504 0.05737266689538956 -0.3233226239681244 -0.0006019361317157745 -0.008851317688822746 0 0 0 0
2456575588 0.024139605462551117 -0.3139484226703644 -0.0015622172504663467 -0.009236544370651245 0 0 0 0
2460297672 0.0005159974098205566 -0.29862120747566223 -0.0031915754079818726 -0.00984830129891634 0 0 0 0
2464019756 -0.02312607690691948 -0.28137779235839844 -0.005090894177556038 -0.00991525687277317 0 0 0 0
2467741840 -0.0419195294380188 -0.26023077964782715 -0.007036145776510239 -0.009375632740557194 0 0 0 0
2471463924 -0.059688061475753784 -0.23756475746631622 -0.008623570203781128 -0.008486852049827576 0 0 0 0
2475186008 -0.07200615108013153 -0.2118457555770874 -0.010089928284287453 -0.007612139917910099 0 0 0 0
2478908092 -0.0815228596329689 -0.18533556163311005 -0.011821923777461052 -0.006451137363910675 0 0 0 0
2482630176 -0.0879594162106514 -0.15560367703437805 -0.013471230864524841 -0.004604148678481579 0 0 0 0
2486352260 -0.08892960846424103 -0.12553615868091583 -0.014635516330599785 -0.002384302206337452 0 0 0 0
2490074344 -0.08575788885354996 -0.09490814805030823 -0.015669450163841248 0.00010629929602146149 0 0 0 0
2493796428 -0.07684213668107986 -0.06543884426355362 -0.01589764468371868 0.003231712616980076 0 0 0 0
2497518512 -0.06370748579502106 -0.03831024095416069 -0.015247028321027756 0.006139654666185379 0 0 0 0
2501240596 -0.04629974067211151 -0.013518399558961391 -0.014026709832251072 0.008923592045903206 0 0 0 0
2504962680 -0.025588419288396835 0.008610868826508522 -0.012656232342123985 0.011289283633232117 0 0 0 0
2508684764 -0.0016159964725375175 0.02676941640675068 -0.010989172384142876 0.013628080487251282 0 0 0 0
2512406848 0.024707742035388947 0.04178537428379059 -0.008638506755232811 0.015895742923021317 0 0 0 0
2516128932 0.05455803871154785 0.05185190588235855 -0.005271540023386478 0.017847055569291115 0 0 0 0
2519851016 0.08501171320676804 0.057079095393419266 -0.0015579592436552048 0.0185504499822855 0 0 0 0
2523573100 0.11639584600925446 0.05548343062400818 0.0023193471133708954 0.018071014434099197 0 0 0 0
2527295184 0.14545419812202454 0.048356473445892334 0.005427985452115536 0.016948193311691284 0 0 0 0
2531017268 0.1723136156797409 0.03791365399956703 0.00832328386604786 0.015427041798830032 0 0 0 0
2534739352 0.19558566808700562 0.020116843283176422 0.011051555164158344 0.013593455776572227 0 0 0 0
2538461436 0.216561958193779 0.00381479412317276 0.013351007364690304 0.011050575412809849 0 0 0 0
2542183520 0.23239675164222717 -0.015273403376340866 0.015380884520709515 0.008008994162082672 0 0 0 0
2545905604 0.24542278051376343 -0.03804261237382889 0.016391081735491753 0.004722999408841133 0 0 0 0
2549627688 0.2555277645587921 -0.05937658250331879 0.016697987914085388 0.001069728285074234 0 0 0 0
2553349772 0.2615137994289398 -0.08313533663749695 0.016193874180316925 -0.0026492001488804817 0 0 0 0
2557071856 0.264261394739151 -0.10553188621997833 0.014493735507130623 -0.005781739018857479 0 0 0 0
2560793940 0.26230382919311523 -0.1265059858560562 0.012107753194868565 -0.008290564641356468 0 0 0 0
2564516024 0.2575611472129822 -0.14920523762702942 0.009747486561536789 -0.009866418316960335 0 0 0 0
2568238108 0.2511734962463379 -0.16931818425655365 0.007159440778195858 -0.010855192318558693 0 0 0 0
2571960192 0.24369564652442932 -0.18355660140514374 0.004888624884188175 -0.01126384362578392 0 0 0 0
2575682276 0.23229624330997467 -0.2019433081150055 0.002564314752817154 -0.011218852363526821 0 0 0 0
2579404360 0.2163645178079605 -0.21921974420547485 0.0007295683026313782 -0.01077525969594717 0 0 0 0
2583126444 0.20337912440299988 -0.23002365231513977 -0.00043169688433408737 -0.010323925875127316 0 0 0 0
2586848528 0.18890918791294098 -0.2395666241645813 -0.0019237278029322624 -0.009895261377096176 0 0 0 0
2590570612 0.17099764943122864 -0.2485719621181488 -0.0036321626976132393 -0.00911785289645195 0 0 0 0
2594292696 0.1556718349456787 -0.2521434426307678 -0.004689420573413372 -0.008117731660604477 0 0 0 0
2598014780 0.1358739137649536 -0.2577694356441498 -0.005675246007740498 -0.007043929770588875 0 0 0 0
2601736864 0.1200784370303154 -0.2578044533729553 -0.0062622493132948875 -0.006021277979016304 0 0 0 0
2605458948 0.10207244753837585 -0.25357577204704285 -0.006951172836124897 -0.004463935270905495 0 0 0 0
2609181032 0.0833524763584137 -0.24875915050506592 -0.0071124117821455 -0.003056522458791733 0 0 0 0
2612903116 0.06902314722537994 -0.24042966961860657 -0.006940854713320732 -0.0017711352556943893 0 0 0 0
2616625200 0.05339484289288521 -0.22993287444114685 -0.006529366597533226 -0.0007891524583101273 0 0 0 0
2620347284 0.04345498979091644 -0.21836034953594208 -0.005954716354608536 1.577567309141159e-05 0 0 0 0
2624069368 0.03467631712555885 -0.20463471114635468 -0.005347825586795807 0.00046123191714286804 0 0 0 0
2627791452 0.02863973192870617 -0.1899266093969345 -0.004591256380081177 0.0004750750958919525 0 0 0 0
2631513536 0.026027409359812737 -0.17463542520999908 -0.004532692953944206 0.0006978847086429596 0 0 0 0
2635235620 0.02427959255874157 -0.15998241305351257 -0.004515853710472584 0.0011359499767422676 0 0 0 0
2638957704 0.027036277577280998 -0.14835242927074432 -0.004336207173764706 0.001511579379439354 0 0 0 0
2642679788 0.0304273571819067 -0.13470669090747833 -0.003799024038016796 0.001831413246691227 0 0 0 0
2646401872 0.035009343177080154 -0.12313246726989746 -0.003241634927690029 0.0021863309666514397 0 0 0 0
2650123956 0.042897265404462814 -0.11296918988227844 -0.002641657367348671 0.0021180184558033943 0 0 0 0
2653846040 0.05203183367848396 -0.10380537807941437 -0.002367488108575344 0.0019047325477004051 0 0 0 0
2657568124 0.0632123053073883 -0.0973300188779831 -0.0022518495097756386 0.0013970714062452316 0 0 0 0
2661290208 0.07626436650753021 -0.09503091126680374 -0.0026171263307332993 0.0014160331338644028 0 0 0 0
2665012292 0.08701998740434647 -0.09568391740322113 -0.0029013045132160187 0.0018088873475790024 0 0 0 0
2668734376 0.09616579115390778 -0.09864289313554764 -0.002814258448779583 0.002374029718339443 0 0 0 0
2672456460 0.10614058375358582 -0.10233746469020844 -0.0026696529239416122 0.0028704609721899033 0 0 0 0
2676178544 0.1140514686703682 -0.10906406491994858 -0.0022965259850025177 0.003316200338304043 0 0 0 0
2679900628 0.11994776874780655 -0.11605605483055115 -0.0020147738978266716 0.003942413255572319 0 0 0 0
2683622712 0.12278345227241516 -0.12501543760299683 -0.001327328383922577 0.004385020583868027 0 0 0 0
2687344796 0.12503427267074585 -0.13365362584590912 -0.000513802282512188 0.004720866680145264 0 0 0 0
2691066880 0.12480392307043076 -0.14296185970306396 0.0006120847538113594 0.00484208669513464 0 0 0 0
2694788964 0.1223427951335907 -0.15070787072181702 0.0013847025111317635 0.004524423740804195 0 0 0 0
2698511048 0.1177816241979599 -0.15882408618927002 0.002576494589447975 0.004282102920114994 0 0 0 0
2702233132 0.11407123506069183 -0.165530264377594 0.003580056130886078 0.00364071037620306 0 0 0 0
2705955216 0.1089208647608757 -0.17149296402931213 0.004214181564748287 0.0024228058755397797 0 0 0 0
2709677300 0.10056983679533005 -0.17821799218654633 0.004716271534562111 0.0011815773323178291 0 0 0 0
2713399384 0.09126070886850357 -0.18304243683815002 0.00452587753534317 0.0001248987391591072 0 0 0 0
2717121468 0.08047299087047577 -0.18506205081939697 0.004078127443790436 -0.0008436962962150574 0 0 0 0
2720843552 0.06914563477039337 -0.18650609254837036 0.003500952385365963 -0.0014649583026766777 0 0 0 0
2724565636 0.05531610548496246 -0.18467064201831818 0.0029957443475723267 -0.0018631629645824432 0 0 0 0
2728287720 0.044114626944065094 -0.17996415495872498 0.00242743082344532 -0.0021625757217407227 0 0 0 0
2732009804 0.03108808770775795 -0.17306920886039734 0.0019988026469945908 -0.0022815335541963577 0 0 0 0
2735731888 0.023519478738307953 -0.16201820969581604 0.0017901090905070305 -0.002325323410332203 0 0 0 0
2739453972 0.015285886824131012 -0.1515335738658905 0.0014251405373215675 -0.0025185169652104378 0 0 0 0
2743176056 0.007108239457011223 -0.1382608860731125 0.001346878707408905 -0.0025798529386520386 0 0 0 0
2746898140 0.0029617398977279663 -0.12354061752557755 0.001084950752556324 -0.002820059657096863 0 0 0 0
2750620224 0.0010667964816093445 -0.10774203389883041 0.0009008785709738731 -0.002956980839371681 0 0 0 0
2754342308 0.0013568736612796783 -0.09210015833377838 0.0006268098950386047 -0.003315885551273823 0 0 0 0
2758064392 0.005292491987347603 -0.07609754800796509 7.807649672031403e-05 -0.003885304555296898 0 0 0 0
2761786476 0.011262132786214352 -0.06054968759417534 -0.0007479935884475708 -0.0038548093289136887 0 0 0 0
2765508560 0.020563960075378418 -0.04549620300531387 -0.0016451682895421982 -0.0035651670768857002 0 0 0 0
2769230644 0.03225317969918251 -0.0323115736246109 -0.0020995493978261948 -0.0030038943514227867 0 0 0 0
2772952728 0.04611646384000778 -0.021343450993299484 -0.002319282852113247 -0.0024750325828790665 0 0 0 0
2776674812 0.061900168657302856 -0.012187184765934944 -0.0021937424317002296 -0.002102750353515148 0 0 0 0
2780396896 0.07971927523612976 -0.0048673320561647415 -0.002459428273141384 -0.0020259441807866096 0 0 0 0
2784118980 0.09721560776233673 -0.00014549773186445236 -0.0028721513226628304 -0.0015502804890275002 0 0 0 0
2787841064 0.11662261188030243 0.0007782541215419769 -0.003210902214050293 -0.0009973281994462013 0 0 0 0
2791563148 0.13786129653453827 -0.001042969524860382 -0.003112664446234703 -0.00016290787607431412 0 0 0 0
2795285232 0.15846022963523865 -0.004070190712809563 -0.0027259374037384987 0.0004639681428670883 0 0 0 0
2799007316 0.17887084186077118 -0.014042042195796967 -0.0020604608580470085 0.0009406087920069695 0 0 0 0
2802729400 0.1982962191104889 -0.025272393599152565 -0.0015146052464842796 0.0006864452734589577 0 0 0 0
2806451484 0.21318578720092773 -0.04320953041315079 -0.0013692853972315788 0.0005016196519136429 0 0 0 0
2810173568 0.22744014859199524 -0.05971400439739227 -0.0015573864802718163 0.0006033619865775108 0 0 0 0
2813895652 0.23887228965759277 -0.07956615090370178 -0.0014537004753947258 0.0010234508663415909 0 0 0 0
2817617736 0.24676966667175293 -0.1002078428864479 -0.0010226620361208916 0.0013330839574337006 0 0 0 0
2821339820 0.25141918659210205 -0.12323426455259323 -0.0005089528858661652 0.0013476787135004997 0 0 0 0
2825061904 0.25245919823646545 -0.1456792801618576 1.035258173942566e-05 0.001143922097980976 0 0 0 0
2828783988 0.2500714659690857 -0.16930605471134186 0.00029215868562459946 0.0009062262251973152 0 0 0 0
2832506072 0.24482370913028717 -0.19170404970645905 0.0003615831956267357 0.0006773276254534721 0 0 0 0
2836228156 0.2365826666355133 -0.21331411600112915 0.0005149571225047112 0.00046915188431739807 0 0 0 0
2839950240 0.22317355871200562 -0.236245796084404 0.000473732128739357 0.0002677459269762039 0 0 0 0
2843672324 0.2131258100271225 -0.2506910562515259 0.0006257100030779839 9.704940021038055e-05 0 0 0 0
2847394408 0.1979365199804306 -0.26845690608024597 0.0005587507039308548 -6.42966479063034e-05 0 0 0 0
2851116492 0.1772685945034027 -0.2856130599975586 0.0004710908979177475 -0.00034339725971221924 0 0 0 0
2854838576 0.15792366862297058 -0.29621756076812744 0.00033544935286045074 -0.0003768857568502426 0 0 0 0
2858560660 0.13784779608249664 -0.30652138590812683 0.0004526861011981964 -0.0007515326142311096 0 0 0 0
2862282744 0.11097003519535065 -0.3159009516239166 0.00027821119874715805 -0.0006785877048969269 0 0 0 0
2866004828 0.09050469100475311 -0.31837698817253113 0.00046121980994939804 -0.0005076136440038681 0 0 0 0
2869726912 0.06638090312480927 -0.32081925868988037 0.0005740150809288025 -0.0007084319368004799 0 0 0 0
2873448996 0.04046812653541565 -0.3187623620033264 0.0004943590611219406 -0.0008974047377705574 0 0 0 0
2877171080 0.017770662903785706 -0.31271401047706604 0.00031112972646951675 -0.0010028351098299026 0 0 0 0
2880893164 -0.008818576112389565 -0.3048025071620941 0.00012818630784749985 -0.0010587777942419052 0 0 0 0
2884615248 -0.034208305180072784 -0.29267871379852295 -0.00010662898421287537 -0.0010755127295851707 0 0 0 0
2888337332 -0.05202062427997589 -0.27746084332466125 -0.0001108730211853981 -0.0009969407692551613 0 0 0 0
2892059416 -0.07445993274450302 -0.2595812976360321 -0.0003133881837129593 -0.0008366405963897705 0 0 0 0
2895781500 -0.08916600793600082 -0.2393069565296173 -0.00039478763937950134 -0.0006027240306138992 0 0 0 0
2899503584 -0.10635171085596085 -0.21500617265701294 -0.0004567643627524376 -0.0003926437348127365 0 0 0 0
2903225668 -0.11809937655925751 -0.18850374221801758 -0.0002457359805703163 -7.345620542764664e-05 0 0 0 0
2906947752 -0.12324849516153336 -0.16247154772281647 -1.7026439309120178e-05 0.00010872073471546173 0 0 0 0
2910669836 -0.12572523951530457 -0.13542987406253815 0.00024368241429328918 2.911500632762909e-05 0 0 0 0
2914391920 -0.12621618807315826 -0.10817641019821167 0.0004464751109480858 -3.349129110574722e-05 0 0 0 0
2918114004 -0.12118299305438995 -0.08313272148370743 0.0006025321781635284 -0.00016692746430635452 0 0 0 0
2921836088 -0.11503729224205017 -0.05741056054830551 0.0006059044972062111 -0.0002848207950592041 0 0 0 0
2925558172 -0.10624252259731293 -0.03311525285243988 0.00054200179874897 -0.000573926605284214 0 0 0 0
2929280256 -0.09266149252653122 -0.009791996330022812 0.0003599710762500763 -0.0007545305415987968 0 0 0 0
2933002340 -0.07713451981544495 0.01196148619055748 3.2335519790649414e-05 -0.0007201842963695526 0 0 0 0
2936724424 -0.05788620933890343 0.03240571171045303 -4.738941788673401e-05 -0.0005527986213564873 0 0 0 0
2940446508 -0.03792079538106918 0.047903694212436676 -0.0002568969503045082 -0.00023161061108112335 0 0 0 0
2944168592 -0.014862916432321072 0.0631251335144043 -0.00024748779833316803 -6.452295929193497e-05 0 0 0 0
2947890676 0.011578124016523361 0.07412019371986389 8.013099431991577e-06 0.0004232199862599373 0 0 0 0
2951612760 0.03718823194503784 0.08320014178752899 0.0002064201980829239 0.0006029903888702393 0 0 0 0
2955334844 0.06577128171920776 0.08667077124118805 0.0006375499069690704 0.0008493512868881226 0 0 0 0
2959056928 0.09417033195495605 0.08659812808036804 0.0010691676288843155 0.0007761828601360321 0 0 0 0
2962779012 0.12160545587539673 0.08118446916341782 0.001475500874221325 0.0006741899996995926 0 0 0 0
2966501096 0.1479967087507248 0.07255512475967407 0.0018167253583669662 0.0004841946065425873 0 0 0 0
2970223180 0.17213499546051025 0.06114114448428154 0.0023101074621081352 9.868666529655457e-05 0 0 0 0
2973945264 0.19409824907779694 0.04614127427339554 0.0024997247382998466 -0.0005891742184758186 0 0 0 0
2977667348 0.21530866622924805 0.028504759073257446 0.0025269677862524986 -0.0011404519900679588 0 0 0 0
2981389432 0.23232056200504303 0.00880567729473114 0.002175537869334221 -0.001580086536705494 0 0 0 0
2985111516 0.2467207908630371 -0.012279517948627472 0.0018151886761188507 -0.0018614837899804115 0 0 0 0
2988833600 0.25785472989082336 -0.03760288655757904 0.0015790639445185661 -0.0020312611013650894 0 0 0 0
2992555684 0.2664165794849396 -0.05915951728820801 0.0010522464290261269 -0.0023594480007886887 0 0 0 0
2996277768 0.27039775252342224 -0.08283071964979172 0.0005726926028728485 -0.0023491065949201584 0 0 0 0
2999999852 0.27213215827941895 -0.10842610895633698 0.00022806040942668915 -0.0024744272232055664 0 0 0 0
