# HZ S RI R 50
1500000000 -0.15184901654720306 -0.00014277175068855286 0.07404838502407074 -0.035613056272268295 0 0 0 0
1503722084 -0.12682673335075378 0.03525526449084282 0.06452818959951401 -0.04838934913277626 0 0 0 0
1507444168 -0.09535794705152512 0.0655357837677002 0.05274663865566254 -0.058672189712524414 0 0 0 0
1511166252 -0.05699636787176132 0.09024576842784882 0.03809547796845436 -0.06649798899888992 0 0 0 0
1514888336 -0.014563363045454025 0.1080210730433464 0.02281208150088787 -0.06966688483953476 0 0 0 0
1518610420 0.03219490498304367 0.11868467926979065 0.00820641778409481 -0.06861414015293121 0 0 0 0
1522332504 0.08144623041152954 0.12048289179801941 -0.004122097045183182 -0.0647851824760437 0 0 0 0
1526054588 0.13060978055000305 0.11364191770553589 -0.014629608020186424 -0.05888257175683975 0 0 0 0
1529776672 0.17789092659950256 0.0994609147310257 -0.022530242800712585 -0.05234922468662262 0 0 0 0
1533498756 0.22498996555805206 0.0776592418551445 -0.028978785499930382 -0.04475879669189453 0 0 0 0
1537220840 0.2684125304222107 0.04544689506292343 -0.03304947167634964 -0.036865103989839554 0 0 0 0
1540942924 0.30703437328338623 0.0058068037033081055 -0.035398006439208984 -0.029465558007359505 0 0 0 0
1544665008 0.3381200432777405 -0.03749676048755646 -0.03634905815124512 -0.02305741235613823 0 0 0 0
1548387092 0.36083659529685974 -0.09035108983516693 -0.03704482316970825 -0.017577167600393295 0 0 0 0
1552109176 0.37687841057777405 -0.14320558309555054 -0.037602752447128296 -0.011877112090587616 0 0 0 0
1555831260 0.3838842213153839 -0.1997290402650833 -0.03722301870584488 -0.006096040830016136 0 0 0 0
1559553344 0.38108426332473755 -0.2553403377532959 -0.035768575966358185 -0.0006712079048156738 0 0 0 0
1563275428 0.3692438304424286 -0.3112294673919678 -0.03368336707353592 0.0038687530905008316 0 0 0 0
1566997512 0.3511759340763092 -0.3666607439517975 -0.031162772327661514 0.00781659409403801 0 0 0 0
1570719596 0.32452255487442017 -0.4180922508239746 -0.028336597606539726 0.010806068778038025 0 0 0 0
1574441680 0.28732162714004517 -0.4665610194206238 -0.025313157588243484 0.013246027752757072 0 0 0 0
1578163764 0.24490070343017578 -0.5074687004089355 -0.023083191365003586 0.01498150173574686 0 0 0 0
1581885848 0.19876255095005035 -0.5410439372062683 -0.02102189138531685 0.01685383915901184 0 0 0 0
1585607932 0.14301666617393494 -0.5669060945510864 -0.018450655043125153 0.018751319497823715 0 0 0 0
1589330016 0.08406282961368561 -0.5857114791870117 -0.015643442049622536 0.020073460415005684 0 0 0 0
1593052100 0.024011611938476562 -0.5965358018875122 -0.013345412909984589 0.021158289164304733 0 0 0 0
1596774184 -0.03637164831161499 -0.5971461534500122 -0.011282413266599178 0.022265221923589706 0 0 0 0
1600496268 -0.09885983169078827 -0.5900935530662537 -0.009125551208853722 0.023948002606630325 0 0 0 0
1604218352 -0.15812291204929352 -0.5734957456588745 -0.006098853424191475 0.025715738534927368 0 0 0 0
1607940436 -0.21357682347297668 -0.5484400391578674 -0.002292994409799576 0.02697889506816864 0 0 0 0
1611662520 -0.26617711782455444 -0.515423595905304 0.0019398294389247894 0.027292191982269287 0 0 0 0
1615384604 -0.3176683485507965 -0.47315818071365356 0.00632209237664938 0.027004966512322426 0 0 0 0
1619106688 -0.3579495847225189 -0.4258435368537903 0.010585488751530647 0.025871627032756805 0 0 0 0
1622828772 -0.39290523529052734 -0.3757743835449219 0.014964866451919079 0.024289840832352638 0 0 0 0
1626550856 -0.4229510724544525 -0.3168585002422333 0.019289059564471245 0.021480858325958252 0 0 0 0
1630272940 -0.4436711370944977 -0.2550976276397705 0.023031549528241158 0.01743162050843239 0 0 0 0
1633995024 -0.45811280608177185 -0.18972504138946533 0.025601770728826523 0.012815444730222225 0 0 0 0
1637717108 -0.46277695894241333 -0.12063449621200562 0.027321742847561836 0.007520894519984722 0 0 0 0
1641439192 -0.4578280448913574 -0.053523533046245575 0.027624603360891342 0.0021700095385313034 0 0 0 0
1645161276 -0.4423030614852905 0.020690783858299255 0.02676982805132866 -0.002822285518050194 0 0 0 0
1648883360 -0.4132266640663147 0.08812850713729858 0.025251533836126328 -0.007300984114408493 0 0 0 0
1652605444 -0.3730756342411041 0.15376581251621246 0.022976906970143318 -0.011546416208148003 0 0 0 0
1656327528 -0.3241881728172302 0.21080191433429718 0.019780080765485764 -0.015256132930517197 0 0 0 0
1660049612 -0.26655253767967224 0.25981006026268005 0.016208503395318985 -0.01792350597679615 0 0 0 0
1663771696 -0.2008151412010193 0.3006551265716553 0.012291105464100838 -0.0200236514210701 0 0 0 0
1667493780 -0.13197879493236542 0.33166706562042236 0.008131509646773338 -0.021165447309613228 0 0 0 0
1671215864 -0.055642902851104736 0.3536037802696228 0.0036503421142697334 -0.021663831546902657 0 0 0 0
1674937948 0.02550097554922104 0.36410000920295715 -0.0010035783052444458 -0.020751452073454857 0 0 0 0
1678660032 0.10562977194786072 0.36168372631073 -0.004692482762038708 -0.018737107515335083 0 0 0 0
1682382116 0.18800365924835205 0.3453890383243561 -0.00764717161655426 -0.016138195991516113 0 0 0 0
1686104200 0.2654220461845398 0.316225528717041 -0.009642851538956165 -0.013246106915175915 0 0 0 0
1689826284 0.3360086679458618 0.27671918272972107 -0.010796235874295235 -0.010169332846999168 0 0 0 0
1693548368 0.4026187062263489 0.2219458818435669 -0.01107745710760355 -0.007184881716966629 0 0 0 0
1697270452 0.4570576250553131 0.1598382592201233 -0.010667715221643448 -0.004727949388325214 0 0 0 0
1700992536 0.5012685060501099 0.08947431296110153 -0.009773651137948036 -0.0028237737715244293 0 0 0 0
1704714620 0.5335829257965088 0.01098594069480896 -0.008940659463405609 -0.0012139063328504562 0 0 0 0
1708436704 0.552768349647522 -0.06527428328990936 -0.007799828425049782 -0.00010060705244541168 0 0 0 0
1712158788 0.5591450929641724 -0.14649884402751923 -0.006563100963830948 0.0005275178700685501 0 0 0 0
1715880872 0.552757740020752 -0.2275354415178299 -0.005525276996195316 0.0008313124999403954 0 0 0 0
1719602956 0.5333468317985535 -0.30387842655181885 -0.004599453881382942 0.0008924854919314384 0 0 0 0
1723325040 0.5057170987129211 -0.3755025267601013 -0.003911365754902363 0.0006099073216319084 0 0 0 0
1727047124 0.4641857445240021 -0.4421219825744629 -0.003518524579703808 3.9278529584407806e-05 0 0 0 0
1730769208 0.41621673107147217 -0.5001018047332764 -0.0035141659900546074 -0.00036214012652635574 0 0 0 0
1734491292 0.35647159814834595 -0.551552414894104 -0.003726181574165821 -0.0005782339721918106 0 0 0 0
1738213376 0.2932719886302948 -0.5912830829620361 -0.0039049694314599037 -0.00067860446870327 0 0 0 0
1741935460 0.22571240365505219 -0.6181055903434753 -0.004291295073926449 -0.0009383689612150192 0 0 0 0
1745657544 0.1566482037305832 -0.6349937319755554 -0.0049564046785235405 -0.0009046308696269989 0 0 0 0
1749379628 0.0814434140920639 -0.6420867443084717 -0.00565488263964653 -0.0004711579531431198 0 0 0 0
1753101712 0.015068501234054565 -0.6356649994850159 -0.006097089499235153 0.00015471316874027252 0 0 0 0
1756823796 -0.05572381615638733 -0.620690107345581 -0.0063903676345944405 0.0009502153843641281 0 0 0 0
1760545880 -0.11746174097061157 -0.5940300822257996 -0.006649460643529892 0.001437375321984291 0 0 0 0
1764267964 -0.1726681888103485 -0.5611553192138672 -0.006962507031857967 0.0020567048341035843 0 0 0 0
1767990048 -0.221684068441391 -0.5222291350364685 -0.007252643816173077 0.002730410546064377 0 0 0 0
1771712132 -0.26459822058677673 -0.4745403528213501 -0.007677973248064518 0.0034681716933846474 0 0 0 0
1775434216 -0.30003899335861206 -0.42216557264328003 -0.00838021095842123 0.004342840053141117 0 0 0 0
1779156300 -0.32513073086738586 -0.3691999614238739 -0.009175335988402367 0.0059182122349739075 0 0 0 0
1782878384 -0.34318065643310547 -0.3144730031490326 -0.009518924169242382 0.00825483724474907 0 0 0 0
1786600468 -0.3564088046550751 -0.25534728169441223 -0.009272603318095207 0.011059933342039585 0 0 0 0
1790322552 -0.3576771914958954 -0.19909082353115082 -0.008093261159956455 0.013974925503134727 0 0 0 0
1794044636 -0.354284405708313 -0.13781285285949707 -0.005906522274017334 0.016563527286052704 0 0 0 0
1797766720 -0.3401334285736084 -0.08217941224575043 -0.0036077499389648438 0.018926646560430527 0 0 0 0
1801488804 -0.31964948773384094 -0.02882380783557892 -0.00027939584106206894 0.021487243473529816 0 0 0 0
1805210888 -0.2900972068309784 0.0225897878408432 0.00425790436565876 0.023386172950267792 0 0 0 0
1808932972 -0.2536982595920563 0.06839826703071594 0.009971078485250473 0.024383889511227608 0 0 0 0
1812655056 -0.20829978585243225 0.10743129253387451 0.016531698405742645 0.023101745173335075 0 0 0 0
1816377140 -0.15759944915771484 0.13778598606586456 0.022262971848249435 0.020014308393001556 0 0 0 0
1820099224 -0.1021282747387886 0.15810944139957428 0.02778952196240425 0.015562505461275578 0 0 0 0
1823821308 -0.04798407107591629 0.16803619265556335 0.03203969448804855 0.00927722454071045 0 0 0 0
1827543392 0.008039139211177826 0.1699329912662506 0.0341099351644516 0.0011614486575126648 0 0 0 0
1831265476 0.05971575900912285 0.1626065969467163 0.03395567089319229 -0.006243988871574402 0 0 0 0
1834987560 0.11003109812736511 0.14666606485843658 0.031330008059740067 -0.013644391670823097 0 0 0 0
1838709644 0.155771404504776 0.12381698191165924 0.027625031769275665 -0.019359726458787918 0 0 0 0
1842431728 0.19499555230140686 0.09528591483831406 0.023618826642632484 -0.023870395496487617 0 0 0 0
1846153812 0.2275318056344986 0.06173001229763031 0.018676748499274254 -0.027488427236676216 0 0 0 0
1849875896 0.2533727288246155 0.025191251188516617 0.01345126610249281 -0.030183766037225723 0 0 0 0
1853597980 0.27443456649780273 -0.013447090983390808 0.007839799858629704 -0.031907565891742706 0 0 0 0
1857320064 0.2882094979286194 -0.0558183416724205 0.002617894671857357 -0.03263223171234131 0 0 0 0
1861042148 0.29594969749450684 -0.09450177848339081 -0.002291993238031864 -0.03295943886041641 0 0 0 0
1864764232 0.29526060819625854 -0.13580778241157532 -0.008112255483865738 -0.033244937658309937 0 0 0 0
1868486316 0.28766340017318726 -0.1750040352344513 -0.01428151037544012 -0.03172123804688454 0 0 0 0
1872208400 0.2762637436389923 -0.21011486649513245 -0.01980416290462017 -0.028856204822659492 0 0 0 0
1875930484 0.262152761220932 -0.24066129326820374 -0.024609722197055817 -0.025217294692993164 0 0 0 0
1879652568 0.2394963651895523 -0.2731136679649353 -0.028691517189145088 -0.020510917529463768 0 0 0 0
1883374652 0.21388709545135498 -0.2994314134120941 -0.0320352204144001 -0.015628356486558914 0 0 0 0
1887096736 0.18334728479385376 -0.3208594024181366 -0.03490651771426201 -0.010682903230190277 0 0 0 0
1890818820 0.15237769484519958 -0.3341446816921234 -0.03715435042977333 -0.004549841396510601 0 0 0 0
1894540904 0.118813656270504 -0.34294593334198 -0.03828898444771767 0.002284059301018715 0 0 0 0
1898262988 0.08514311909675598 -0.34499189257621765 -0.03795399144291878 0.009471689350903034 0 0 0 0
1901985072 0.05259442329406738 -0.3410951793193817 -0.03610467165708542 0.01678517647087574 0 0 0 0
1905707156 0.021594613790512085 -0.3329017758369446 -0.0323508195579052 0.023510096594691277 0 0 0 0
1909429240 -0.007853016257286072 -0.31658485531806946 -0.02761048823595047 0.029056066647171974 0 0 0 0
1913151324 -0.03017696738243103 -0.29842913150787354 -0.021951880306005478 0.03373467177152634 0 0 0 0
1916873408 -0.04921682924032211 -0.27705660462379456 -0.016013778746128082 0.03765849769115448 0 0 0 0
1920595492 -0.06426101922988892 -0.2531321942806244 -0.008494582958519459 0.04071544110774994 0 0 0 0
1924317576 -0.07498566806316376 -0.22713513672351837 -0.00036991480737924576 0.04184265062212944 0 0 0 0
1928039660 -0.08087928593158722 -0.2011159360408783 0.008121342398226261 0.041075702756643295 0 0 0 0
1931761744 -0.0832163542509079 -0.17541445791721344 0.016566459089517593 0.03796137869358063 0 0 0 0
1935483828 -0.08192990720272064 -0.148226797580719 0.02289479598402977 0.033273521810770035 0 0 0 0
1939205912 -0.07726673781871796 -0.12145653367042542 0.028197748586535454 0.027046043425798416 0 0 0 0
1942927996 -0.06651879101991653 -0.09643308818340302 0.03127572685480118 0.021295472979545593 0 0 0 0
1946650080 -0.051464736461639404 -0.07289870828390121 0.03331827372312546 0.01590113341808319 0 0 0 0
1950372164 -0.03173583373427391 -0.051655419170856476 0.03498268872499466 0.010821914300322533 0 0 0 0
1954094248 -0.007607701234519482 -0.03430274501442909 0.03703534975647926 0.004838687367737293 0 0 0 0
1957816332 0.01969851925969124 -0.022076714783906937 0.037997227162122726 -0.0019647181034088135 0 0 0 0
1961538416 0.0490206778049469 -0.01623370498418808 0.03712312504649162 -0.009790218435227871 0 0 0 0
1965260500 0.07877638190984726 -0.016568170860409737 0.03458244726061821 -0.01667756959795952 0 0 0 0
1968982584 0.10752633213996887 -0.02302226796746254 0.03072492592036724 -0.022752368822693825 0 0 0 0
1972704668 0.13357539474964142 -0.034055281430482864 0.025913283228874207 -0.02800270915031433 0 0 0 0
1976426752 0.15674728155136108 -0.049459151923656464 0.020235642790794373 -0.03228859603404999 0 0 0 0
1980148836 0.17640919983386993 -0.06918598711490631 0.013424383476376534 -0.03562057018280029 0 0 0 0
1983870920 0.19221988320350647 -0.09253902733325958 0.005630927160382271 -0.037304289638996124 0 0 0 0
1987593004 0.20367352664470673 -0.11826443672180176 -0.0015451544895768166 -0.03718296438455582 0 0 0 0
1991315088 0.20791949331760406 -0.1458703726530075 -0.00853522215038538 -0.035538800060749054 0 0 0 0
1995037172 0.20890051126480103 -0.1715494692325592 -0.01530096773058176 -0.032703328877687454 0 0 0 0
1998759256 0.20427602529525757 -0.19719605147838593 -0.020511360839009285 -0.027968360111117363 0 0 0 0
2002481340 0.19405649602413177 -0.22284552454948425 -0.02414557710289955 -0.023325707763433456 0 0 0 0
2006203424 0.18282420933246613 -0.24354948103427887 -0.026579134166240692 -0.018956143409013748 0 0 0 0
2009925508 0.16844922304153442 -0.2606940269470215 -0.028721705079078674 -0.014855392277240753 0 0 0 0
2013647592 0.14643600583076477 -0.27778446674346924 -0.030935917049646378 -0.010108544491231441 0 0 0 0
2017369676 0.12695127725601196 -0.2917194068431854 -0.03307114541530609 -0.00545455701649189 0 0 0 0
2021091760 0.10397551953792572 -0.30272015929222107 -0.034102655947208405 0.0008260365575551987 0 0 0 0
2024813844 0.08064089715480804 -0.3081725835800171 -0.03376229107379913 0.007269795052707195 0 0 0 0
2028535928 0.05522991716861725 -0.31016165018081665 -0.031647488474845886 0.013338698074221611 0 0 0 0
2032258012 0.02595578134059906 -0.3082495331764221 -0.02841101586818695 0.01912776008248329 0 0 0 0
2035980096 0.0001551508903503418 -0.30002105236053467 -0.02437066286802292 0.02371135726571083 0 0 0 0
2039702180 -0.025205284357070923 -0.28891611099243164 -0.019056502729654312 0.027264205738902092 0 0 0 0
2043424264 -0.04997480288147926 -0.27104678750038147 -0.013883505016565323 0.0295513067394495 0 0 0 0
2047146348 -0.07108016312122345 -0.250502347946167 -0.008655477315187454 0.030716126784682274 0 0 0 0
2050868432 -0.08603750914335251 -0.22785510122776031 -0.003718726336956024 0.03127903491258621 0 0 0 0
2054590516 -0.09908853471279144 -0.20101667940616608 0.0010749511420726776 0.03129107505083084 0 0 0 0
2058312600 -0.10685283690690994 -0.17324349284172058 0.006135397590696812 0.030966036021709442 0 0 0 0
2062034684 -0.11267416179180145 -0.14241312444210052 0.01137340534478426 0.029279839247465134 0 0 0 0
2065756768 -0.1127270981669426 -0.11214308440685272 0.01605425775051117 0.02693038620054722 0 0 0 0
2069478852 -0.1071273684501648 -0.08228763192892075 0.020271826535463333 0.02338852733373642 0 0 0 0
2073200936 -0.09767258167266846 -0.050905004143714905 0.023447765037417412 0.019420666620135307 0 0 0 0
2076923020 -0.08232274651527405 -0.02007102221250534 0.025906061753630638 0.014710800722241402 0 0 0 0
2080645104 -0.06098701059818268 0.008656701073050499 0.027147086337208748 0.010365649126470089 0 0 0 0
2084367188 -0.03445044159889221 0.031797997653484344 0.02760164812207222 0.006560171023011208 0 0 0 0
2088089272 -0.0032637882977724075 0.05083494633436203 0.028552167117595673 0.003011619672179222 0 0 0 0
2091811356 0.03017609380185604 0.06399606913328171 0.02956971898674965 -0.0011540800333023071 0 0 0 0
2095533440 0.06489710509777069 0.07113869488239288 0.030058853328227997 -0.0062122708186507225 0 0 0 0
2099255524 0.1016581654548645 0.07100638747215271 0.029124442487955093 -0.012183524668216705 0 0 0 0
2102977608 0.13623981177806854 0.06775335222482681 0.026808200404047966 -0.01797117106616497 0 0 0 0
2106699692 0.17026889324188232 0.057870008051395416 0.02297176420688629 -0.022965041920542717 0 0 0 0
2110421776 0.20326900482177734 0.042570166289806366 0.017991693690419197 -0.02682829461991787 0 0 0 0
2114143860 0.23260018229484558 0.02122674323618412 0.012644842267036438 -0.029478153213858604 0 0 0 0
2117865944 0.25740715861320496 -0.004346005618572235 0.007131232880055904 -0.03145771473646164 0 0 0 0
2121588028 0.27632853388786316 -0.03433043509721756 0.0009579434990882874 -0.032493576407432556 0 0 0 0
2125310112 0.29162144660949707 -0.06529753655195236 -0.006206139922142029 -0.03193635120987892 0 0 0 0
2129032196 0.30125781893730164 -0.09743456542491913 -0.012580543756484985 -0.02950359135866165 0 0 0 0
2132754280 0.30433565378189087 -0.13155463337898254 -0.017757639288902283 -0.025396358221769333 0 0 0 0
2136476364 0.3022891879081726 -0.16680288314819336 -0.02137397602200508 -0.020445851609110832 0 0 0 0
2140198448 0.295402467250824 -0.19881503283977509 -0.023607473820447922 -0.01545014139264822 0 0 0 0
2143920532 0.2845569849014282 -0.22826723754405975 -0.02468317374587059 -0.011071884073317051 0 0 0 0
2147642616 0.26705050468444824 -0.25781136751174927 -0.025418484583497047 -0.006779918447136879 0 0 0 0
2151364700 0.2471093386411667 -0.2823523283004761 -0.025342009961605072 -0.002566233277320862 0 0 0 0
2155086784 0.22572116553783417 -0.30174869298934937 -0.024799790233373642 0.0011407984420657158 0 0 0 0
2158808868 0.197342187166214 -0.3190835416316986 -0.023816967383027077 0.004931394010782242 0 0 0 0
2162530952 0.16601859033107758 -0.33125168085098267 -0.02218618243932724 0.008303143084049225 0 0 0 0
2166253036 0.1383678913116455 -0.3365996181964874 -0.020548788830637932 0.010906964540481567 0 0 0 0
2169975120 0.10761916637420654 -0.3385651111602783 -0.019163209944963455 0.01343772653490305 0 0 0 0
2173697204 0.0790645182132721 -0.33558031916618347 -0.017597081139683723 0.016322970390319824 0 0 0 0
2177419288 0.05013734847307205 -0.32946211099624634 -0.01480462122708559 0.019613320007920265 0 0 0 0
2181141372 0.02503468096256256 -0.31926536560058594 -0.011656430549919605 0.021934395655989647 0 0 0 0
2184863456 -0.000735849142074585 -0.30423909425735474 -0.00783473625779152 0.023825669661164284 0 0 0 0
2188585540 -0.023056790232658386 -0.2863004505634308 -0.003465406596660614 0.025255825370550156 0 0 0 0
2192307624 -0.04288528114557266 -0.2643245756626129 0.0011675432324409485 0.025896888226270676 0 0 0 0
2196029708 -0.05736489221453667 -0.24019253253936768 0.006228541024029255 0.025398416444659233 0 0 0 0
2199751792 -0.06878511607646942 -0.21364019811153412 0.011313780210912228 0.023374587297439575 0 0 0 0
2203473876 -0.07417596131563187 -0.1867935061454773 0.015386675484478474 0.020535169169306755 0 0 0 0
2207195960 -0.08247807621955872 -0.15515556931495667 0.018772078678011894 0.016777679324150085 0 0 0 0
2210918044 -0.07717195898294449 -0.1264403611421585 0.02111528255045414 0.012407070025801659 0 0 0 0
2214640128 -0.07066848874092102 -0.09579525887966156 0.02262696623802185 0.008191369473934174 0 0 0 0
2218362212 -0.05759404972195625 -0.0689866915345192 0.02303079515695572 0.0030918484553694725 0 0 0 0
2222084296 -0.03953506052494049 -0.046764444559812546 0.02214347943663597 -0.0009363880380988121 0 0 0 0
2225806380 -0.019219467416405678 -0.026521801948547363 0.020847341045737267 -0.004526961594820023 0 0 0 0
2229528464 0.004406034015119076 -0.010769999586045742 0.019344454631209373 -0.0076538315042853355 0 0 0 0
2233250548 0.029092134907841682 0.0010668663308024406 0.017377369105815887 -0.010898241773247719 0 0 0 0
2236972632 0.0554325133562088 0.008943583816289902 0.014918124303221703 -0.013560399413108826 0 0 0 0
2240694716 0.08364506810903549 0.011150749400258064 0.011696254834532738 -0.015957586467266083 0 0 0 0
2244416800 0.1107453927397728 0.010934706777334213 0.008315625600516796 -0.017392665147781372 0 0 0 0
2248138884 0.13600768148899078 0.003716167062520981 0.005069985054433346 -0.018165307119488716 0 0 0 0
2251860968 0.1601593792438507 -0.008445993065834045 0.000992405228316784 -0.01861492544412613 0 0 0 0
2255583052 0.18221759796142578 -0.02430494874715805 -0.002567141316831112 -0.01791427843272686 0 0 0 0
2259305136 0.20121441781520844 -0.03683824837207794 -0.005213902331888676 -0.016330748796463013 0 0 0 0
2263027220 0.21669979393482208 -0.059170156717300415 -0.007211143150925636 -0.014446293003857136 0 0 0 0
2266749304 0.22603237628936768 -0.08504069596529007 -0.008949529379606247 -0.012514117173850536 0 0 0 0
2270471388 0.2331823706626892 -0.10785980522632599 -0.010240092873573303 -0.011051878333091736 0 0 0 0
2274193472 0.2348165363073349 -0.13477973639965057 -0.011954069137573242 -0.009283791296184063 0 0 0 0
2277915556 0.23116843402385712 -0.1600898951292038 -0.013131746090948582 -0.007304389029741287 0 0 0 0
2281637640 0.22867415845394135 -0.17829030752182007 -0.013809159398078918 -0.004927914589643478 0 0 0 0
2285359724 0.21336935460567474 -0.2030693143606186 -0.0141569459810853 -0.00313608068972826 0 0 0 0
2289081808 0.1979319006204605 -0.2204046994447708 -0.014515548944473267 -0.0007429495453834534 0 0 0 0
2292803892 0.1831505298614502 -0.23574119806289673 -0.014294522814452648 0.001424921676516533 0 0 0 0
2296525976 0.16248251497745514 -0.2466863989830017 -0.013432541862130165 0.0036478284746408463 0 0 0 0
2300248060 0.1443796306848526 -0.2540162205696106 -0.0125665832310915 0.005274219438433647 0 0 0 0
2303970144 0.12592068314552307 -0.26253658533096313 -0.010925079695880413 0.007323014549911022 0 0 0 0
2307692228 0.09990128874778748 -0.2623083293437958 -0.009803215973079205 0.008543534204363823 0 0 0 0
2311414312 0.07905209064483643 -0.2612742483615875 -0.007942888885736465 0.009706982411444187 0 0 0 0
2315136396 0.06045316159725189 -0.25524717569351196 -0.005525396205484867 0.009939928539097309 0 0 0 0
2318858480 0.02997390739619732 -0.24673117697238922 -0.0038294577971100807 0.009467992931604385 0 0 0 0
2322580564 0.00969066470861435 -0.2317602038383484 -0.0026229694485664368 0.009039511904120445 0 0 0 0
2326302648 0.00015395879745483398 -0.21447165310382843 -0.0019273022189736366 0.008563026785850525 0 0 0 0
2330024732 -0.018074296414852142 -0.19331404566764832 -0.001086159609258175 0.0081953015178442 0 0 0 0
2333746816 -0.02344600111246109 -0.17107939720153809 -0.0003726007416844368 0.007959101349115372 0 0 0 0
2337468900 -0.032776448875665665 -0.146042138338089 0.0001209992915391922 0.00794915296137333 0 0 0 0
2341190984 -0.03480609133839607 -0.11932695657014847 0.0011416617780923843 0.007584473118185997 0 0 0 0
2344913068 -0.03191623091697693 -0.09310232847929001 0.0019055195152759552 0.006907437928020954 0 0 0 0
2348635152 -0.02281155437231064 -0.06829266995191574 0.002212032675743103 0.00622209720313549 0 0 0 0
2352357236 -0.011722631752490997 -0.04393739998340607 0.0026290807873010635 0.0056516798213124275 0 0 0 0
2356079320 0.0058125704526901245 -0.022671807557344437 0.0026593273505568504 0.005194906145334244 0 0 0 0
2359801404 0.027085717767477036 -0.004426166415214539 0.0030285175889730453 0.0047189658507704735 0 0 0 0
2363523488 0.0503598116338253 0.009596197865903378 0.003489389084279537 0.004320584237575531 0 0 0 0
2367245572 0.07709711790084839 0.02023777924478054 0.003371189348399639 0.0036887945607304573 0 0 0 0
2370967656 0.10470166057348251 0.025457363575696945 0.0033291224390268326 0.003284713253378868 0 0 0 0
2374689740 0.1330741047859192 0.02551458217203617 0.003368641249835491 0.0029629813507199287 0 0 0 0
2378411824 0.16042080521583557 0.020991750061511993 0.0034866221249103546 0.0026078904047608376 0 0 0 0
2382133908 0.1882466971874237 0.012432597577571869 0.0032447045668959618 0.0021280869841575623 0 0 0 0
2385855992 0.21161925792694092 -0.0027938112616539 0.0031392574310302734 0.0019999314099550247 0 0 0 0
2389578076 0.23369145393371582 -0.018426604568958282 0.0028603114187717438 0.0020704343914985657 0 0 0 0
2393300160 0.2529903054237366 -0.03992259129881859 0.0026985546573996544 0.0023031597957015038 0 0 0 0
2397022244 0.26702821254730225 -0.06318067759275436 0.002944882959127426 0.0027085542678833008 0 0 0 0
2400744328 0.2788855731487274 -0.09058301895856857 0.0038352785632014275 0.0033223479986190796 0 0 0 0
2404466412 0.2864510118961334 -0.11675801873207092 0.0051658982411026955 0.0030606286600232124 0 0 0 0
2408188496 0.28849464654922485 -0.14425091445446014 0.0062875887379050255 0.0018522879108786583 0 0 0 0
2411910580 0.2881656289100647 -0.17158211767673492 0.006774872541427612 0.0010826224461197853 0 0 0 0
2415632664 0.280563086271286 -0.1983146071434021 0.007212875410914421 -0.0003458196297287941 0 0 0 0
2419354748 0.26946476101875305 -0.22365348041057587 0.007433026097714901 -0.001436365768313408 0 0 0 0
2423076832 0.25605207681655884 -0.24532568454742432 0.008351040072739124 -0.0034103738144040108 0 0 0 0
2426798916 0.2375032901763916 -0.26949262619018555 0.006961378268897533 -0.004610556177794933 0 0 0 0
2430521000 0.21691696345806122 -0.2886367738246918 0.00586748868227005 -0.0059988852590322495 0 0 0 0
2434243084 0.19527772068977356 -0.3027360737323761 0.0046204207465052605 -0.006497487425804138 0 0 0 0
2437965168 0.1712430715560913 -0.31570035219192505 0.003712352365255356 -0.007004057057201862 0 0 0 0
2441687252 0.14441943168640137 -0.3236329257488251 0.0029152389615774155 -0.0073538245633244514 0 0 0 0
2445409336 0.11659932881593704 -0.3294261395931244 0.0023459000512957573 -0.00800495594739914 0 0 0 0
2449131420 0.08962583541870117 -0.32803046703338623 0.001712227240204811 -0.00855184718966484 0 0 0 0
2452853504 0.056180089712142944 -0.3240010142326355 0.0006570741534233093 -0.00904233567416668 0 0 0 0
2456575588 0.029554136097431183 -0.31554317474365234 -0.00043383892625570297 -0.009887199848890305 0 0 0 0
2460297672 0.004488453269004822 -0.30037081241607666 -0.002067818306386471 -0.010654720477759838 0 0 0 0
2464019756 -0.01937958598136902 -0.28392305970191956 -0.004215870052576065 -0.010966687463223934 0 0 0 0
2467741840 -0.0391523540019989 -0.2631308436393738 -0.00654621422290802 -0.010679787956178188 0 0 0 0
2471463924 -0.05764427408576012 -0.24079710245132446 -0.008594287559390068 -0.009801963344216347 0 0 0 0
2475186008 -0.07088285684585571 -0.21597698330879211 -0.010393708012998104 -0.008660641498863697 0 0 0 0
2478908092 -0.08051455020904541 -0.18810169398784637 -0.012127906084060669 -0.007146100513637066 0 0 0 0
2482630176 -0.08716683834791183 -0.15860405564308167 -0.013762468472123146 -0.005212786607444286 0 0 0 0
2486352260 -0.08872874826192856 -0.1291707456111908 -0.014792626723647118 -0.0027142083272337914 0 0 0 0
2490074344 -0.08750349283218384 -0.0980345606803894 -0.01572383940219879 -0.00013118330389261246 0 0 0 0
2493796428 -0.07867796719074249 -0.06889069825410843 -0.016132019460201263 0.0026648491621017456 0 0 0 0
2497518512 -0.06664703786373138 -0.041202738881111145 -0.01569957844913006 0.0055892858654260635 0 0 0 0
2501240596 -0.04910670965909958 -0.01542720478028059 -0.014760244637727737 0.008369251154363155 0 0 0 0
2504962680 -0.02825990505516529 0.007653486914932728 -0.013361197896301746 0.010803314857184887 0 0 0 0
2508684764 -0.003472498618066311 0.026799088343977928 -0.011766307055950165 0.013267825357615948 0 0 0 0
2512406848 0.02389945462346077 0.04127222299575806 -0.009126228280365467 0.016072526574134827 0 0 0 0
2516128932 0.05329352989792824 0.051359232515096664 -0.0057588787749409676 0.01789597049355507 0 0 0 0
2519851016 0.08367332816123962 0.056482814252376556 -0.0016318196430802345 0.01868150569498539 0 0 0 0
2523573100 0.1142280101776123 0.054803863167762756 0.0022477013990283012 0.018078498542308807 0 0 0 0
2527295184 0.14409199357032776 0.04760697856545448 0.005566452629864216 0.01703670434653759 0 0 0 0
2531017268 0.1707139015197754 0.037698227912187576 0.008361565880477428 0.01519571803510189 0 0 0 0
2534739352 0.19335851073265076 0.021898068487644196 0.011095469817519188 0.01324698980897665 0 0 0 0
2538461436 0.21346715092658997 0.004419250413775444 0.013518843799829483 0.010383257642388344 0 0 0 0
2542183520 0.22967542707920074 -0.013263717293739319 0.014921924099326134 0.007401748560369015 0 0 0 0
2545905604 0.24291302263736725 -0.0382145494222641 0.015956517308950424 0.0038461871445178986 0 0 0 0
2549627688 0.2550922930240631 -0.056001774966716766 0.016192594543099403 0.0006748037412762642 0 0 0 0
2553349772 0.2602916955947876 -0.07851360738277435 0.0154885184019804 -0.003257402218878269 0 0 0 0
2557071856 0.26424187421798706 -0.10155145078897476 0.013713798485696316 -0.006484983488917351 0 0 0 0
2560793940 0.2634098529815674 -0.12287143617868423 0.011120517738163471 -0.00863219890743494 0 0 0 0
2564516024 0.2597789168357849 -0.1478966474533081 0.008490152657032013 -0.009787902235984802 0 0 0 0
2568238108 0.25447535514831543 -0.16703304648399353 0.006040491163730621 -0.010511788539588451 0 0 0 0
2571960192 0.2459336519241333 -0.18447469174861908 0.004049903713166714 -0.01059073954820633 0 0 0 0
2575682276 0.23252540826797485 -0.20366394519805908 0.0019329162314534187 -0.010249817743897438 0 0 0 0
2579404360 0.21921764314174652 -0.21783006191253662 0.0006109485402703285 -0.009760098531842232 0 0 0 0
2583126444 0.2042386382818222 -0.23105663061141968 -0.0004724636673927307 -0.009396604262292385 0 0 0 0
2586848528 0.18796122074127197 -0.2425026148557663 -0.0017543202266097069 -0.009259073063731194 0 0 0 0
2590570612 0.17216801643371582 -0.24861621856689453 -0.0030497554689645767 -0.009014601819217205 0 0 0 0
2594292696 0.15803220868110657 -0.25283491611480713 -0.0044122906401753426 -0.008165519684553146 0 0 0 0
2598014780 0.13559509813785553 -0.25870996713638306 -0.0057453252375125885 -0.007110906764864922 0 0 0 0
2601736864 0.1199805960059166 -0.2576843202114105 -0.006661728024482727 -0.0060457997024059296 0 0 0 0
2605458948 0.10015057027339935 -0.2555716633796692 -0.0075972722843289375 -0.004391700029373169 0 0 0 0
2609181032 0.08322843909263611 -0.2497650533914566 -0.007750416174530983 -0.002601468935608864 0 0 0 0
2612903116 0.0679624080657959 -0.24160119891166687 -0.0072145601734519005 -0.0011265939101576805 0 0 0 0
2616625200 0.051501624286174774 -0.23060564696788788 -0.0065138135105371475 2.070050686597824e-05 0 0 0 0
2620347284 0.04154735058546066 -0.21893680095672607 -0.005646679550409317 0.0007146298885345459 0 0 0 0
2624069368 0.03280031308531761 -0.20556782186031342 -0.0047904448583722115 0.0010524159297347069 0 0 0 0
2627791452 0.02571108192205429 -0.19017137587070465 -0.004022713750600815 0.0012053567916154861 0 0 0 0
2631513536 0.023452498018741608 -0.17483896017074585 -0.003791029565036297 0.0009541027247905731 0 0 0 0
2635235620 0.02262469008564949 -0.1601000428199768 -0.0038316380232572556 0.0009330827742815018 0 0 0 0
2638957704 0.02438800409436226 -0.1445302665233612 -0.003615383990108967 0.0013003172352910042 0 0 0 0
2642679788 0.028409577906131744 -0.1320609152317047 -0.0034365681931376457 0.0014992812648415565 0 0 0 0
2646401872 0.03572214022278786 -0.1206766739487648 -0.002967427484691143 0.0016546892002224922 0 0 0 0
2650123956 0.043573662638664246 -0.11001675575971603 -0.002718511037528515 0.001692374236881733 0 0 0 0
2653846040 0.05261726677417755 -0.10188207030296326 -0.002487046644091606 0.0014058584347367287 0 0 0 0
2657568124 0.06415979564189911 -0.096408911049366 -0.002621958963572979 0.001314365305006504 0 0 0 0
2661290208 0.0775403156876564 -0.09389684349298477 -0.003010629676282406 0.001379125751554966 0 0 0 0
2665012292 0.08882007747888565 -0.0947701558470726 -0.0031237611547112465 0.0018262555822730064 0 0 0 0
2668734376 0.09821920096874237 -0.09932494163513184 -0.0031726201996207237 0.002265014685690403 0 0 0 0
2672456460 0.10718558728694916 -0.10418354719877243 -0.003075297921895981 0.0029140859842300415 0 0 0 0
2676178544 0.11418920010328293 -0.11046530306339264 -0.002745790407061577 0.003456023521721363 0 0 0 0
2679900628 0.11983110010623932 -0.1173483356833458 -0.002164158970117569 0.004164976067841053 0 0 0 0
2683622712 0.12314391881227493 -0.12490470707416534 -0.0013586850836873055 0.004562647081911564 0 0 0 0
2687344796 0.1248076930642128 -0.1337517648935318 -0.000375283882021904 0.004753311164677143 0 0 0 0
2691066880 0.12431170046329498 -0.14317505061626434 0.00047072023153305054 0.004649288021028042 0 0 0 0
2694788964 0.12092270702123642 -0.15023872256278992 0.0011805268004536629 0.004634487442672253 0 0 0 0
2698511048 0.11838507652282715 -0.1577504277229309 0.0022204630076885223 0.004604548215866089 0 0 0 0
2702233132 0.11428586393594742 -0.1647367924451828 0.0034423936158418655 0.004152962937951088 0 0 0 0
2705955216 0.10794354230165482 -0.1710769087076187 0.004508594982326031 0.003029990941286087 0 0 0 0
2709677300 0.10030733048915863 -0.17697511613368988 0.005117555148899555 0.001592869870364666 0 0 0 0
2713399384 0.09227161109447479 -0.1825210005044937 0.0050249723717570305 0.0002368716523051262 0 0 0 0
2717121468 0.08089897781610489 -0.184284970164299 0.0046130213886499405 -0.0009108167141675949 0 0 0 0
2720843552 0.06959466636180878 -0.1852719783782959 0.0040941424667835236 -0.0017668809741735458 0 0 0 0
2724565636 0.05846314877271652 -0.18319359421730042 0.0032764021307229996 -0.002240127883851528 0 0 0 0
2728287720 0.04498240724205971 -0.17975422739982605 0.0024075889959931374 -0.0024322792887687683 0 0 0 0
2732009804 0.03401355445384979 -0.17359161376953125 0.002059897407889366 -0.0024245623499155045 0 0 0 0
2735731888 0.0240139402449131 -0.1635609120130539 0.0018526297062635422 -0.0025576315820217133 0 0 0 0
2739453972 0.01571539044380188 -0.15334133803844452 0.001484098844230175 -0.0027289381250739098 0 0 0 0
2743176056 0.008044134825468063 -0.14003704488277435 0.0011625699698925018 -0.0028736209496855736 0 0 0 0
2746898140 0.001881420612335205 -0.12497702240943909 0.0008839396759867668 -0.0029956968501210213 0 0 0 0
2750620224 0.0002731047570705414 -0.1092662364244461 0.0007156925275921822 -0.0030521266162395477 0 0 0 0
2754342308 0.00151120126247406 -0.09366431087255478 0.0005537392571568489 -0.003359103575348854 0 0 0 0
2758064392 0.003893677145242691 -0.07749002426862717 0.00014636293053627014 -0.0036767348647117615 0 0 0 0
2761786476 0.00994248129427433 -0.06120160222053528 -0.0005913153290748596 -0.004002819769084454 0 0 0 0
2765508560 0.018476851284503937 -0.04573623463511467 -0.001467735506594181 -0.0038195447996258736 0 0 0 0
2769230644 0.030646705999970436 -0.03168872371315956 -0.002240375615656376 -0.003214120864868164 0 0 0 0
2772952728 0.04524659737944603 -0.02014537714421749 -0.0025938814505934715 -0.002680913545191288 0 0 0 0
2776674812 0.061245642602443695 -0.010900095105171204 -0.0026508690789341927 -0.0021501574665308 0 0 0 0
2780396896 0.0790930986404419 -0.004465166479349136 -0.0028083622455596924 -0.0018306924030184746 0 0 0 0
2784118980 0.09730947762727737 -0.0003936178982257843 -0.0030193179845809937 -0.001329837366938591 0 0 0 0
2787841064 0.1167662963271141 0.0014503058046102524 -0.003014739602804184 -0.0006808573380112648 0 0 0 0
2791563148 0.13713392615318298 -0.0005272775888442993 -0.00287508312612772 -0.0001452947035431862 0 0 0 0
2795285232 0.15789493918418884 -0.004228807985782623 -0.0024638380855321884 0.00039619579911231995 0 0 0 0
2799007316 0.17830514907836914 -0.011701423674821854 -0.0019761845469474792 0.0004947502166032791 0 0 0 0
2802729400 0.19715243577957153 -0.023912236094474792 -0.00151105597615242 0.0003719404339790344 0 0 0 0
2806451484 0.21495500206947327 -0.040626585483551025 -0.0016449298709630966 0.0001720944419503212 0 0 0 0
2810173568 0.22932788729667664 -0.056484196335077286 -0.0017289882525801659 0.00028676725924015045 0 0 0 0
2813895652 0.23966848850250244 -0.07897448539733887 -0.0018282616510987282 0.0007456084713339806 0 0 0 0
2817617736 0.2491438090801239 -0.09877846390008926 -0.0016039768233895302 0.0012004803866147995 0 0 0 0
2821339820 0.25253528356552124 -0.1240948811173439 -0.0010865246877074242 0.001482611522078514 0 0 0 0
2825061904 0.25354519486427307 -0.14706796407699585 -0.0006240783259272575 0.0014532674103975296 0 0 0 0
2828783988 0.2517717778682709 -0.170565664768219 -0.00021846499294042587 0.0013338737189769745 0 0 0 0
2832506072 0.24617163836956024 -0.19120608270168304 2.121180295944214e-05 0.0010753534734249115 0 0 0 0
2836228156 0.23538486659526825 -0.21517828106880188 0.00022827740758657455 0.0010097958147525787 0 0 0 0
2839950240 0.2232895791530609 -0.2364259660243988 0.00040370412170886993 0.0008458709344267845 0 0 0 0
2843672324 0.21146036684513092 -0.25354719161987305 0.0006536878645420074 0.0006950171664357185 0 0 0 0
2847394408 0.19318807125091553 -0.2694240212440491 0.0007408587262034416 0.0004282761365175247 0 0 0 0
2851116492 0.17685529589653015 -0.28513914346694946 0.0007781507447361946 0.00016888324171304703 0 0 0 0
2854838576 0.15558964014053345 -0.2976551055908203 0.000739002600312233 -6.0228630900382996e-06 0 0 0 0
2858560660 0.13849271833896637 -0.3059082627296448 0.0009105820208787918 -0.0005460930988192558 0 0 0 0
2862282744 0.1106082871556282 -0.3153454065322876 0.0006974684074521065 -0.0006055328994989395 0 0 0 0
2866004828 0.0911581739783287 -0.3190969228744507 0.0007499642670154572 -0.0005913823843002319 0 0 0 0
2869726912 0.06539366394281387 -0.31964194774627686 0.0008912459015846252 -0.0007122913375496864 0 0 0 0
2873448996 0.040025174617767334 -0.3187914490699768 0.0007979441434144974 -0.0009443070739507675 0 0 0 0
2877171080 0.01311492919921875 -0.3109537959098816 0.0007151570171117783 -0.0011256048455834389 0 0 0 0
2880893164 -0.00884479284286499 -0.30368345975875854 0.0004715798422694206 -0.0013001998886466026 0 0 0 0
2884615248 -0.031367577612400055 -0.29082468152046204 0.0002027982845902443 -0.0013971198350191116 0 0 0 0
2888337332 -0.05569954216480255 -0.275463730096817 4.44166362285614e-05 -0.0013373028486967087 0 0 0 0
2892059416 -0.07203317433595657 -0.2583649158477783 -0.00013950839638710022 -0.00122907105833292 0 0 0 0
2895781500 -0.08957937359809875 -0.2379484325647354 -0.000279255211353302 -0.0009749364107847214 0 0 0 0
2899503584 -0.10296084731817245 -0.214494988322258 -0.0004004277288913727 -0.0007709087803959846 0 0 0 0
2903225668 -0.11587324738502502 -0.189022496342659 -0.0004930431023240089 -0.0005218954756855965 0 0 0 0
2906947752 -0.12324558198451996 -0.16219103336334229 -0.0002983883023262024 -0.00033047888427972794 0 0 0 0
2910669836 -0.12419889122247696 -0.13576722145080566 -2.0864419639110565e-05 -0.00025020912289619446 0 0 0 0
2914391920 -0.12478581815958023 -0.10806648433208466 3.550201654434204e-05 -0.00031472090631723404 0 0 0 0
2918114004 -0.12038439512252808 -0.08248594403266907 0.00021404121071100235 -0.00029216520488262177 0 0 0 0
2921836088 -0.11415495723485947 -0.05682827904820442 0.0002215886488556862 -0.0002754479646682739 0 0 0 0
2925558172 -0.10518810153007507 -0.03338785842061043 0.000369437038898468 -0.00034373626112937927 0 0 0 0
2929280256 -0.09145087003707886 -0.009594010189175606 0.00026295799762010574 -0.0003532320261001587 0 0 0 0
2933002340 -0.07619865238666534 0.012092232704162598 0.00012681074440479279 -0.0005066534504294395 0 0 0 0
2936724424 -0.05746055021882057 0.031816691160202026 -7.027480751276016e-05 -0.0003504781052470207 0 0 0 0
2940446508 -0.03669613227248192 0.048695147037506104 -0.00015094224363565445 -0.00030355900526046753 0 0 0 0
2944168592 -0.013080982491374016 0.06224610283970833 -0.00029845722019672394 5.847495049238205e-05 0 0 0 0
2947890676 0.01204724796116352 0.07387349009513855 -9.857024997472763e-05 0.00047264713793992996 0 0 0 0
2951612760 0.03908109292387962 0.08171569555997849 0.00013512372970581055 0.0007920898497104645 0 0 0 0
2955334844 0.06566911190748215 0.08565196394920349 0.000546501949429512 0.000993281602859497 0 0 0 0
2959056928 0.09454192966222763 0.08461245894432068 0.0010553579777479172 0.0010363394394516945 0 0 0 0
2962779012 0.12180452048778534 0.07968050241470337 0.0016160374507308006 0.0010312460362911224 0 0 0 0
2966501096 0.14742527902126312 0.07234302163124084 0.002136027440428734 0.0008116625249385834 0 0 0 0
2970223180 0.17100569605827332 0.060774896293878555 0.0024933572858572006 0.0001416075974702835 0 0 0 0
2973945264 0.19361917674541473 0.04564369469881058 0.002740471623837948 -0.00043819379061460495 0 0 0 0
2977667348 0.21393929421901703 0.026874935254454613 0.002739925868809223 -0.0010791020467877388 0 0 0 0
2981389432 0.23150017857551575 0.009561367332935333 0.002429606392979622 -0.0016251429915428162 0 0 0 0
2985111516 0.24569661915302277 -0.01516592875123024 0.0020189164206385612 -0.0018820539116859436 0 0 0 0
2988833600 0.25622618198394775 -0.03687366843223572 0.0016533108428120613 -0.002143518067896366 0 0 0 0
2992555684 0.2641322612762451 -0.06091799587011337 0.001150188036262989 -0.002388457767665386 0 0 0 0
2996277768 0.26764973998069763 -0.08624449372291565 0.0007596993818879128 -0.0024025049060583115 0 0 0 0
2999999852 0.27102211117744446 -0.10756509006023407 0.00016212090849876404 -0.002176898531615734 0 0 0 0
